TITLE="results for TO code"
VARIABLES = "x", "y", "z", "density", "sigmaxx", "sigmayy", "sigmazz", "sigmaxy", "sigmaxz", "sigmayz"
ZONE T="load step 1", NODES= 12221, ELEMENTS= 10000, DATAPACKING=POINT, ZONETYPE=FEBRICK
               0.00000000                0.00000000                0.00000000                1.00000000               -0.00000000               -0.00000000                2.50331636               -0.00000000                0.66891029                1.49059169
               1.00000000                0.00000000                0.00000000                1.00000000               -0.00000000                0.00000000                1.64668480                0.00000000               -0.01090118                0.92283683
               2.00000000                0.00000000                0.00000000                1.00000000               -0.00000000               -0.00000000                0.67272205               -0.00000000               -0.22362208                0.35715153
               3.00000000                0.00000000                0.00000000                1.00000000               -0.00000000                0.00000000                0.01444449               -0.00000000               -0.08690723                0.01427143
               4.00000000                0.00000000                0.00000000                1.00000000               -0.00000000                0.00000000               -0.02956426               -0.00000000                0.02097066               -0.03549083
               5.00000000                0.00000000                0.00000000                1.00000000               -0.00000000               -0.00000000               -0.00959850               -0.00000000                0.04686180               -0.00751278
               6.00000000                0.00000000                0.00000000                1.00000000               -0.00000000               -0.00000000               -0.00415752               -0.00000000                0.03121982                0.00724162
               7.00000000                0.00000000                0.00000000                1.00000000                0.00000000               -0.00000000               -0.09730291                0.00000000               -0.03193355               -0.07373715
               8.00000000                0.00000000                0.00000000                1.00000000                0.00000000                0.00000000               -0.81242015               -0.00000000               -0.06784688               -0.53679900
               9.00000000                0.00000000                0.00000000                1.00000000               -0.00000000               -0.00000000               -2.05838975                0.00000000                0.33122355               -1.20967061
              10.00000000                0.00000000                0.00000000                1.00000000                0.00000000               -0.00000000               -3.32434398                0.00000000                1.25645379               -1.77774467
               0.00000000                1.00000000                0.00000000                1.00000000               -0.00000000               -0.00000000                2.05243633               -0.00000000                1.01415946                0.77648454
               1.00000000                1.00000000                0.00000000                1.00000000                0.00000000               -0.00000000                1.16092808               -0.00000000                0.36804396                0.42317349
               2.00000000                1.00000000                0.00000000                1.00000000               -0.00000000               -0.00000000                0.34560043                0.00000000                0.09630289                0.07083540
               3.00000000                1.00000000                0.00000000                1.00000000                0.00000000               -0.00000000                0.00247030                0.00000000                0.04609151               -0.03088813
               4.00000000                1.00000000                0.00000000                1.00000000                0.00000000               -0.00000000               -0.00174420                0.00000000                0.02758039               -0.02408817
               5.00000000                1.00000000                0.00000000                1.00000000                0.00000000               -0.00000000               -0.00292095               -0.00000000                0.02661019               -0.00382553
               6.00000000                1.00000000                0.00000000                1.00000000                0.00000000               -0.00000000               -0.00657482                0.00000000                0.04250689                0.01062528
               7.00000000                1.00000000                0.00000000                1.00000000                0.00000000               -0.00000000               -0.04107977                0.00000000                0.09620472               -0.01329740
               8.00000000                1.00000000                0.00000000                1.00000000               -0.00000000               -0.00000000               -0.27383466                0.00000000                0.23113375               -0.12275658
               9.00000000                1.00000000                0.00000000                1.00000000               -0.00000000                0.00000000               -1.35598745               -0.00000000                0.63391086               -0.52816618
              10.00000000                1.00000000                0.00000000                1.00000000                0.00000000                0.00000000               -2.94969060               -0.00000000                1.54215500               -0.85681679
               0.00000000                2.00000000                0.00000000                1.00000000                0.00000000                0.00000000                2.02114403               -0.00000000                1.14654992                0.37421786
               1.00000000                2.00000000                0.00000000                1.00000000               -0.00000000               -0.00000000                0.82562946               -0.00000000                0.46527246                0.16592900
               2.00000000                2.00000000                0.00000000                1.00000000               -0.00000000               -0.00000000                0.05662022                0.00000000                0.18011550               -0.02093915
               3.00000000                2.00000000                0.00000000                1.00000000               -0.00000000               -0.00000000                0.00010671               -0.00000000                0.07016056               -0.01449273
               4.00000000                2.00000000                0.00000000                1.00000000               -0.00000000                0.00000000                0.00179404                0.00000000                0.02577875               -0.01159542
               5.00000000                2.00000000                0.00000000                1.00000000                0.00000000                0.00000000               -0.00008083                0.00000000                0.01527594               -0.00391203
               6.00000000                2.00000000                0.00000000                1.00000000               -0.00000000                0.00000000               -0.00040654                0.00000000                0.02823921               -0.00270320
               7.00000000                2.00000000                0.00000000                1.00000000                0.00000000               -0.00000000               -0.00973913               -0.00000000                0.07183672               -0.01943579
               8.00000000                2.00000000                0.00000000                1.00000000                0.00000000               -0.00000000                0.05068515               -0.00000000                0.17117748               -0.07841461
               9.00000000                2.00000000                0.00000000                1.00000000               -0.00000000               -0.00000000               -0.68903586                0.00000000                0.45733433               -0.20072288
              10.00000000                2.00000000                0.00000000                1.00000000                0.00000000                0.00000000               -2.35430620                0.00000000                1.46270107               -0.18264038
               0.00000000                3.00000000                0.00000000                1.00000000                0.00000000                0.00000000                1.92528039                0.00000000                1.11002753                0.11424631
               1.00000000                3.00000000                0.00000000                1.00000000               -0.00000000               -0.00000000                0.53300975                0.00000000                0.44012591                0.04200595
               2.00000000                3.00000000                0.00000000                1.00000000               -0.00000000                0.00000000               -0.05189768               -0.00000000                0.18561707               -0.03045468
               3.00000000                3.00000000                0.00000000                1.00000000                0.00000000               -0.00000000                0.01167951                0.00000000                0.07440937               -0.00701401
               4.00000000                3.00000000                0.00000000                1.00000000               -0.00000000               -0.00000000                0.00084912                0.00000000                0.02921470               -0.00434850
               5.00000000                3.00000000                0.00000000                1.00000000               -0.00000000                0.00000000                0.00027831               -0.00000000                0.01613764               -0.00336241
               6.00000000                3.00000000                0.00000000                1.00000000                0.00000000                0.00000000               -0.00121795               -0.00000000                0.02152896               -0.00603079
               7.00000000                3.00000000                0.00000000                1.00000000               -0.00000000               -0.00000000               -0.00313205                0.00000000                0.04611033               -0.01903699
               8.00000000                3.00000000                0.00000000                1.00000000                0.00000000                0.00000000                0.00301029                0.00000000                0.09757994               -0.05215485
               9.00000000                3.00000000                0.00000000                1.00000000                0.00000000                0.00000000               -0.26323879                0.00000000                0.22291335               -0.09367230
              10.00000000                3.00000000                0.00000000                1.00000000               -0.00000000               -0.00000000               -1.20697879               -0.00000000                0.94471491                0.04138323
               0.00000000                4.00000000                0.00000000                1.00000000               -0.00000000                0.00000000                1.75962160               -0.00000000                0.99419983               -0.03855623
               1.00000000                4.00000000                0.00000000                1.00000000               -0.00000000               -0.00000000                0.33425407                0.00000000                0.39522116               -0.03407786
               2.00000000                4.00000000                0.00000000                1.00000000                0.00000000                0.00000000               -0.08065220                0.00000000                0.18538820               -0.03032269
               3.00000000                4.00000000                0.00000000                1.00000000               -0.00000000                0.00000000                0.01278314                0.00000000                0.07488793               -0.00397597
               4.00000000                4.00000000                0.00000000                1.00000000                0.00000000               -0.00000000                0.00121085                0.00000000                0.02947678               -0.00157151
               5.00000000                4.00000000                0.00000000                1.00000000                0.00000000                0.00000000                0.00037564               -0.00000000                0.01538483               -0.00207433
               6.00000000                4.00000000                0.00000000                1.00000000               -0.00000000               -0.00000000               -0.00040548                0.00000000                0.01624321               -0.00475532
               7.00000000                4.00000000                0.00000000                1.00000000                0.00000000               -0.00000000               -0.00370451                0.00000000                0.02968674               -0.01180233
               8.00000000                4.00000000                0.00000000                1.00000000                0.00000000               -0.00000000                0.01209169                0.00000000                0.05786810               -0.02274231
               9.00000000                4.00000000                0.00000000                1.00000000                0.00000000               -0.00000000               -0.20989738               -0.00000000                0.13143666               -0.00065779
              10.00000000                4.00000000                0.00000000                1.00000000                0.00000000                0.00000000               -1.03747923                0.00000000                0.72017099                0.09112632
               0.00000000                5.00000000                0.00000000                1.00000000               -0.00000000               -0.00000000                1.57348041               -0.00000000                0.86270852               -0.12270282
               1.00000000                5.00000000                0.00000000                1.00000000                0.00000000                0.00000000                0.14870206                0.00000000                0.34623537               -0.07808159
               2.00000000                5.00000000                0.00000000                1.00000000               -0.00000000               -0.00000000               -0.09700769                0.00000000                0.17902490               -0.02836793
               3.00000000                5.00000000                0.00000000                1.00000000                0.00000000               -0.00000000                0.01405925                0.00000000                0.07324100               -0.00192665
               4.00000000                5.00000000                0.00000000                1.00000000               -0.00000000                0.00000000                0.00107172                0.00000000                0.02861117               -0.00011564
               5.00000000                5.00000000                0.00000000                1.00000000               -0.00000000                0.00000000                0.00054688                0.00000000                0.01409450               -0.00088405
               6.00000000                5.00000000                0.00000000                1.00000000               -0.00000000               -0.00000000               -0.00024226                0.00000000                0.01284635               -0.00255119
               7.00000000                5.00000000                0.00000000                1.00000000               -0.00000000               -0.00000000               -0.00220209               -0.00000000                0.02161703               -0.00499861
               8.00000000                5.00000000                0.00000000                1.00000000               -0.00000000                0.00000000                0.00861019                0.00000000                0.04310177               -0.00244621
               9.00000000                5.00000000                0.00000000                1.00000000                0.00000000               -0.00000000               -0.14845271               -0.00000000                0.10752373                0.05532535
              10.00000000                5.00000000                0.00000000                1.00000000               -0.00000000                0.00000000               -0.90268240                0.00000000                0.61069459                0.13374906
               0.00000000                6.00000000                0.00000000                1.00000000               -0.00000000                0.00000000                1.37780126               -0.00000000                0.73314782               -0.16161083
               1.00000000                6.00000000                0.00000000                1.00000000               -0.00000000               -0.00000000               -0.01929003                0.00000000                0.30392240               -0.09887123
               2.00000000                6.00000000                0.00000000                1.00000000                0.00000000               -0.00000000               -0.10439457                0.00000000                0.17265799               -0.02448563
               3.00000000                6.00000000                0.00000000                1.00000000               -0.00000000                0.00000000                0.01425889                0.00000000                0.07064614                0.00013492
               4.00000000                6.00000000                0.00000000                1.00000000                0.00000000               -0.00000000                0.00099255                0.00000000                0.02711947                0.00130295
               5.00000000                6.00000000                0.00000000                1.00000000               -0.00000000                0.00000000                0.00058235               -0.00000000                0.01276346                0.00013259
               6.00000000                6.00000000                0.00000000                1.00000000               -0.00000000                0.00000000               -0.00004387               -0.00000000                0.01105796               -0.00095891
               7.00000000                6.00000000                0.00000000                1.00000000               -0.00000000                0.00000000               -0.00154390               -0.00000000                0.01880279               -0.00071885
               8.00000000                6.00000000                0.00000000                1.00000000               -0.00000000                0.00000000                0.00521764               -0.00000000                0.04039618                0.00864732
               9.00000000                6.00000000                0.00000000                1.00000000               -0.00000000                0.00000000               -0.07890803                0.00000000                0.09880192                0.08796612
              10.00000000                6.00000000                0.00000000                1.00000000                0.00000000               -0.00000000               -0.77940713                0.00000000                0.50900966                0.17175828
               0.00000000                7.00000000                0.00000000                1.00000000                0.00000000               -0.00000000                1.17747413                0.00000000                0.61496678               -0.17179121
               1.00000000                7.00000000                0.00000000                1.00000000               -0.00000000                0.00000000               -0.17406167                0.00000000                0.27289517               -0.09856571
               2.00000000                7.00000000                0.00000000                1.00000000               -0.00000000               -0.00000000               -0.10858330                0.00000000                0.16859760               -0.01481380
               3.00000000                7.00000000                0.00000000                1.00000000                0.00000000                0.00000000                0.01405591               -0.00000000                0.06708222                0.00495310
               4.00000000                7.00000000                0.00000000                1.00000000               -0.00000000                0.00000000                0.00078614               -0.00000000                0.02443202                0.00357194
               5.00000000                7.00000000                0.00000000                1.00000000               -0.00000000               -0.00000000                0.00058920                0.00000000                0.01102387                0.00097153
               6.00000000                7.00000000                0.00000000                1.00000000                0.00000000               -0.00000000                0.00001623               -0.00000000                0.00977596               -0.00062461
               7.00000000                7.00000000                0.00000000                1.00000000                0.00000000               -0.00000000               -0.00079679                0.00000000                0.01870507                0.00045393
               8.00000000                7.00000000                0.00000000                1.00000000               -0.00000000                0.00000000                0.00051176                0.00000000                0.04348310                0.01435378
               9.00000000                7.00000000                0.00000000                1.00000000                0.00000000                0.00000000                0.00461112               -0.00000000                0.09701945                0.11012643
              10.00000000                7.00000000                0.00000000                1.00000000               -0.00000000                0.00000000               -0.65005924               -0.00000000                0.40792332                0.19359529
               0.00000000                8.00000000                0.00000000                1.00000000               -0.00000000                0.00000000                0.96913272                0.00000000                0.51091056               -0.17057671
               1.00000000                8.00000000                0.00000000                1.00000000                0.00000000                0.00000000               -0.31694542               -0.00000000                0.25373402               -0.06790842
               2.00000000                8.00000000                0.00000000                1.00000000               -0.00000000               -0.00000000               -0.11844242                0.00000000                0.16433575                0.01427642
               3.00000000                8.00000000                0.00000000                1.00000000               -0.00000000                0.00000000                0.01313361                0.00000000                0.05803773                0.01786250
               4.00000000                8.00000000                0.00000000                1.00000000                0.00000000               -0.00000000                0.00059878                0.00000000                0.01855923                0.00638472
               5.00000000                8.00000000                0.00000000                1.00000000               -0.00000000                0.00000000                0.00048910               -0.00000000                0.00925761                0.00095860
               6.00000000                8.00000000                0.00000000                1.00000000               -0.00000000                0.00000000                0.00015689                0.00000000                0.00830138               -0.00074642
               7.00000000                8.00000000                0.00000000                1.00000000                0.00000000               -0.00000000               -0.00036502                0.00000000                0.01651945               -0.00318537
               8.00000000                8.00000000                0.00000000                1.00000000               -0.00000000               -0.00000000               -0.00244426                0.00000000                0.05219873                0.01025132
               9.00000000                8.00000000                0.00000000                1.00000000               -0.00000000                0.00000000                0.10346285               -0.00000000                0.11164561                0.12376072
              10.00000000                8.00000000                0.00000000                1.00000000               -0.00000000                0.00000000               -0.53034054                0.00000000                0.32462042                0.19757717
               0.00000000                9.00000000                0.00000000                1.00000000               -0.00000000               -0.00000000                0.72025203               -0.00000000                0.39545205               -0.19987497
               1.00000000                9.00000000                0.00000000                1.00000000                0.00000000               -0.00000000               -0.43935807                0.00000000                0.21954935                0.04211895
               2.00000000                9.00000000                0.00000000                1.00000000                0.00000000                0.00000000               -0.16462031               -0.00000000                0.13647769                0.10456977
               3.00000000                9.00000000                0.00000000                1.00000000                0.00000000               -0.00000000                0.01700537                0.00000000                0.03388427                0.03791666
               4.00000000                9.00000000                0.00000000                1.00000000               -0.00000000               -0.00000000               -0.00018296                0.00000000                0.01538015                0.00444198
               5.00000000                9.00000000                0.00000000                1.00000000               -0.00000000                0.00000000                0.00057111               -0.00000000                0.00887860                0.00079039
               6.00000000                9.00000000                0.00000000                1.00000000                0.00000000               -0.00000000                0.00013076               -0.00000000                0.00769176               -0.00077062
               7.00000000                9.00000000                0.00000000                1.00000000               -0.00000000                0.00000000                0.00072381               -0.00000000                0.01158611               -0.00569884
               8.00000000                9.00000000                0.00000000                1.00000000                0.00000000                0.00000000               -0.00778549                0.00000000                0.04132825               -0.02397117
               9.00000000                9.00000000                0.00000000                1.00000000               -0.00000000               -0.00000000                0.28183232               -0.00000000                0.15208557                0.08094201
              10.00000000                9.00000000                0.00000000                1.00000000               -0.00000000                0.00000000               -0.43758385               -0.00000000                0.28790009                0.22138103
               0.00000000               10.00000000                0.00000000                1.00000000                0.00000000                0.00000000                0.54916047                0.00000000                0.00868962               -0.36053280
               1.00000000               10.00000000                0.00000000                1.00000000               -0.00000000               -0.00000000               -0.59447867                0.00000000               -0.01157381                0.32019060
               2.00000000               10.00000000                0.00000000                1.00000000                0.00000000               -0.00000000               -0.34970950               -0.00000000                0.14501441                0.33898114
               3.00000000               10.00000000                0.00000000                1.00000000                0.00000000                0.00000000               -0.00401955               -0.00000000                0.08049977                0.05519185
               4.00000000               10.00000000                0.00000000                1.00000000               -0.00000000                0.00000000               -0.00407618                0.00000000                0.03014761                0.01057318
               5.00000000               10.00000000                0.00000000                1.00000000                0.00000000                0.00000000               -0.00014948               -0.00000000                0.01255158                0.00220507
               6.00000000               10.00000000                0.00000000                1.00000000               -0.00000000                0.00000000                0.00095591                0.00000000                0.01122409               -0.00200801
               7.00000000               10.00000000                0.00000000                1.00000000                0.00000000               -0.00000000                0.00479269                0.00000000                0.02238099               -0.01087157
               8.00000000               10.00000000                0.00000000                1.00000000               -0.00000000                0.00000000                0.02478473               -0.00000000                0.04680961               -0.06357081
               9.00000000               10.00000000                0.00000000                1.00000000                0.00000000                0.00000000                0.42780648                0.00000000                0.04680718               -0.17355336
              10.00000000               10.00000000                0.00000000                1.00000000                0.00000000               -0.00000000               -0.45977115                0.00000000                0.03201497                0.39433897
               0.00668910                0.01490592                1.02503316                1.00000000               -0.67981147               -0.71410715                2.47213274               -0.22250569               -0.12852060                0.72430237
               0.99989099                0.00922837                1.01646685                1.00000000               -0.44626619               -0.49966334                1.64308873               -0.18777494               -0.47775788                0.23879222
               1.99776378                0.00357152                1.00672722                0.69626609               -0.03800302               -0.28631612                0.80934787               -0.13435773               -0.55172139               -0.06049069
               2.99913093                0.00014271                1.00014444                0.51446618                0.12229637               -0.04515956                0.09070780               -0.06332244               -0.04302244               -0.10278175
               4.00020971               -0.00035491                0.99970436                0.44701029                0.06688452                0.01140266               -0.20680708               -0.00428237                0.59227224               -0.14756581
               5.00046862               -0.00007513                0.99990402                0.44741682                0.00512458                0.00368725               -0.10131937                0.00111461                0.82526218               -0.02568877
               6.00031220                0.00007242                0.99995842                0.50344943               -0.03939767                0.00338366               -0.04991728               -0.02182511                0.67826514                0.08684827
               6.99968066               -0.00073737                0.99902697                0.62814469               -0.04953335                0.06043976               -0.44701667               -0.14388205                0.13906184                0.02067866
               7.99932153               -0.00536799                0.99187580                0.86304619                0.18157855                0.41404243               -1.32306940               -0.26898609               -0.40835065                0.10938110
               9.00331224               -0.01209671                0.97941610                1.00000000                0.66215034                0.68150443               -2.27524225               -0.31778553               -0.39196458               -0.21126259
              10.01256454               -0.01777745                0.96675656                1.00000000                0.92523024                0.92092788               -3.14269544               -0.28237286               -0.00693964               -0.95400453
               0.01014159                1.00776485                1.02052436                1.00000000               -0.64611549               -0.55818691                2.17421815               -0.11449123                0.20430767                0.59099531
               1.00368044                1.00423173                1.01160928                0.89387079               -0.45892828               -0.37845392                1.37365035               -0.11473775               -0.04727590                0.08234368
               2.00096303                1.00070835                1.00345600                0.21617035               -0.16097623               -0.18904534                0.58356960               -0.02516202                0.06065726               -0.19766764
               3.00046092                0.99969112                1.00002470                0.00010000               -0.03436125               -0.01438208                0.07631808                0.03107211                0.43229772               -0.16504829
               4.00027580                0.99975912                0.99998256                0.00010000               -0.00974066                0.01194771               -0.13828630                0.01593534                0.62577378               -0.15918819
               5.00026610                0.99996174                0.99997079                0.00010000                0.00746325                0.00180038               -0.08553894                0.00156379                0.69714249               -0.00082420
               6.00042507                1.00010625                0.99993425                0.00010000                0.03479726               -0.00497241               -0.09284054               -0.00622623                0.73370858                0.16464796
               7.00096205                0.99986703                0.99958920                0.10629076                0.09431343                0.02715068               -0.40221847               -0.01480579                0.70787673                0.18189847
               8.00231134                0.99877243                0.99726165                0.43094495                0.26885307                0.22919220               -1.21111637               -0.13792221                0.36415904                0.26472590
               9.00633911                0.99471834                0.98644013                1.00000000                0.65551062                0.50447386               -1.94358130               -0.30397472               -0.08056425                0.06664913
              10.01542155                0.99143183                0.97050309                1.00000000                0.90824414                0.79755215               -2.81613271               -0.22552697                0.03887606               -0.43882347
               0.01146550                2.00374218                1.02021144                1.00000000               -0.68127747               -0.33111912                2.01729662               -0.16035483                0.12567634                0.48343783
               1.00465272                2.00165929                1.00825629                0.65992577               -0.48321721               -0.19058377                1.15605875               -0.16153753                0.06491890               -0.01475624
               2.00180116                1.99979061                1.00056620                0.07213885               -0.19755595               -0.05064504                0.24421336               -0.04555378                0.53192571               -0.24095421
               3.00070161                1.99985507                1.00000107                0.00010000               -0.07716838                0.01193706               -0.46191624                0.01883080                1.09829877               -0.38579283
               4.00025779                1.99988405                1.00001794                0.00010000               -0.02744231                0.00986984               -0.03134673                0.00610750                1.27855249               -0.05444967
               5.00015276                1.99996088                0.99999919                0.00010000                0.00123023                0.00023156                0.01120391               -0.00079017                1.30642880                0.09811829
               6.00028239                1.99997297                0.99999593                0.00010000                0.02828039               -0.00832803                0.03509069               -0.01825084                1.35750514                0.24519719
               7.00071837                1.99980564                0.99990261                0.00010000                0.07146914               -0.00286980               -0.16235719               -0.06290290                1.55444055                0.39186167
               8.00171177                1.99921585                1.00050685                0.20349472                0.19274880                0.03530086               -1.19273376               -0.15742045                1.12053644                0.14317723
               9.00457334                1.99799277                0.99310964                0.68425501                0.64576179                0.21724694               -1.74157674               -0.25761164                0.20363367                0.17237725
              10.01462701                1.99817360                0.97645694                1.00000000                1.00536675                0.44910001               -2.94498339               -0.28063754                0.15182551                0.34175766
               0.01110028                3.00114246                1.01925280                1.00000000               -0.66990161               -0.20638704                1.89153984               -0.14841541                0.05559339                0.21425632
               1.00440126                3.00042006                1.00533010                0.59123964               -0.46220523               -0.10000343                0.87535413               -0.10737614                0.21593702               -0.08178153
               2.00185617                2.99969545                0.99948102                0.04014579               -0.18285827               -0.00469177               -0.18544263               -0.02187363                0.91918335               -0.21631793
               3.00074409                2.99992986                1.00011680                0.00010000               -0.07820118                0.00525838               -0.96407565                0.01541678                1.45170404               -0.41319048
               4.00029215                2.99995651                1.00000849                0.00010000               -0.02913587                0.00501195               -0.06956108                0.00367482                1.68634506               -0.01267527
               5.00016138                2.99996638                1.00000278                0.00010000               -0.00384287                0.00091885                0.08367099               -0.00078670                1.76622677                0.17479391
               6.00021529                2.99993969                0.99998782                0.00010000                0.01498635               -0.00102606                0.20632489               -0.01383529                1.77366615                0.33490296
               7.00046110                2.99980963                0.99996868                0.00010000                0.03802549                0.00381673                0.51520199               -0.04413703                1.63777446                0.55803358
               8.00097580                2.99947845                1.00003010                0.17775146                0.08840151                0.02783615               -0.31591277               -0.09397235                1.31995401                0.26094952
               9.00222913                2.99906328                0.99736761                0.62831643                0.42356749                0.10003255               -1.75556604               -0.11617979                0.78058969                0.02648637
              10.00944715                3.00041383                0.98793021                1.00000000                0.72180156                0.13688335               -3.46405893               -0.23620951                0.73585553                0.37737217
               0.00994200                3.99961444                1.01759622                1.00000000               -0.59897867               -0.11847456                1.75705464               -0.11918114                0.07545836                0.03103905
               1.00395221                3.99965922                1.00334254                0.55412506               -0.40440581               -0.06004377                0.54500982               -0.04282850                0.37057673               -0.11832253
               2.00185388                3.99969677                0.99919348                0.02331739               -0.16016661                0.00104338               -0.73779276                0.01175487                1.14949179               -0.23199703
               3.00074888                3.99996024                1.00012783                0.00010000               -0.07795571                0.00254368               -1.12504781                0.01379141                1.79468091               -0.28842733
               4.00029477                3.99998428                1.00001211                0.00010000               -0.02975155                0.00211643               -0.10211596                0.00064906                2.04531823                0.02857339
               5.00015385                3.99997926                1.00000376                0.00010000               -0.00661678                0.00123918                0.16702509               -0.00261348                2.14465514                0.22815212
               6.00016243                3.99995245                0.99999595                0.00010000                0.00715095                0.00173980                0.43560866               -0.00920531                2.12915702                0.42373233
               7.00029687                3.99988198                0.99996295                0.00010000                0.02081245                0.00701919                1.09007307               -0.02124014                1.86543829                0.68564460
               8.00057868                3.99977258                1.00012092                0.17422182                0.05087496                0.02485432                0.51482791               -0.02166681                1.31655108                0.46314430
               9.00131437                3.99999342                0.99790103                0.62449644                0.33115144                0.07449882               -1.35161132               -0.00076049                0.84445398                0.06576369
              10.00720171                4.00091126                0.98962521                1.00000000                0.58873433                0.04618292               -3.31297337               -0.07522605                0.77054149                0.08185753
               0.00862709                4.99877297                1.01573480                1.00000000               -0.51647314               -0.06152730                1.60492011               -0.08590478                0.08960403               -0.07128532
               1.00346235                4.99921918                1.00148702                0.52882165               -0.34184181               -0.03239668                0.23832467                0.00151806                0.50564159               -0.15438972
               2.00179025                4.99971632                0.99902992                0.01265416               -0.13649718                0.00291853               -1.28064695                0.03171237                1.33702656               -0.24110550
               3.00073241                4.99998073                1.00014059                0.00010000               -0.07520687                0.00205545               -1.14377817                0.01200525                2.09544140               -0.16415803
               4.00028611                4.99999884                1.00001072                0.00010000               -0.02957325                0.00143723               -0.09931867               -0.00065735                2.36552414                0.07611844
               5.00014094                4.99999116                1.00000547                0.00010000               -0.00788241                0.00110346                0.26554452               -0.00252846                2.48039931                0.25639991
               6.00012846                4.99997449                0.99999758                0.00010000                0.00376127                0.00189821                0.66460795               -0.00464991                2.46641523                0.46068447
               7.00021617                4.99995001                0.99997798                0.00010000                0.01512771                0.00554174                1.75152849               -0.00538948                2.07439803                0.78654689
               8.00043102                4.99997554                1.00008610                0.17905657                0.04295335                0.01569481                1.37984349                0.02142602                1.34939921                0.58650843
               9.00107524                5.00055325                0.99851547                0.63447476                0.28379641                0.04431195               -0.81113581                0.05178027                0.93116914                0.24628150
              10.00610695                5.00133749                0.99097318                1.00000000                0.50317087                0.04031598               -2.96209042               -0.02715695                0.83445062                0.20975102
               0.00733148                5.99838389                1.01377801                1.00000000               -0.42922542               -0.02454420                1.44465510               -0.06113127                0.11195371               -0.12886965
               1.00303922                5.99901129                0.99980710                0.51087588               -0.28024491               -0.01024206               -0.04987771                0.03189249                0.63499208               -0.16179502
               2.00172658                5.99975514                0.99895605                0.00602201               -0.11663813                0.00677706               -1.79288575                0.04428942                1.49585253               -0.21550640
               3.00070646                6.00000135                1.00014259                0.00010000               -0.07276926                0.00343987               -1.10058000                0.00981490                2.34237734               -0.06570017
               4.00027119                6.00001303                1.00000993                0.00010000               -0.02894134                0.00184379               -0.07694510               -0.00209074                2.63518281                0.10471626
               5.00012763                6.00000133                1.00000582                0.00010000               -0.00803076                0.00092779                0.37074231               -0.00266624                2.77620685                0.24716634
               6.00011058                5.99999041                0.99999956                0.00010000                0.00301966                0.00096329                0.89459362               -0.00196092                2.77119195                0.44312950
               7.00018803                5.99999281                0.99998456                0.00010000                0.01466911                0.00272627                2.53205438                0.00334713                2.26391330                0.83042915
               8.00040396                6.00008647                1.00005218                0.18841188                0.03999957                0.00839999                2.23899312                0.04453315                1.41969400                0.64400882
               9.00098802                6.00087966                0.99921092                0.65056517                0.23430674                0.02740054               -0.22504173                0.07630334                1.04776521                0.35656461
              10.00509010                6.00171758                0.99220593                1.00000000                0.41020774                0.02992312               -2.51726104               -0.01759347                0.90399823                0.29785822
               0.00614967                6.99828209                1.01177474                1.00000000               -0.34207161               -0.00448294                1.27582875               -0.03789313                0.14155798               -0.16293134
               1.00272895                6.99901434                0.99825938                0.50143306               -0.22318459                0.01548140               -0.31727044                0.05339452                0.75966215               -0.14495081
               2.00168598                6.99985186                0.99891417                0.00336563               -0.10290648                0.01938103               -2.25795024                0.04759828                1.63140592               -0.14591321
               3.00067082                7.00004953                1.00014056                0.00010000               -0.07208279                0.00886379               -1.05972788                0.00288867                2.53236675                0.01088502
               4.00024432                7.00003572                1.00000786                0.00010000               -0.02802917                0.00254089               -0.04818047               -0.00627090                2.84928880                0.10241741
               5.00011024                7.00000972                1.00000589                0.00010000               -0.00732803                0.00041300                0.47279601               -0.00385120                3.02037537                0.18880852
               6.00009776                6.99999375                1.00000016                0.00010000                0.00384060                0.00010625                1.11480196               -0.00163709                3.02932709                0.35251722
               7.00018705                7.00000454                0.99999203                0.00497421                0.01685357               -0.00123326                3.44674400                0.00634752                2.40351126                0.77819742
               8.00043483                7.00014354                1.00000512                0.20304197                0.03915719                0.00080200                3.04861148                0.06073753                1.52119114                0.60685411
               9.00097019                7.00110126                1.00004611                0.67403743                0.18222011                0.01789730                0.34970562                0.09604260                1.18590543                0.40237847
              10.00407923                7.00193595                0.99349941                1.00000000                0.31090387                0.01290945               -2.04618426               -0.00872575                0.97571380                0.33252499
               0.00510911                7.99829423                1.00969133                1.00000000               -0.25717654               -0.01404188                1.09383564               -0.00708908                0.17425752               -0.20876958
               1.00253734                7.99932092                0.99683055                0.51029266               -0.17328741                0.07034233               -0.56055036                0.06575365                0.86984607               -0.09188971
               2.00164336                8.00014276                0.99881558                0.00693621               -0.09784815                0.05969179               -2.64343274                0.02682551                1.73632410               -0.02151752
               3.00058038                8.00017863                1.00013134                0.00010000               -0.07288826                0.01648178               -1.07075112               -0.02054482                2.66435166                0.08828311
               4.00018559                8.00006385                1.00000599                0.00010000               -0.02439006                0.00043502               -0.02727708               -0.01297789                2.99423913                0.06518154
               5.00009258                8.00000959                1.00000489                0.00010000               -0.00512893               -0.00009057                0.56308387               -0.00463821                3.20354945                0.06435164
               6.00008301                7.99999254                1.00000157                0.00010000                0.00363092               -0.00007301                1.30470694               -0.00311409                3.21828017                0.17086784
               7.00016519                7.99996815                0.99999635                0.01772991                0.02194868               -0.00307638                4.51644092                0.00193939                2.43989449                0.57794309
               8.00052199                8.00010251                0.99997556                0.22966507                0.04756308               -0.01916247                3.74689355                0.06239562                1.64594313                0.46006742
               9.00111646                8.00123761                1.00103463                0.71787130                0.13621084               -0.01459221                0.86728849                0.12119599                1.32522119                0.41515766
              10.00324620                8.00197577                0.99469659                1.00000000                0.21297481                0.01389287               -1.58168611                0.01380484                1.02272043                0.30655243
               0.00395452                8.99800125                1.00720252                1.00000000               -0.17590270               -0.09497804                0.89282295               -0.00911656                0.21210181               -0.23734997
               1.00219549                9.00042119                0.99560642                0.56340856               -0.12948718                0.19404951               -0.77428078                0.01956845                0.92509330               -0.01044482
               2.00136478                9.00104570                0.99835380                0.02518916               -0.09283254                0.16235236               -2.85033168               -0.01176181                1.79462933                0.12037361
               3.00033884                9.00037917                1.00017005                0.00010000               -0.06054877                0.01866468               -1.21357621               -0.03883287                2.74174121                0.19328680
               4.00015380                9.00004442                0.99999817                0.00010000               -0.01250284                0.00209423               -0.01038887               -0.01276895                3.08596282               -0.00457060
               5.00008879                9.00000790                1.00000571                0.00010000               -0.00384420                0.00062323                0.62861241               -0.00095931                3.30136844               -0.15671541
               6.00007692                8.99999229                1.00000131                0.00010000                0.00135376               -0.00063079                1.41318009               -0.00178326                3.34014021               -0.15939158
               7.00011586                8.99994301                1.00000724                0.04646951                0.01681825               -0.00384310                5.66205760               -0.00866951                2.36723075                0.23616560
               8.00041328                8.99976029                0.99992215                0.28875111                0.07024973               -0.03691107                4.24676343                0.04062586                1.79097283                0.24675804
               9.00152086                9.00080942                1.00281832                0.82191380                0.12328592               -0.14865704                1.24997323                0.09025689                1.43380855                0.32382101
              10.00287900                9.00221381                0.99562416                1.00000000                0.13581452                0.09838090               -1.13755091               -0.00586370                0.93030796                0.22796290
               0.00008690                9.99639467                1.00549160                1.00000000               -0.02026343               -0.16065783                0.69211685                0.29396096               -0.03901862               -0.29110424
               0.99988426               10.00320191                0.99405521                0.83003483                0.06816240                0.27807165               -0.95804163                0.11863381                0.69561677                0.13126530
               2.00145014               10.00338981                0.99650290                0.53059291                0.04603679                0.23441137               -2.97277576               -0.12396265                1.71040236                0.41533830
               3.00080500               10.00055192                0.99995980                0.44253663               -0.05743340                0.01727519               -1.31629620               -0.11758848                2.97818761                0.27300135
               4.00030148               10.00010573                0.99995924                0.42803827               -0.03397410                0.00613120                0.04142282               -0.01172593                3.30139052               -0.07230101
               5.00012552               10.00002205                0.99999851                0.44205919               -0.00946176                0.00141468                0.73680834               -0.00261761                3.47297843               -0.46847628
               6.00011224                9.99997992                1.00000956                0.47713766                0.00491470               -0.00123739                1.54974862               -0.00300599                3.34793421               -0.84794048
               7.00022381                9.99989128                1.00004793                0.54672162                0.01779276               -0.00517273                6.23713204               -0.01998652                2.26835999               -0.17763397
               8.00046810                9.99936429                1.00024785                0.68934081                0.01221310               -0.03959964                4.54544834               -0.07585954                1.91212328                0.01849533
               9.00046807                9.99826447                1.00427806                0.98903989               -0.00739732               -0.25449536                1.48404300                0.12367650                1.29498740                0.06199273
              10.00032015               10.00394339                0.99540229                1.00000000               -0.01479221                0.17295794               -0.82635945                0.31200721                0.56306364                0.24754441
               0.01456222                0.02350365                2.04944265                1.00000000               -0.58114335               -0.68620184                2.44533727               -0.16585698               -0.43082105                0.34988431
               1.00875079                0.01449098                2.03286177                1.00000000               -0.46371219               -0.46335519                1.66202692               -0.17134593               -0.39922860                0.05098319
               2.00528798                0.00533262                2.01618696                0.75470679               -0.12941856               -0.31249529                0.92204672               -0.06438173               -0.33542991               -0.22611397
               3.00616241               -0.00181615                2.00181416                0.54110227                0.33989497               -0.13414367                0.15472114                0.15368185                0.19712683               -0.14239892
               4.01208587               -0.00350772                1.99586386                0.45168014                0.50443810                0.00103706               -0.32903875                0.10679258                1.30023389               -0.10191462
               5.01625118               -0.00064733                1.99797361                0.45116515                0.11782361                0.05356658               -0.22282901                0.03864942                1.95410184                0.00038229
               6.01444235                0.00178531                1.99900165                0.52946231               -0.26936566                0.14701379               -0.18344868                0.05816313                1.42229547                0.08220044
               7.01086386               -0.00071089                1.99105967                0.70031778               -0.14992457                0.34732212               -0.76388119                0.07815701                0.38306898                0.12724836
               8.01144386               -0.00858409                1.97353861                1.00000000                0.32080418                0.52475528               -1.55949993                0.02071980               -0.13368601               -0.00073131
               9.01727995               -0.01827330                1.95449515                1.00000000                0.68682182                0.59127414               -2.26026034               -0.11272072               -0.10374074                0.11860212
              10.02518029               -0.02657316                1.93714609                1.00000000                0.79003452                0.80963109               -2.96345134               -0.08285679               -0.10947418               -0.24224532
               0.02191632                1.01664163                2.04348436                1.00000000               -0.57934775               -0.62816660                2.29652839               -0.08534031               -0.01211011                0.49488275
               1.01612284                1.00985743                2.02747301                1.00000000               -0.45592977               -0.42534601                1.52129696               -0.11205667                0.03984518                0.11371484
               2.01279772                1.00220767                2.01167139                0.38075654               -0.20017201               -0.30883608                0.73360850                0.02953758                0.32051702               -0.33199500
               3.01211940                0.99684241                2.00152636                0.01810152               -0.01141674               -0.29958987                0.07748730                0.53234053                0.85147626               -0.68729064
               4.01256939                0.99650265                1.99723427                0.00010000                0.09358776                0.11963954               -0.31648965                0.82664889                1.40170386               -0.10038290
               5.01399116                0.99988834                1.99828922                0.00010000                0.12431859                0.12888498               -0.20989209                0.83261009                1.69480910                0.07559051
               6.01505576                1.00325545                1.99814319                0.01347403                0.14194885                0.15325317               -0.17761527                0.78391656                1.51002829                0.30171700
               7.01683013                1.00276233                1.99195563                0.27701868                0.26882488                0.40843230               -0.71573272                0.65610232                0.89953918                0.40852905
               8.02043226                0.99666346                1.97577767                0.77282681                0.41585708                0.43395915               -1.55415734                0.13184763                0.56987424               -0.12514747
               9.02514727                0.98763944                1.96112837                1.00000000                0.61096634                0.53966781               -2.25137964               -0.21488359                0.51546363               -0.04383421
              10.03265158                0.98152315                1.94367735                1.00000000                0.75043097                0.79905967               -2.80139390               -0.05354782                0.26989931               -0.69386811
               0.02642382                2.01094032                2.04034593                1.00000000               -0.54802022               -0.48706394                2.07786045               -0.14357763                0.19744252                0.57487096
               1.02094362                2.00598406                2.02312118                1.00000000               -0.37650383               -0.32896517                1.29593932               -0.19083694                0.23378706                0.04458737
               2.01889374                1.99915590                2.00488427                0.19822332                0.07853106               -0.25806499                0.31369060               -0.14963803                0.43926067               -0.57715558
               3.02251424                1.99219205                1.99076168                0.00010000                0.33395918               -0.26164930               -0.54713941                0.80581944                1.81236706               -1.17122454
               4.02557293                1.99888507                1.99937307                0.00010000                0.18181723                0.16248366               -0.20279198                1.55049234                2.92234934                0.03097886
               5.02615058                2.00193037                2.00022408                0.00010000                0.08368803                0.18014871               -0.05418089                1.36596758                2.69473980                0.27936173
               6.02724669                2.00485037                2.00070181                0.00010000                0.22136561                0.17212995               -0.03204864                1.29895251                2.56909797                0.55968487
               7.03057789                2.00745776                1.99675286                0.12375633                0.09785051                0.41689969               -0.18601945                0.55638970                1.52820602                1.22970987
               8.02920370                2.00009510                1.97614532                0.46467897               -0.12276535                0.44707300               -1.22456753               -0.31849039                1.04247254                0.74994555
               9.02812259                1.99252006                1.96516847                1.00000000                0.35691106                0.40494495               -2.20090470               -0.40613248                0.90154619               -0.28576181
              10.03634192                1.98940804                1.94110033                1.00000000                0.82193302                0.64280104               -2.97301106               -0.26418600                0.01703580               -1.46303838
               0.02895728                3.00690035                2.03783080                1.00000000               -0.48667595               -0.34007676                1.89373821               -0.18258774                0.21780523                0.49923989
               1.02409052                3.00327812                2.01750708                0.92342466               -0.26801556               -0.22537162                1.01674876               -0.24916642                0.28626235               -0.14543849
               2.02359697                2.99704637                1.99629115                0.15649965                0.22080459               -0.16723687               -0.22261617               -0.21789470                0.60396013               -0.82701479
               3.02850661                2.99160943                1.98071849                0.00010000                0.51219718                0.10078023               -1.21560834                0.76333557                2.70449254               -0.80965050
               4.03384091                2.99975233                1.99860878                0.00010000                0.34192966                0.08420841               -0.32992595                1.36697008                4.12763752               -0.02344120
               5.03534521                3.00349131                2.00167342                0.00010000                0.08332568                0.13149918                0.09485828                1.18522032                3.63401271                0.38029413
               6.03550743                3.00669805                2.00412650                0.00010000               -0.13159997                0.18072574                0.39393234                1.14931340                3.83332077                0.77117111
               7.03271321                3.01110033                2.01030404                0.11666272               -0.32536396                0.31229180                0.81975522                0.27563882                2.74020778                1.73928496
               8.02900015                3.00560493                1.99368174                0.43689420               -0.25007610                0.45558960               -0.35486096               -0.80863642                0.83406893                1.64074591
               9.02771168                2.99573834                1.96488868                1.00000000                0.22958816                0.38236773               -2.03563556               -0.59817748                0.00075910                0.03565204
              10.03359191                2.99437917                1.93071882                1.00000000                0.58802261                0.45930757               -3.50007090               -0.35488942               -0.48171530               -1.03691256
               0.03001652                4.00413878                2.03514109                1.00000000               -0.42022453               -0.22539268                1.72992052               -0.19969710                0.13457965                0.37988336
               1.02581427                4.00147663                2.01090020                0.87562022               -0.19059864               -0.14152384                0.67403639               -0.28002148                0.17200243               -0.23464722
               2.02620455                3.99581116                1.98524414                0.13363652                0.46303576               -0.08155261               -0.85099600               -0.13894903                1.09384649               -0.97489659
               3.03507499                3.99420766                1.97749904                0.00010000                0.74129473                0.25463279               -1.61653217                0.85897516                3.63552627               -0.31176691
               4.04103044                4.00056924                1.99795768                0.00010000                0.39171392                0.08861126               -0.39972614                1.19786970                4.92418891                0.07986429
               5.04290927                4.00456036                2.00334050                0.00010000                0.07967511                0.08173088                0.27097329                1.10857839                4.48841502                0.47315170
               6.04262394                4.00846489                2.00871217                0.00010000               -0.28627360                0.12560123                0.87434904                1.14958016                4.85985375                0.91075752
               7.03718379                4.01370359                2.02180146                0.11857216               -0.71154958                0.23045032                1.85401629                0.47141134                3.72655016                1.83645649
               8.02839295                4.00920689                2.01029656                0.43747601               -0.48995026                0.30969920                0.53554655               -0.70429182                0.99797232                1.71689743
               9.02738479                4.00016741                1.97296777                1.00000000                0.17847582                0.39386969               -1.55183177               -0.52940382               -0.38247824                0.63047067
              10.03196247                3.99859419                1.93374053                1.00000000                0.45776780                0.36175629               -3.34561584               -0.24823787               -0.65935838               -0.07865680
               0.03028765                5.00239250                2.03209840                1.00000000               -0.34699348               -0.13780554                1.56854122               -0.18626593                0.08748239                0.27426629
               1.02681771                5.00044765                2.00476649                0.84128140               -0.11003442               -0.07424446                0.32486353               -0.26348280                0.03865174               -0.24224761
               2.02808696                4.99541531                1.97438706                0.11736362                0.70551605               -0.00027656               -1.47937680               -0.01842742                1.66019534               -0.95890172
               3.04092803                4.99670208                1.97712444                0.00010000                0.96793236                0.22391870               -1.83815532                0.84139631                4.56055374               -0.04096531
               4.04744561                5.00152455                1.99801363                0.00010000                0.43465460                0.07639697               -0.38895799                1.01169156                5.53355643                0.17986474
               5.04962113                5.00512593                2.00531089                0.00010000                0.09550940                0.01912734                0.47658552                1.01553782                5.23056976                0.52007970
               6.04935579                5.00921007                2.01329216                0.00010000               -0.41108449                0.01975577                1.37539944                1.17022802                5.87553643                0.93578180
               7.04139944                5.01570933                2.03503057                0.12470220               -1.04526520                0.14454688                2.92594954                0.53153464                4.67458128                2.08266068
               8.02845049                5.01179891                2.02759687                0.44721630               -0.68315637                0.18771368                1.44990635               -0.56595121                1.14863537                1.81005659
               9.02773631                5.00361574                1.98377728                1.00000000                0.16615579                0.27166204               -0.94168001               -0.43839232               -0.65853643                0.86929575
              10.03177361                5.00161430                1.94075819                1.00000000                0.40372973                0.24183730               -2.99413747               -0.19376970               -0.78621140                0.28764389
               0.03018090                6.00138267                2.02889310                1.00000000               -0.26591000               -0.07822193                1.40546668               -0.16038190                0.05061033                0.19051196
               1.02752180                5.99999174                1.99900245                0.81689193               -0.02996694               -0.01850545               -0.01776491               -0.21704687               -0.09812572               -0.23176705
               2.02958156                5.99580563                1.96414229                0.10579206                0.91359378                0.09034503               -2.07886511                0.06771382                2.23154169               -0.87443320
               3.04579368                5.99868603                1.97798840                0.00010000                1.16294302                0.17634356               -1.93978279                0.74585798                5.44160218                0.10613785
               4.05284042                6.00209718                1.99846110                0.00010000                0.48704127                0.02638670               -0.33335350                0.79658552                6.02862517                0.22744586
               5.05553450                6.00494290                2.00741485                0.00010000                0.13023399               -0.06744140                0.69689458                0.87784522                5.88484635                0.49753769
               6.05544510                6.00886001                2.01789187                0.00010000               -0.51544251               -0.10808682                1.89255938                1.14481169                6.92948204                0.88105956
               7.04522565                6.01659453                2.05064109                0.13379127               -1.31387900               -0.00785860                4.04327296                0.53834947                5.56667122                2.29652691
               8.02916752                6.01296116                2.04477986                0.46355308               -0.82120495                0.02073960                2.37014317               -0.45373113                1.20067937                1.78357473
               9.02880155                6.00560065                1.99549917                1.00000000                0.14612126                0.13040620               -0.28514275               -0.35213591               -0.85739307                0.95314201
              10.03208995                6.00343093                1.94965478                1.00000000                0.32883948                0.12727672               -2.54716316               -0.17526826               -0.82540271                0.46737109
               0.02986188                7.00082806                2.02551658                1.00000000               -0.18080583               -0.04929203                1.23712306               -0.12376143                0.02417501                0.11003353
               1.02805382                7.00007754                1.99365459                0.80315096                0.04425336                0.04117165               -0.34569193               -0.14274858               -0.22513371               -0.19307954
               2.03074694                6.99722221                1.95484100                0.09857571                1.07499117                0.21621958               -2.63085390                0.09977730                2.73606520               -0.69788624
               3.04955364                7.00022895                1.97880544                0.00010000                1.31867502                0.15250688               -1.98911101                0.55665086                6.22165215                0.14162516
               4.05712044                7.00205229                1.99903639                0.00010000                0.54307829               -0.03919296               -0.26740607                0.53594780                6.44653741                0.21392975
               5.06041521                7.00377710                2.00945592                0.00010000                0.17399793               -0.18278449                0.91233170                0.67684790                6.44673834                0.39437252
               6.06060040                7.00704834                2.02229604                0.00010000               -0.61749682               -0.27218968                2.41412052                1.03520500                8.03960247                0.71284845
               7.04806527                7.01555216                2.06893488                0.14643428               -1.51153290               -0.25254370                5.16929503                0.43818072                6.37499120                2.44212151
               8.03036974                7.01221370                2.06097223                0.48733706               -0.89207256               -0.18384199                3.24919454               -0.33076184                1.08610129                1.59840835
               9.03022382                7.00622386                2.00699411                1.00000000                0.11189697               -0.00348563                0.36439138               -0.25360162               -1.00205173                0.90556416
              10.03260768                7.00415983                1.95907631                1.00000000                0.23838644                0.02876810               -2.06991021               -0.15437618               -0.80975293                0.53574103
               0.02920671                8.00039683                2.02187671                1.00000000               -0.09340403               -0.06876677                1.06204666               -0.07954781                0.00347857                0.01965448
               1.02827267                8.00081517                1.98878899                0.80670188                0.11094893                0.12444492               -0.65062601               -0.04850186               -0.32487444               -0.12517919
               2.03142569                8.00013002                1.94713135                0.09778101                1.19119742                0.37489644               -3.09524714                0.07515036                3.10073898               -0.34020828
               3.05209662                8.00173617                1.97858498                0.00010000                1.42927680                0.19041572               -2.05341244                0.24100560                6.81148091                0.04607585
               4.06001123                8.00131332                1.99945446                0.00010000                0.59893934               -0.10484741               -0.22326528                0.21571010                6.80514103                0.14600331
               5.06407541                8.00128721                2.01126168                0.00010000                0.21814585               -0.34525127                1.10287311                0.38559574                6.90267220                0.19183840
               6.06437414                8.00341621                2.02609414                0.00010000               -0.76257533               -0.51220794                2.90819311                0.82286589                9.22650727                0.38400969
               7.04882390                8.01154366                2.09032882                0.16649808               -1.62467804               -0.54402124                6.22021806                0.26133085                7.05540079                2.42377679
               8.03188058                8.00928432                2.07493787                0.52580091               -0.85202573               -0.37754150                4.02364980               -0.16870435                0.72510618                1.20355645
               9.03178339                8.00553094                2.01734577                1.00000000                0.06249464               -0.14954384                0.96050857               -0.12638451               -1.08755855                0.69887358
              10.03313048                8.00400629                1.96836628                1.00000000                0.13470900               -0.01531349               -1.59557786               -0.13312467               -0.74451437                0.55396450
               0.02743424                8.99945272                2.01785646                1.00000000               -0.00836487               -0.13985415                0.89643990               -0.04434383               -0.02153193               -0.05015249
               1.02735059                9.00256644                1.98451438                0.81493323                0.19473570                0.24562740               -0.93654729               -0.00521088               -0.33012727               -0.04937252
               2.03132895                9.00472014                1.94299337                0.10491192                1.29199306                0.59392649               -3.39547817               -0.08257020                3.19520082                0.06824996
               3.05319045                9.00403727                1.97572848                0.00010000                1.52773234                0.20721789               -2.17802234               -0.03770038                7.03338465                0.00757303
               4.06188360                8.99995534                1.99979222                0.00010000                0.64168905               -0.13407388               -0.21499889               -0.05936541                7.19310767                0.03987942
               5.06602423                8.99687208                2.01257225                0.00010000                0.24588392               -0.53211637                1.25473469                0.10913401                7.21852460               -0.04122291
               6.06680128                8.99680418                2.02826360                0.00010000               -0.93002270               -1.01957621                3.36089961                0.51673876               10.42698421                0.02034873
               7.04742378                9.00467173                2.11324115                0.19585038               -1.68964529               -0.75888565                6.95464951                0.20818517                7.56212471                1.65831863
               8.03300837                9.00466287                2.08493527                0.58098266               -0.72248115               -0.47829093                4.58528748                0.03464964                0.09639158                0.67928406
               9.03297415                9.00323298                2.02499946                1.00000000               -0.00069444               -0.36052849                1.44275397               -0.09236933               -1.08967455                0.38075994
              10.03299448                9.00385356                1.97724898                1.00000000                0.00203281                0.06941697               -1.16247808               -0.14382453               -0.56291697                0.43996643
               0.02209241                9.99759975                2.01384234                1.00000000                0.08086248               -0.18529767                0.65505352                0.27861437               -0.02584611               -0.04043545
               1.02290104               10.00572772                1.98083917                0.89062854                0.31055228                0.31612819               -1.18492467                0.27548474               -0.31106107               -0.03869850
               2.02830346               10.01200855                1.94054448                0.55454079                1.66031919                0.72884067               -3.51757619               -0.29490923                3.14841624                0.23119972
               3.05610742               10.00588053                1.97367408                0.45094670                1.88428268                0.18432578               -2.23800249               -0.37713843                7.29688230               -0.06569281
               4.06598911                9.99863184                2.00082846                0.43008473                0.66509143               -0.13234933               -0.19552401               -0.35123088                7.63293796               -0.15707090
               5.06940925                9.99064489                2.01473617                0.44994338                0.04600764               -0.62271911                1.32793192               -0.44185624                7.48310679               -0.25099872
               6.06690926                9.98302469                2.03099497                0.50373399               -1.21401680               -1.37794907                3.54694041                0.29685133               10.92746721               -0.26101825
               7.04512891                9.99636594                2.12474264                0.60767858               -1.64484673               -0.83057920                7.31896575                0.60520416                7.74036660                0.81990033
               8.03401233                9.99971850                2.09090897                0.80508827               -0.71918024               -0.49443688                4.94915301                0.19811706               -0.17343807                0.39156771
               9.03074531                9.99832037                2.02968086                1.00000000               -0.24997512               -0.49126124                1.84691597                0.06092183               -1.06197663                0.25453708
              10.02901283               10.00539463                1.98347281                1.00000000               -0.17324814                0.15410701               -0.70998487                0.30926055               -0.38104872                0.25643888
               0.03123444                0.03382019                3.07393991                1.00000000               -0.60723288               -0.70609639                2.46084163               -0.21069575               -0.35626419                0.39833338
               1.02516211                0.02102557                3.04970739                1.00000000               -0.45658213               -0.47789360                1.67832808               -0.17417091               -0.37828151                0.00141188
               2.02210280                0.00808037                3.02516815                0.73553672               -0.08827751               -0.27092228                0.89471044               -0.03604060               -0.24351757               -0.31143990
               3.02339656               -0.00212968                3.00323887                0.53511041                0.39760641               -0.08725382                0.16845668                0.19237958                0.51704622               -0.09405707
               4.03005493               -0.00513403                2.99312358                0.44935633                0.65081479               -0.06237150               -0.23957003                0.22075815                1.81928744               -0.04084746
               5.03641286               -0.00069870                2.99544743                0.44986900                0.28085630               -0.00782112               -0.27395370                0.11242030                2.54823391                0.02326635
               6.03567205                0.00343336                2.99628945                0.52939797               -0.18038863                0.10070781               -0.34475521                0.16443552                1.89776306                0.08406585
               7.03280509                0.00001567                2.98374935                0.69868401               -0.12298656                0.23287500               -0.76728788                0.18662145                0.73332120                0.09746107
               8.03321232               -0.00986074                2.96068580                0.98276849                0.24124275                0.35235094               -1.34464952               -0.01796280                0.03133344                0.23024148
               9.03762994               -0.02299110                2.93421090                1.00000000                0.59304296                0.61594453               -2.10578459               -0.17932956               -0.20154012                0.08570476
              10.04507318               -0.03568486                2.90748753                1.00000000                0.74432404                0.92850913               -2.97229007               -0.20453498               -0.23546642               -0.30488459
               0.04192210                1.02675922                3.06645493                1.00000000               -0.56317899               -0.64635115                2.27684700               -0.11978806               -0.00770283                0.53205046
               1.03629031                1.01624663                3.04203522                1.00000000               -0.43010447               -0.42543027                1.44051464               -0.08800306                0.03141995               -0.00815020
               2.03332001                1.00537114                3.01812817                0.35128706               -0.21813779               -0.22263128                0.63216348                0.07971120                0.43594900               -0.50023017
               3.03192756                0.99699779                3.00157445                0.01248025               -0.08864967               -0.03159342                0.02335805                0.39673472                1.18399051               -0.62997873
               4.03154702                0.99424225                2.99365276                0.00010000                0.06629052                0.21315750               -0.33941261                1.07063731                2.04022685                0.00105688
               5.03325337                0.99922309                2.99577295                0.00010000                0.27061019                0.14313077               -0.26461659                1.32520639                2.49002891                0.11263483
               6.03695923                1.00444043                2.99638195                0.02398769                0.40324893                0.08750008               -0.22385647                1.12924242                2.05575240                0.20433175
               7.04131835                1.00234442                2.98527455                0.29123184                0.37884269                0.30178814               -0.62298061                0.61281143                1.26086425                0.51798647
               8.04453608                0.99366277                2.96617851                0.76294361                0.37151804                0.30857152               -1.01310001                0.08786100                0.61429144                0.39344075
               9.04874871                0.98316834                2.94141253                1.00000000                0.55927567                0.57541657               -1.91544242               -0.00216123                0.21719493                0.12554393
              10.05572159                0.97360023                2.91447522                1.00000000                0.69728844                0.87781076               -2.80868797               -0.05527091                0.06494510               -0.51463904
               0.04986386                2.02089316                3.06176865                1.00000000               -0.50737334               -0.52135613                2.09483358               -0.12853499                0.06072071                0.66549998
               1.04479013                2.01251696                3.03417508                0.95538924               -0.34589980               -0.32571815                1.13371261               -0.09447905                0.09855600               -0.04391834
               2.04294587                2.00362774                3.00684001                0.17484120               -0.11649912               -0.12879322                0.24361227                0.10627244                0.58037021               -0.67831044
               3.04246015                1.99723846                2.98905828                0.00010000                0.31482516                0.00008474               -0.22793203                0.80450660                2.06123283               -0.96032688
               4.04924237                1.99912912                2.99596210                0.00010000                0.51293293                0.33304112               -0.34823025                1.76342013                3.26493506                0.04983821
               5.05271881                2.00216392                2.99891557                0.00010000                0.29466012                0.26163729               -0.18679396                2.00623905                3.09531338                0.29165921
               6.05513557                2.00518336                2.99935496                0.00010000                0.15600847                0.14561608               -0.12572951                1.75896870                2.89549074                0.51595656
               7.05583898                2.00605143                2.99618222                0.13670578               -0.04949787                0.36011533               -0.01631995                0.77595004                1.76065579                1.32666171
               8.05414562                1.99631069                2.97601550                0.45680241                0.09051416                0.22396823               -0.29894554                0.05011295                0.73400053                0.93927313
               9.05764926                1.98851723                2.94909155                1.00000000                0.44791882                0.44043329               -1.51815332                0.10095953                0.35696666                0.15106903
              10.06310399                1.98187135                2.91699672                1.00000000                0.54547331                0.67175758               -2.30825507               -0.04303937               -0.03513004               -0.87206332
               0.05610381                3.01633210                3.05712757                1.00000000               -0.44376527               -0.39743321                1.88056597               -0.09740721                0.06461805                0.61881880
               1.05166616                3.00973227                3.02566507                0.88838907               -0.26899196               -0.24050479                0.86005290               -0.05188715                0.12965540               -0.10670300
               2.05072397                3.00279528                2.99502870                0.13901380                0.04250789               -0.07624068               -0.07870200                0.07266547                0.70296912               -0.71485290
               3.05251631                2.99699948                2.97580463                0.00010000                0.55829978                0.00402481               -0.45965400                0.81967581                2.96006130               -0.64546128
               4.06188996                3.00090308                2.99340997                0.00010000                0.74037990                0.15238021               -0.47042928                1.55755351                4.49541366               -0.05907173
               5.06732391                3.00445584                3.00189995                0.00010000                0.31805601                0.18204520               -0.04085171                1.64492641                4.11989331                0.35458612
               6.06825108                3.00735275                3.00786647                0.00010000               -0.08069497                0.19092895                0.29976393                1.44269315                4.23243510                0.82716879
               7.06571001                3.00954672                3.01636378                0.13696135               -0.25892731                0.29165732                0.52152926                0.40969454                2.88278362                1.75306028
               8.06307254                2.99814214                2.99293288                0.43817421               -0.02513866                0.19423538               -0.13462761               -0.11717579                0.79356872                1.18657934
               9.06520724                2.99197701                2.95665490                0.98773581                0.25400101                0.25985006               -0.85535370                0.07324059                0.17614236                0.28772455
              10.06815256                2.98703538                2.91792879                1.00000000                0.29453201                0.37137021               -1.39448421               -0.02591131               -0.02798635               -0.76971165
               0.06111538                4.01294450                3.05219463                1.00000000               -0.38261758               -0.29129058                1.65949432               -0.07692627                0.06785342                0.54818262
               1.05728921                4.00770687                3.01682327                0.84742576               -0.19917099               -0.17301429                0.62937448               -0.02804989                0.12669788               -0.14702676
               2.05713196                4.00210293                2.98217356                0.12074689                0.17283302               -0.05775669               -0.29359295                0.07621651                1.13785425               -0.74050790
               3.06074587                3.99731895                2.96779719                0.00010000                0.79025618                0.08362948               -0.78568995                0.79372003                3.85676992               -0.27100655
               4.07293709                4.00217672                2.99201759                0.00010000                0.92108938                0.10948226               -0.53814172                1.46833445                5.44373983                0.10363622
               5.07916766                4.00580482                3.00542322                0.00010000                0.29807299                0.09312870                0.14793489                1.44875548                5.06368328                0.42076635
               6.07889855                4.00900194                3.01748293                0.00010000               -0.29620853                0.10788350                0.77081365                1.28740923                5.46197582                0.86889053
               7.07324349                4.01188458                3.03704328                0.14330300               -0.47633662                0.16084386                1.19207190                0.24432689                3.70379496                1.74563229
               8.06937182                4.00019540                3.01083185                0.44634410               -0.15113291                0.17756146                0.03150352               -0.32929366                0.87056437                1.11685631
               9.07022083                3.99371423                2.96686439                0.99727907                0.15486045                0.17153837               -0.57660259               -0.06803477                0.06042189                0.41815051
              10.07246902                3.98929876                2.92271289                1.00000000                0.22481969                0.20703707               -1.11140770               -0.02813021               -0.01792196               -0.46321553
               0.06504055                5.01050629                3.04710563                1.00000000               -0.30938206               -0.20842709                1.44801923               -0.07294997                0.06682069                0.47474632
               1.06194673                5.00627198                3.00798429                0.81526180               -0.12021688               -0.11095085                0.37322397               -0.01639123                0.11673198               -0.16284984
               2.06263621                5.00164015                2.96944239                0.10551617                0.31850947               -0.01451913               -0.51030466                0.13197918                1.72883821               -0.69860053
               3.06831692                4.99867207                2.96337749                0.00010000                1.00672868                0.15620739               -1.07197708                0.79631991                4.79784189               -0.02618281
               4.08277079                5.00309272                2.99223156                0.00010000                1.05784443                0.06812300               -0.54151653                1.30632510                6.19996520                0.21673525
               5.08947381                5.00631841                3.00953718                0.00010000                0.25743632                0.00011151                0.36991327                1.28219174                5.89159585                0.45049353
               6.08791951                5.00951042                3.02750557                0.00010000               -0.50353612               -0.01971070                1.27027727                1.15103118                6.61160312                0.86952409
               7.07940309                5.01276360                3.05849697                0.15119405               -0.66312509                0.00672315                1.78687472                0.17864587                4.44879987                1.72631378
               8.07465701                5.00169337                3.02908423                0.45841755               -0.23299492                0.10936037                0.16811432               -0.35840842                0.93803662                1.02779901
               9.07474319                4.99540778                2.97968187                1.00000000                0.08819457                0.15057210               -0.37908900               -0.08864150                0.01186716                0.47742256
              10.07642090                4.99117612                2.93109043                1.00000000                0.16777156                0.17240622               -0.95764910               -0.03307595               -0.02931303               -0.25062474
               0.06812500                6.00877596                3.04188735                1.00000000               -0.22974706               -0.15035705                1.23894820               -0.06298161                0.06871898                0.39476699
               1.06582753                6.00548785                2.99945180                0.79013337               -0.03767687               -0.04528887                0.10813036               -0.00041425                0.10447318               -0.15442291
               2.06737146                6.00181255                2.95737875                0.09257508                0.46960828                0.06324655               -0.73304380                0.17877335                2.38566844               -0.61935609
               3.07521969                6.00044310                2.96134693                0.00010000                1.20228963                0.18066927               -1.26567638                0.71590939                5.75159424                0.12650206
               4.09141725                6.00353918                2.99334286                0.00010000                1.15870476                0.01141165               -0.50098399                1.05588770                6.83541775                0.25030145
               5.09839379                6.00580705                3.01394372                0.00010000                0.20283635               -0.11340372                0.60990420                1.06900443                6.65020525                0.43136896
               6.09547398                6.00860772                3.03785075                0.00010000               -0.68801623               -0.17309842                1.77681504                0.98516628                7.74457000                0.84424266
               7.08463346                6.01201904                3.08085002                0.16094381               -0.79572538               -0.18021813                2.26629133                0.16912426                5.13933048                1.66907699
               8.07955947                6.00238261                3.04745504                0.47503555               -0.28341108                0.01301653                0.31791126               -0.29263765                0.92606730                0.92496529
               9.07896524                5.99672567                2.99350806                1.00000000                0.03556717                0.09790832               -0.18153336               -0.07769193               -0.03467802                0.46472558
              10.08027081                5.99274688                2.94126267                1.00000000                0.13055739                0.13815764               -0.82458889               -0.03293580               -0.02856586               -0.13804417
               0.07035714                7.00749915                3.03651720                1.00000000               -0.14552785               -0.12142597                1.03366439               -0.05183826                0.06959420                0.30817154
               1.06890186                7.00536621                2.99134554                0.77082647                0.04496463                0.02348448               -0.15997482                0.01818111                0.09027169               -0.12489394
               2.07125643                7.00290508                2.94629709                0.08124422                0.60033062                0.16868410               -0.95882677                0.17049721                3.02257164               -0.49293084
               3.08090847                7.00228546                2.96035834                0.00010000                1.36340811                0.18670042               -1.37759695                0.48415336                6.65533670                0.16021560
               4.09852459                7.00332095                2.99465974                0.00010000                1.24384436               -0.06555507               -0.44782759                0.69796697                7.39694432                0.21297589
               5.10578536                7.00405033                3.01825253                0.00010000                0.14431291               -0.25385121                0.84732417                0.79200276                7.37671904                0.36405400
               6.10141085                7.00604846                3.04828257                0.00010000               -0.83873364               -0.34512775                2.27071522                0.75904716                8.86636387                0.78081839
               7.08901068                7.00915924                3.10337793                0.17271853               -0.86566123               -0.39408147                2.56907375                0.18506276                5.77637109                1.52185688
               8.08409762                7.00195370                3.06498901                0.49615165               -0.30928048               -0.10860024                0.48469320               -0.16728037                0.82958745                0.77338317
               9.08282507                6.99736594                3.00733394                1.00000000               -0.01889275                0.02420268                0.03577880               -0.05213920               -0.07488201                0.40386690
              10.08371977                6.99393927                2.95210120                1.00000000                0.08946948                0.10677566               -0.68264962               -0.04046254               -0.02046192               -0.07537973
               0.07135412                8.00634744                3.03093226                1.00000000               -0.05688978               -0.12332857                0.83575205               -0.04644524                0.07318421                0.22413419
               1.07078522                8.00595754                2.98381803                0.75398744                0.12540176                0.10086797               -0.42989608                0.01964861                0.09521116               -0.08183594
               2.07386215                8.00518623                2.93691063                0.07132387                0.68508315                0.30462401               -1.19549649                0.05089217                3.54944283               -0.28379562
               3.08448688                8.00417711                2.95906309                0.00010000                1.48747806                0.15780361               -1.43145989                0.01705317                7.42319252                0.06306183
               4.10361171                8.00222808                2.99554068                0.00010000                1.35097287               -0.19264719               -0.41284993                0.26002544                7.93491760                0.10970489
               5.11150634                8.00073003                3.02206235                0.00010000                0.09671524               -0.41706892                1.05914590                0.48398138                8.08451261                0.26596831
               6.10554602                8.00170517                3.05816543                0.00409757               -0.95384308               -0.52750108                2.72500911                0.49721165                9.93856759                0.70133270
               7.09242948                8.00413741                3.12440071                0.18644399               -0.87694293               -0.52318385                2.55857749                0.20907201                6.37582728                1.14646784
               8.08800716                8.00021060                3.08044855                0.52138102               -0.32463000               -0.22894112                0.67445228               -0.02212532                0.68262198                0.51648258
               9.08593688                7.99720973                3.02024480                1.00000000               -0.08461294               -0.06382072                0.28125468               -0.03698158               -0.09399492                0.30602985
              10.08631490                7.99488239                2.96278504                1.00000000                0.03780225                0.09836654               -0.54111487               -0.06264032               -0.00691992               -0.06214848
               0.07020803                9.00503258                3.02513132                1.00000000                0.02480097               -0.13666158                0.64857656               -0.05379136                0.08453882                0.14797281
               1.07045604                9.00738356                2.97687547                0.70691918                0.19233355                0.19104157               -0.71945557                0.00703273                0.18656392               -0.04976214
               2.07405470                9.00899756                2.93044423                0.05597656                0.68758194                0.38626708               -1.50949473               -0.21103138                3.90501668               -0.05559398
               3.08420768                9.00544153                2.95660961                0.00010000                1.65587403               -0.04151235               -1.37339911               -0.37788786                8.00598474               -0.07053606
               4.10717218                8.99946801                2.99569819                0.00010000                1.58901097               -0.36681176               -0.42592717               -0.07230708                8.48858661               -0.01360900
               5.11598790                8.99570896                3.02510040                0.00010000                0.03877578               -0.50278933                1.21736822                0.20726104                8.79735507                0.15861903
               6.10794770                8.99549843                3.06721930                0.00320261               -1.06506052               -0.62041764                3.11995562                0.30478493               10.74002154                0.50419193
               7.09468669                8.99869556                3.13910023                0.18943313               -0.86824482               -0.54255483                2.15432092                0.22820540                6.83373362                0.58051000
               8.09058280                8.99737487                3.09162789                0.52606311               -0.36365184               -0.24811766                0.89915913                0.07239615                0.70519813                0.21276696
               9.08741365                8.99608953                3.03167340                1.00000000               -0.17305874               -0.16086547                0.61813917               -0.03702256               -0.02808616                0.19970429
              10.08712163                8.99590661                2.97237460                1.00000000               -0.02920246                0.08710570               -0.41520805               -0.07827369               -0.01798594               -0.09235045
               0.06557631               10.00361421                3.01859268                1.00000000                0.13845794               -0.14183694                0.38976652                0.15324457                0.22145261                0.14279030
               1.06696089               10.00977837                2.97035672                0.81541903                0.30036235                0.23948056               -1.04081302                0.11535332                0.43777974               -0.05581247
               2.07158356               10.01291157                2.92615138                0.51718816                0.97488897                0.39140117               -1.82213466               -0.56868957                4.28442618                0.00031905
               3.08645867               10.00334686                2.95519975                0.43926512                2.01572921               -0.20946669               -1.36771803               -0.67588688                8.49739317               -0.31125777
               4.11189814                9.99489185                2.99604876                0.42860824                1.65812318               -0.45761642               -0.51981373               -0.16103493                8.76779032               -0.10780662
               5.11962114                9.99067424                3.02655714                0.44866258               -0.16215166               -0.50347169                1.19616163                0.08357209                9.05554357                0.15836788
               6.10865511                9.98929681                3.07094837                0.49606619               -1.22519942               -0.62016209                3.22666906                0.20134503               11.22483232                0.68412777
               7.09511715                9.99328631                3.14642724                0.58365939               -0.82969978               -0.54092483                2.01937027                0.34061769                7.33807707                0.36191438
               8.09206112                9.99524825                3.09923091                0.74212118               -0.42262262               -0.21266239                1.16924568                0.18313658                0.91314510                0.06267730
               9.08666469                9.99399242                3.04121638                1.00000000               -0.34729212               -0.20971115                1.04433570               -0.00608272                0.23401749                0.24030615
              10.08511527                9.99662451                2.98120259                1.00000000               -0.15494219                0.07179031               -0.13910452                0.06257377                0.15141213               -0.17739778
               0.05590198                0.04644027                4.09865949                1.00000000               -0.59450710               -0.69863729                2.44908664               -0.18770183               -0.36920105                0.42937955
               1.04995691                0.02986355                4.06642834                1.00000000               -0.45079189               -0.46368209                1.66423143               -0.15071574               -0.36487640               -0.01702862
               2.04688614                0.01318378                4.03408117                0.72485144               -0.07044992               -0.26525789                0.89707469               -0.00246712               -0.19991941               -0.37156504
               3.04854791               -0.00036846                4.00518329                0.53048628                0.46884568               -0.12081182                0.21408012                0.24433027                0.73880788               -0.07082589
               4.05626306               -0.00538303                3.99107246                0.44874605                0.77510372               -0.09316959               -0.18820980                0.26800832                2.34218283               -0.03768576
               5.06404999               -0.00083303                3.99249454                0.45137031                0.39163197               -0.04940759               -0.30676258                0.13449021                3.14254303                0.02099429
               6.06409570                0.00328164                3.99210655                0.53220675               -0.14580235                0.09949355               -0.45372926                0.20839914                2.31634259                0.06016086
               7.06113394               -0.00181207                3.97571391                0.69962418               -0.12433601                0.25012582               -0.84781509                0.19937639                0.89803679                0.07278818
               8.06160898               -0.01496467                3.94664562                0.97619472                0.26567360                0.41672508               -1.45609847                0.03959227                0.02840828                0.24354894
               9.06644741               -0.03096248                3.91237946                1.00000000                0.61543562                0.62321471               -2.19634163               -0.10937187               -0.22423734                0.06920461
              10.07391769               -0.04664622                3.87770029                1.00000000                0.74702774                0.83674039               -2.93325394               -0.17763076               -0.24754670               -0.33535771
               0.07060168                1.03945390                4.08902130                1.00000000               -0.55236875               -0.64312964                2.22872902               -0.07654757               -0.00431792                0.58275943
               1.06507800                1.02522673                4.05628330                1.00000000               -0.43121052               -0.41938552                1.42548628               -0.05181168                0.04352541               -0.02750827
               2.06197747                1.01053120                4.02431466                0.32151161               -0.24016882               -0.22473096                0.64165126                0.09642515                0.55220660               -0.61428387
               3.06027462                0.99842343                4.00199352                0.00039187               -0.14010242               -0.04381050                0.07039526                0.46114829                1.53202229               -0.72439139
               4.05917543                0.99368527                3.99044602                0.00010000                0.03939661                0.27538309               -0.28484987                1.25003728                2.70502427                0.06127430
               5.06106255                0.99867290                3.99299689                0.00010000                0.37468915                0.12347923               -0.27873717                1.56026520                3.32881944                0.13537417
               6.06666921                1.00427657                3.99366606                0.02357598                0.55941525                0.02016734               -0.30016688                1.29052252                2.64989767                0.20099261
               7.07225086                1.00068919                3.97949602                0.28093935                0.49554466                0.23569123               -0.61399867                0.64612686                1.55153806                0.73921296
               8.07658010                0.98920258                3.95551567                0.73059460                0.44718030                0.35454262               -1.13930701                0.19729429                0.73299724                0.57318445
               9.08119446                0.97526967                3.92281953                1.00000000                0.56225088                0.56307736               -1.85377889                0.01759516                0.20422747                0.14469685
              10.08782512                0.96172119                3.88750359                1.00000000                0.66306555                0.75797032               -2.60619447               -0.05928374                0.05349883               -0.52417788
               0.08282537                2.03357768                4.08224260                1.00000000               -0.49819979               -0.53015745                2.01807187               -0.08153657                0.06264514                0.72396288
               1.07784337                2.02147584                4.04579543                0.93276460               -0.36037106               -0.33654263                1.17529157               -0.05920077                0.09295747               -0.07989723
               2.07561795                2.00868916                4.00975651                0.15910490               -0.16132820               -0.15577195                0.34150269                0.14094091                0.71267781               -0.89191062
               3.07461681                1.99875533                3.98620303                0.00010000                0.26981918                0.07689326               -0.26753655                1.02437071                2.78112151               -1.30960539
               4.08101433                2.00012463                3.99240846                0.00010000                0.50235905                0.44150671               -0.30533189                2.06798315                4.10427207                0.04358279
               5.08466399                2.00163656                3.99648820                0.00010000                0.34377616                0.27012454               -0.24034733                2.28921897                3.87137518                0.32072548
               6.08788985                2.00368499                3.99818722                0.00010000                0.22332412                0.04184433               -0.14586519                2.01441415                3.66324470                0.60423357
               7.08913047                2.00290175                3.99642646                0.13520807                0.15422621                0.23056409               -0.08276855                1.07464001                2.39960695                1.69424789
               8.09097438                1.99212618                3.97016641                0.44346094                0.25751168                0.26587929               -0.68380813                0.26988095                0.94941605                1.21040522
               9.09428070                1.98029907                3.93480540                1.00000000                0.44272992                0.42251598               -1.42099039                0.07155842                0.27247197                0.24718820
              10.09982898                1.96851319                3.89493523                1.00000000                0.55482732                0.57737891               -2.15061041               -0.04562405                0.04603496               -0.72018009
               0.09317463                3.02885075                4.07544212                1.00000000               -0.43921347               -0.42266529                1.80504056               -0.07094073                0.06092113                0.69011011
               1.08878250                3.01849588                4.03470814                0.87630441               -0.28289179               -0.26294831                0.91790529               -0.04545291                0.10828646               -0.13414519
               2.08751680                3.00741576                3.99471711                0.12914147                0.02720346               -0.10509242                0.02156208                0.19175892                0.96163987               -0.96241721
               3.08932657                2.99996129                3.97152541                0.00010000                0.50685347                0.12296663               -0.36100357                1.14245970                3.81283868               -0.89432314
               4.09765387                3.00251541                3.98920019                0.00010000                0.69800053                0.18478752               -0.34516405                1.76894832                5.45593926               -0.10893587
               5.10328658                3.00407539                4.00085639                0.00010000                0.40192141                0.18509481               -0.11253952                1.83258283                5.03782372                0.42109822
               6.10569229                3.00511346                4.01012178                0.00010000                0.10079428                0.12593081                0.14806691                1.67893136                5.10680434                1.01876669
               7.10530246                3.00530047                4.02073463                0.14099804               -0.05559447                0.17906486                0.30457714                0.90935024                3.36764840                1.98159390
               8.10458040                2.99452016                3.99098919                0.43206008                0.04680795                0.16332438               -0.22454570                0.17141345                0.83180857                1.50272248
               9.10623862                2.98371999                3.94778161                0.97029345                0.29519966                0.26021904               -0.93416935                0.05900407                0.06712513                0.32926924
              10.11048440                2.97326877                3.90282914                1.00000000                0.42457760                0.38275263               -1.58037076               -0.04121985                0.04714973               -0.68473086
               0.10211630                4.02512437                4.06833098                1.00000000               -0.37470033               -0.33280229                1.59057698               -0.05614482                0.06107281                0.63540227
               1.09836930                4.01621687                4.02348769                0.83995365               -0.20642956               -0.19668794                0.67530054               -0.02519811                0.11061283               -0.16360532
               2.09798771                4.00658731                3.97937229                0.11345191                0.19985298               -0.05888276               -0.24426715                0.23757634                1.45519181               -0.98026559
               3.10236636                4.00121467                3.96178524                0.00010000                0.71457456                0.13336946               -0.47068537                1.10011007                4.93318359               -0.39340705
               4.11227920                4.00382038                3.98719485                0.00010000                0.81756166                0.10092901               -0.36522437                1.58775689                6.60019112                0.06030063
               5.11871759                4.00533845                4.00629920                0.00010000                0.39820989                0.07699606                0.06477743                1.56378387                6.21993674                0.51165495
               6.12024340                4.00620360                4.02412845                0.00010000               -0.04034101                0.05596358                0.51785519                1.40401854                6.50448269                1.10268378
               7.11791077                4.00648305                4.04564290                0.15060490               -0.21301360                0.05641990                0.69160381                0.63416875                4.16267377                1.93953396
               8.11598313                3.99539267                4.01092663                0.44466977               -0.05992938                0.06057663                0.02498958                0.02331574                0.76075147                1.40415303
               9.11671218                3.98550345                3.96143572                0.98376294                0.19619499                0.14002619               -0.58852329                0.02522040                0.00898301                0.43151324
              10.11990703                3.97616824                3.91151238                1.00000000                0.31948437                0.23916317               -1.20536120               -0.03922879                0.04326591               -0.53288542
               0.10986674                5.02219470                4.06105879                1.00000000               -0.30511421               -0.26289686                1.37597217               -0.04775533                0.05836071                0.57936993
               1.10681559                5.01456212                4.01223097                0.80818004               -0.12981037               -0.13374236                0.43270792               -0.01030179                0.10890748               -0.17372236
               2.10727053                5.00623811                3.96418097                0.09870727                0.36400537               -0.00117548               -0.50341906                0.27393258                2.10737884               -0.93845224
               3.11409570                5.00262868                3.95568489                0.00010000                0.90073444                0.15102756               -0.58893800                1.03954884                6.10317845               -0.04528125
               4.12528522                5.00453399                3.98718330                0.00010000                0.90416664                0.04273233               -0.36222836                1.38297103                7.58479492                0.21098998
               5.13217903                5.00561531                4.01270916                0.00010000                0.36714243               -0.02417588                0.27310787                1.35059330                7.30583196                0.56454084
               6.13262807                5.00623273                4.03869770                0.00010000               -0.16911316               -0.06178749                0.90048904                1.20001780                7.83158757                1.10207438
               7.12879677                5.00642887                4.07076806                0.15975478               -0.33008731               -0.06939725                1.01548907                0.49980818                4.91002691                1.88695708
               8.12602632                4.99573170                4.03095916                0.45817387               -0.14146584                0.00815094                0.22040632               -0.04303293                0.71493428                1.33982964
               9.12596745                4.98652051                3.97619550                1.00000000                0.11719590                0.08698240               -0.36288821               -0.00457425               -0.01838860                0.50207714
              10.12837024                4.97805203                3.92160521                1.00000000                0.24027837                0.17455144               -0.98760193               -0.04172838                0.03071516               -0.36965520
               0.11642637                6.01986644                4.05367207                1.00000000               -0.23065113               -0.21240644                1.16248625               -0.04592406                0.05478772                0.51898199
               1.11411986                6.01354203                4.00116505                0.78074327               -0.05132853               -0.06743411                0.18044814               -0.00194302                0.10461937               -0.16329137
               2.11539980                6.00656380                3.94948141                0.08465636                0.53707997                0.07968039               -0.77832807                0.28041229                2.87091584               -0.85379767
               3.12486146                6.00423522                3.95267487                0.00010000                1.07760980                0.15442151               -0.66553434                0.91566226                7.29431739                0.17669256
               4.13695199                6.00467503                3.98844142                0.00010000                0.95846278               -0.02100052               -0.33601834                1.12498212                8.42982976                0.26980524
               5.14403071                6.00485494                4.01961293                0.00010000                0.32391010               -0.13378819                0.49344350                1.12202723                8.32398486                0.56591355
               6.14343020                6.00496785                4.05342817                0.00156019               -0.28113716               -0.19413547                1.26310476                1.02071888                9.12800713                1.06681825
               7.13840797                6.00509511                4.09596691                0.16927934               -0.41996867               -0.19951307                1.27286540                0.43386602                5.62795598                1.80884980
               8.13503082                5.99555569                4.05113809                0.47378072               -0.20538018               -0.05219232                0.41260492               -0.04364203                0.66273741                1.24695993
               9.13430037                5.98724310                3.99186850                1.00000000                0.04893023                0.05219747               -0.16514034               -0.01249428               -0.03002515                0.51730507
              10.13600943                5.97965927                3.93316300                1.00000000                0.17090616                0.15389186               -0.82147179               -0.04369885                0.01910727               -0.24749301
               0.12159708                7.01794658                4.04618986                1.00000000               -0.15177108               -0.18005191                0.95293864               -0.04968913                0.05243278                0.45764740
               1.12007936                7.01321343                3.99045509                0.75510602                0.02942531                0.00532484               -0.08251748               -0.00180963                0.10482569               -0.13683664
               2.12218558                7.00783172                3.93566446                0.07056291                0.71091796                0.18715793               -1.07133597                0.21366821                3.65525421               -0.72216070
               3.13429772                7.00571711                3.95125350                0.00010000                1.24897804                0.12554589               -0.72002803                0.66756126                8.45481015                0.23211752
               4.14716514                7.00411398                3.99007984                0.00010000                1.00145155               -0.11030301               -0.29971575                0.79903768                9.19915564                0.23668122
               5.15432675                7.00293954                4.02640240                0.00010000                0.28185651               -0.25481174                0.70578550                0.86731223                9.30438955                0.51774800
               6.15280227                7.00235002                4.06771034                0.00565895               -0.37202492               -0.32308566                1.58010643                0.84380019               10.39468849                0.98301301
               7.14688626                7.00243861                4.12031636                0.17870920               -0.48983929               -0.31721948                1.45566386                0.39935916                6.30399661                1.62729325
               8.14300549                6.99468785                4.07066609                0.49042382               -0.26361364               -0.12903004                0.62362983               -0.01080159                0.60799347                1.08291093
               9.14161398                6.98756446                4.00770969                1.00000000               -0.01707857                0.00344874                0.04242803               -0.01456727               -0.02751793                0.46966572
              10.14266392                6.98112987                3.94542332                1.00000000                0.10499318                0.14153283               -0.66756330               -0.04835082                0.01148859               -0.19895075
               0.12489887                8.01626540                4.03859175                1.00000000               -0.07003435               -0.15974054                0.74880214               -0.05970608                0.06044236                0.40563126
               1.12419852                8.01364852                3.98019107                0.72387707                0.11353098                0.09095321               -0.36497038               -0.01344232                0.13331085               -0.11220436
               2.12716949                8.01030696                3.92322142                0.05486781                0.88659493                0.32678993               -1.40700601                0.03035925                4.38443286               -0.53007921
               3.14193042                8.00674614                3.94995578                0.00010000                1.42704136                0.03863841               -0.77364542                0.29602334                9.54121083                0.15871708
               4.15571031                8.00246897                3.99119746                0.00010000                1.06052446               -0.24694474               -0.27103546                0.45059779                9.94884561                0.12889463
               5.16314091                7.99975870                4.03244460                0.00010000                0.25484124               -0.36949386                0.88547564                0.60803211               10.25518711                0.42419234
               6.16080714                7.99850614                4.08059432                0.00734423               -0.45417935               -0.41224711                1.82642005                0.68958142               11.55934199                0.82579710
               7.15405732                7.99875072                4.14150037                0.18484540               -0.55591021               -0.40916012                1.55715696                0.36362733                6.92717435                1.23291254
               8.14968893                7.99297509                4.08842692                0.50231189               -0.32451601               -0.22759975                0.87698035                0.00475150                0.63166211                0.81302443
               9.14756700                7.98731207                4.02297086                1.00000000               -0.08886657               -0.06544890                0.28149461               -0.02167072                0.01049101                0.38231444
              10.14791160                7.98248993                3.95754398                1.00000000                0.03445989                0.12295670               -0.50591398               -0.05379181                0.00638539               -0.22084237
               0.12563670                9.01475176                4.03082799                1.00000000                0.01322484               -0.13662795                0.54361540               -0.06720121                0.07918047                0.31520245
               1.12576895                9.01503250                3.97012527                0.66362108                0.20292242                0.20002268               -0.68857254               -0.02424242                0.25055354               -0.10227120
               2.12969515                9.01436752                3.91280347                0.03187347                1.11436169                0.51468362               -1.84436199               -0.32815809                5.07563480               -0.31217474
               3.14805619                9.00648988                3.94826049                0.00010000                1.67346903               -0.21355310               -0.83045990               -0.04824749               10.54733240                0.04799845
               4.16316453                8.99917508                3.99127368                0.00010000                1.11970196               -0.33471931               -0.26650815                0.16685011               10.65298630                0.01357720
               5.17045023                8.99554967                4.03691961                0.00010000                0.22186758               -0.44299673                0.99470538                0.37047984               11.09727355                0.27511809
               6.16760188                8.99410508                4.09066271                0.00259746               -0.53801852               -0.46285153                1.94154910                0.47172041               12.49101875                0.54052093
               7.15968986                8.99425540                4.15632757                0.17759689               -0.65313625               -0.49002569                1.72726624                0.27906820                7.50084512                0.65697564
               8.15453916                8.99013586                4.10291845                0.48935725               -0.40120644               -0.36045318                1.25541231               -0.01013830                0.89953586                0.46545354
               9.15166573                8.98625549                4.03736225                1.00000000               -0.16533950               -0.16357715                0.57665903               -0.03299429                0.15766078                0.27242486
              10.15123237                8.98358900                3.96894482                1.00000000               -0.04333566                0.08503834               -0.30799360               -0.05879583                0.00380484               -0.24148868
               0.12299337               10.01353284                4.02163767                1.00000000                0.11045508               -0.12189257                0.27866303                0.14728064                0.24589284                0.25925800
               1.12409792               10.01764898                3.96002291                0.80103311                0.30777857                0.26164768               -1.03368989                0.18628701                0.52279718               -0.09294581
               2.12914894               10.02060064                3.90410179                0.50641238                1.60299907                0.62331204               -2.26310097               -0.81331585                5.72817694               -0.11922428
               3.15615791               10.00247507                3.94631972                0.43605040                2.04192912               -0.40148049               -0.98534365               -0.43113080               11.35659192               -0.03962147
               4.16998753                9.99577458                3.99043218                0.42916284                0.97313020               -0.34005009               -0.34980626                0.10348402               11.08492724                0.02818062
               5.17562051                9.99089877                4.03865940                0.45050215                0.07741417               -0.46509013                1.02479081                0.19075476               11.59987472                0.18999898
               6.17153581                9.98924911                4.09552835                0.49743901               -0.60062985               -0.48559724                2.05802084                0.29596444               13.17165010                0.37146949
               7.16360791                9.98895020                4.16513005                0.58126222               -0.70248616               -0.53052006                1.96214502                0.21765149                8.17336537                0.34260127
               8.15748609                9.98576602                4.11429388                0.73066921               -0.50769698               -0.43698334                1.62193100                0.04920916                1.34846449                0.17973973
               9.15345397                9.98404053                4.05056757                1.00000000               -0.27087166               -0.22149539                0.91106140                0.10005833                0.46995515                0.20565961
              10.15206865                9.98419070                3.98069072                1.00000000               -0.13853189                0.06016943               -0.03096196                0.09864488                0.17181042               -0.23789450
               0.08831272                0.06168415                5.12292164                1.00000000               -0.58698173               -0.68528518                2.39928817               -0.17100508               -0.39748261                0.46330440
               1.08244291                0.04097507                5.08299201                1.00000000               -0.44816329               -0.46456928                1.65378740               -0.13264781               -0.38731376               -0.02581814
               2.07934946                0.02018208                5.04310965                0.71785133               -0.06307386               -0.27719552                0.91991460                0.02336028               -0.17420530               -0.42768005
               3.08118143                0.00283334                5.00752047                0.52569316                0.51189387               -0.13431274                0.25925833                0.28467395                0.92330384               -0.06848220
               4.08958734               -0.00463487                4.98935939                0.44767356                0.85240991               -0.12333886               -0.15184307                0.29983760                2.75724058               -0.03839755
               5.09822963               -0.00128352                4.98931218                0.45230125                0.45960998               -0.07795720               -0.32447634                0.14563056                3.62623716                0.01570223
               6.09877953                0.00151755                4.98721487                0.53299968               -0.10014384                0.08620591               -0.52347157                0.22738786                2.65381400                0.05612448
               7.09622675               -0.00609279                4.96679305                0.69794349               -0.08323006                0.25089166               -0.93864966                0.21490384                1.03786688                0.07150230
               8.09711493               -0.02272986                4.93156383                0.97308395                0.29318879                0.43355287               -1.53880342                0.05604100                0.02639615                0.26395286
               9.10209053               -0.04248713                4.89028406                1.00000000                0.61828303                0.61234793               -2.20063270               -0.08795572               -0.27556696                0.08627112
              10.10948059               -0.06199861                4.84882245                1.00000000                0.73900680                0.78803398               -2.84233870               -0.15686219               -0.29548518               -0.37487541
               0.10731175                1.05483129                5.11102951                1.00000000               -0.54442883               -0.63662693                2.17595412               -0.06527217               -0.00576687                0.62560808
               1.10186746                1.03632937                5.07054495                1.00000000               -0.43289141               -0.42404457                1.42746753               -0.03643546                0.04728520               -0.04722354
               2.09865392                1.01741012                5.03096120                0.30054865               -0.27154100               -0.23974963                0.68972451                0.13015988                0.66193001               -0.69697520
               3.09643664                1.00149021                5.00298235                0.00010000               -0.20048921               -0.06594385                0.12936339                0.54854090                1.84116180               -0.82008205
               4.09464414                0.99413174                4.98795577                0.00010000                0.00865378                0.29407388               -0.21866150                1.39510057                3.28364026                0.10204631
               5.09660972                0.99793691                4.99019821                0.00010000                0.44069549                0.10012227               -0.27908846                1.71928975                4.04473554                0.14478863
               6.10345805                1.00237961                4.99037861                0.01937174                0.69448881               -0.03526206               -0.36492973                1.40809455                3.17182798                0.19168207
               7.11049950                0.99641613                4.97299457                0.26720538                0.62072336                0.23952848               -0.70234042                0.74256153                1.81462091                0.84393895
               8.11587252                0.98160567                4.94339237                0.70666399                0.51729240                0.38875689               -1.25076401                0.24301391                0.82010157                0.63424501
               9.12084534                0.96363634                4.90433695                1.00000000                0.57754655                0.54930242               -1.84924758                0.02577089                0.22847641                0.19305995
              10.12742345                0.94588173                4.86235133                1.00000000                0.65781040                0.70704049               -2.47668313               -0.06123979                0.07699186               -0.50337373
               0.12401112                2.04895161                5.10213009                1.00000000               -0.48757490               -0.53926838                1.96752078               -0.07182168                0.06088177                0.77525267
               1.11913537                2.03249418                5.05768091                0.91402451               -0.36096519               -0.34861345                1.19344204               -0.04375476                0.09329912               -0.11447414
               2.11679182                2.01538708                5.01367007                0.14218875               -0.18523704               -0.17394791                0.42524405                0.17529319                0.80715588               -1.01541464
               3.11543063                2.00151446                4.98370755                0.00010000                0.21254158                0.10202975               -0.19710530                1.18564389                3.29176392               -1.38695153
               4.12104265                2.00124660                4.98985546                0.00010000                0.44684583                0.49031178               -0.21454087                2.31190483                4.91383061                0.05790660
               5.12436755                2.00071893                4.99410863                0.00010000                0.37097805                0.25649434               -0.23426724                2.50573956                4.69179785                0.35927016
               6.12846221                2.00081231                4.99643766                0.00010000                0.37421887               -0.02963730               -0.22762387                2.25148673                4.46484478                0.67575546
               7.13185192                1.99869778                4.99452685                0.12437891                0.31463929                0.17730157               -0.28559072                1.29645169                2.92715457                1.95371883
               8.13475500                1.98504528                4.96233934                0.42446620                0.32389787                0.29153517               -0.84979063                0.32951727                1.01794660                1.38659319
               9.13832988                1.96849891                4.92067174                1.00000000                0.45050163                0.41478631               -1.42091983                0.04806879                0.31186421                0.34832466
              10.14376503                1.95214220                4.87398451                1.00000000                0.54351458                0.54409426               -2.06967039               -0.05681930                0.05297244               -0.59342048
               0.13879018                3.04404593                5.09322838                1.00000000               -0.42332887               -0.44578667                1.75859989               -0.06826683                0.04646536                0.74400356
               1.13455689                3.02935711                5.04402318                0.86510816               -0.28253412               -0.27911245                0.93698295               -0.03949891                0.09264826               -0.16873680
               2.13313950                3.01393116                4.99545994                0.11656755               -0.01334461               -0.11766637                0.10977748                0.26600638                1.19598013               -1.07325826
               3.13429000                3.00353081                4.96858456                0.00010000                0.42691356                0.18884297               -0.19079584                1.30815796                4.48723306               -0.85445392
               4.14167777                3.00393797                4.98650669                0.00010000                0.64344003                0.20765144               -0.22222485                1.94601486                6.37075531               -0.10610738
               5.14715880                3.00306680                4.99964916                0.00010000                0.44155805                0.17331096               -0.12385601                2.00570685                6.01421220                0.50951771
               6.15050893                3.00178687                5.01082781                0.00010000                0.25183809                0.08336859                0.00347704                1.90388265                6.01497425                1.19269381
               7.15219556                2.99996216                5.02245533                0.13365949                0.10763988                0.09720175                0.04969392                1.17481798                3.93058474                2.21956938
               8.15266173                2.98743637                4.98844197                0.41982713                0.12571163                0.16316101               -0.31232008                0.30044691                0.92807988                1.59902119
               9.15470980                2.97193207                4.93797151                0.96640217                0.31693799                0.27158416               -0.99811182                0.04060495                0.07287934                0.39333782
              10.15900049                2.95676362                4.88632138                1.00000000                0.42906929                0.38613880               -1.65074935               -0.04604553                0.01640121               -0.56491751
               0.15202343                4.04003587                5.08400617                1.00000000               -0.35632686               -0.36466633                1.54787268               -0.05873425                0.04773899                0.69551355
               1.14846016                4.02691193                5.03032928                0.83305470               -0.20425927               -0.21184688                0.68721488               -0.02781571                0.09551732               -0.18363212
               2.14793824                4.01303376                4.97728821                0.10298875                0.15634109               -0.05845922               -0.17889519                0.32848819                1.82175468               -1.06147859
               3.15158698                4.00529132                4.95838348                0.00010000                0.62443570                0.16730050               -0.21636276                1.27270171                5.75520604               -0.38724864
               4.16042696                4.00539963                4.98471310                0.00010000                0.75229055                0.10639880               -0.19152511                1.73292389                7.67290651                0.08810378
               5.16663279                4.00418515                5.00671877                0.00010000                0.46087731                0.06143482                0.02526827                1.69986440                7.38757259                0.63790708
               6.16964450                4.00247968                5.02784003                0.00010000                0.15329938                0.02326598                0.27406452                1.62200457                7.55147650                1.33364012
               7.16969878                4.00064182                5.05087536                0.14540916               -0.04252398                0.01082841                0.41573458                0.94877109                4.71146378                2.19799689
               8.16879402                3.98830850                5.01133164                0.43576898                0.00579794                0.04210638                0.01041737                0.20776541                0.83101508                1.41125201
               9.16981474                3.97393060                4.95509393                0.98511415                0.21935034                0.15422360               -0.65505819                0.02880217                0.00488807                0.41558219
              10.17318103                3.95986498                4.89860567                1.00000000                0.33662914                0.26843899               -1.30658831               -0.04579689                0.00291467               -0.52478745
               0.16386339                5.03675260                5.07462507                1.00000000               -0.28606938               -0.30056764                1.33830383               -0.05267573                0.04634522                0.65281429
               1.16100270                5.02512017                5.01663845                0.80144025               -0.12667624               -0.14570137                0.44107707               -0.01701052                0.09897494               -0.18807391
               2.16132987                5.01276198                4.95937401                0.08875205                0.31877306                0.01096720               -0.45817899                0.35491829                2.59849017               -1.02257830
               3.16737816                5.00687682                4.95159873                0.00010000                0.80562782                0.15585097               -0.27972305                1.19315104                7.10092123               -0.03886026
               4.17744242                5.00606595                4.98498699                0.00010000                0.83489394                0.03195564               -0.15986814                1.50337553                8.85927272                0.26036036
               5.18407604                5.00429550                5.01499934                0.00010000                0.45249659               -0.03765377                0.19333375                1.47200876                8.69206460                0.71708318
               6.18649236                5.00225219                5.04551535                0.00010000                0.06330667               -0.07741179                0.55433814                1.39594343                9.00014850                1.34975699
               7.18534217                5.00017873                5.07880675                0.15527426               -0.14820493               -0.09970359                0.71302463                0.79051015                5.41507437                2.13618341
               8.18352826                4.98827850                5.03349236                0.45014054               -0.08064053               -0.03468142                0.25220958                0.14782143                0.76785252                1.36021700
               9.18372936                4.97501654                4.97242411                1.00000000                0.13437683                0.08134962               -0.39198372                0.01894913               -0.00342557                0.46148490
              10.18621579                4.96213240                4.91133839                1.00000000                0.24864325                0.20569660               -1.04732514               -0.04426855                0.00263190               -0.43104602
               0.17423478                6.03402452                5.06513707                1.00000000               -0.21242065               -0.25100965                1.12951958               -0.05206542                0.04312875                0.61291901
               1.17211057                6.02399790                5.00306076                0.77191247               -0.04774100               -0.07583571                0.18734794               -0.01251732                0.10036541               -0.17857103
               2.17327996                6.01325310                4.94181219                0.07428796                0.50177300                0.09799394               -0.75147435                0.33218396                3.50611390               -0.95842200
               3.18214603                6.00840834                4.94803625                0.00010000                0.98979162                0.13850404               -0.34909594                1.04983895                8.48661320                0.19300363
               4.19307579                6.00603874                4.98662249                0.00010000                0.88703494               -0.03837058               -0.12939763                1.24700550                9.90683333                0.34226800
               5.19988673                6.00343207                5.02381259                0.00010000                0.43021740               -0.13609330                0.36129370                1.25296540                9.92262357                0.72959090
               6.20168014                6.00093145                5.06311284                0.00010000               -0.02020308               -0.18548082                0.81451535                1.20569915               10.39365202                1.30653314
               7.19948267                5.99864774                5.10630733                0.16411878               -0.23837510               -0.20035392                0.96118193                0.67380579                6.10707691                2.04069946
               8.19691264                5.98761487                5.05570714                0.46440991               -0.15714217               -0.09777069                0.47728390                0.11228741                0.72666151                1.30778693
               9.19633982                5.97555759                4.99020526                1.00000000                0.05756591                0.03201745               -0.16812779                0.00760827               -0.00223125                0.48776000
              10.19806395                5.96397891                4.92483323                1.00000000                0.17241296                0.17234427               -0.84527056               -0.04254417                0.00689909               -0.34797462
               0.18287533                7.03173241                5.05557598                1.00000000               -0.13515536               -0.21012928                0.92072942               -0.05641775                0.04248199                0.57776447
               1.18152377                7.02360345                4.98969520                0.74210311                0.03438880                0.00226866               -0.08146204               -0.01496734                0.10974743               -0.16152568
               2.18356310                7.01472186                4.92487037                0.05905126                0.70327598                0.20962657               -1.07197611                0.22747944                4.45178584               -0.86645634
               3.19558929                7.00964690                4.94595778                0.00010000                1.18978499                0.09680587               -0.45597700                0.78828518                9.84946361                0.23819595
               4.20735880                7.00529854                4.98866542                0.00010000                0.93266747               -0.12133057               -0.10551023                0.94753753               10.86779530                0.32926597
               5.21424264                7.00157363                5.03236824                0.00010000                0.40159319               -0.23677049                0.51399274                1.02852618               11.09370092                0.67156235
               6.21539067                6.99854257                5.07988470                0.00247331               -0.10538884               -0.28313548                1.04656344                1.02974840               11.72741676                1.18847270
               7.21213487                6.99617165                5.13249121                0.17119785               -0.32632534               -0.29316496                1.18124665                0.57191091                6.79062541                1.82604180
               8.20886416                6.98632309                5.07746160                0.47722334               -0.23086895               -0.16980675                0.71937514                0.08712567                0.73158162                1.18857944
               9.20751749                6.97565689                5.00818250                1.00000000               -0.01709437               -0.01770670                0.05530718               -0.00269974                0.01332621                0.46835735
              10.20852227                6.96557928                4.93874994                1.00000000                0.10047859                0.14825703               -0.66530252               -0.04614014                0.00338117               -0.31450772
               0.18936433                8.02982194                5.04590830                1.00000000               -0.05425548               -0.17208481                0.70907762               -0.06177896                0.05282890                0.54711499
               1.18882177                8.02404327                4.97651862                0.70539934                0.12108856                0.09514253               -0.37481436               -0.02042248                0.14804731               -0.16184967
               2.19178610                8.01744563                4.90877051                0.04155899                0.92566398                0.35759147               -1.44373731                0.00851302                5.35457295               -0.75840824
               3.20733505                8.01034446                4.94359018                0.00010000                1.41568548                0.01953316               -0.62665002                0.36306640               11.12577699                0.14874585
               4.22009981                8.00361213                4.99011997                0.00010000                0.99390833               -0.23968523               -0.09751616                0.62830946               11.78048520                0.24836166
               5.22721322                7.99869666                5.03977187                0.00010000                0.37886376               -0.32885577                0.63293916                0.79791482               12.19342552                0.53488490
               6.22767709                7.99526874                5.09469383                0.00313656               -0.20364257               -0.35838740                1.24323529                0.85286149               12.95118596                0.95676025
               7.22314037                7.99278445                5.15554385                0.17378112               -0.42535894               -0.39831265                1.43343801                0.46314916                7.48842148                1.42613719
               8.21916991                7.98421873                5.09798816                0.48336739               -0.30553674               -0.27530524                1.01808025                0.05468455                0.85340160                0.99988181
               9.21702963                7.97520346                5.02587469                1.00000000               -0.09367660               -0.08577883                0.30404580               -0.01258374                0.06741688                0.41852844
              10.21729637                7.96694405                4.95266676                1.00000000                0.02667398                0.11754056               -0.47394182               -0.05042545                0.00696408               -0.33345050
               0.19319707                9.02829071                5.03600363                1.00000000                0.02945549               -0.13209619                0.48947467               -0.06047259                0.05996219                0.44101196
               1.19349163                9.02550630                4.96310402                0.64801945                0.21175512                0.20404564               -0.70121741               -0.01430438                0.23934596               -0.16941158
               2.19743218                9.02187369                4.89355699                0.01904532                1.15962451                0.52424064               -1.89308497               -0.37022761                6.19972043               -0.56905870
               3.21668412                9.01003756                4.94000041                0.00010000                1.70703061               -0.19542357               -0.86711520               -0.07218941               12.22917229                0.04929305
               4.23157279                9.00050483                4.99036803                0.00010000                1.09301075               -0.32368399               -0.11263897                0.30580732               12.61162791                0.13424005
               5.23854433                8.99499651                5.04499451                0.00010000                0.33936629               -0.38510091                0.70357765                0.50896134               13.15551982                0.30963705
               6.23836012                8.99137482                5.10605028                0.00010000               -0.30482406               -0.41369063                1.39430864                0.55746320               13.99810210                0.55140061
               7.23244785                8.98820540                5.17364555                0.16818948               -0.54106369               -0.51255291                1.80197239                0.30603591                8.25028653                0.85076825
               8.22753884                8.98081698                5.11673614                0.47323792               -0.39536781               -0.40632738                1.42300056                0.00794450                1.19247441                0.67857673
               9.22454050                8.97394132                5.04320658                1.00000000               -0.17531317               -0.17542492                0.59300901               -0.01247830                0.18010372                0.32862262
              10.22403258                8.96793009                4.96621473                1.00000000               -0.05079196                0.07153849               -0.25437586               -0.05068169                0.00073585               -0.32083618
               0.19372369               10.02718001                5.02416594                1.00000000                0.12290211               -0.11106992                0.22729257                0.14707900                0.26915225                0.35630130
               1.19495271               10.02812419                4.94968292                0.79935550                0.30632997                0.26178813               -1.01836157                0.18362984                0.56065426               -0.17318686
               2.19985029               10.02793044                4.88088936                0.50142461                1.61537039                0.60567578               -2.25177197               -0.84259850                6.99729440               -0.46364144
               3.22726012               10.00643599                4.93549288                0.43401424                2.07033573               -0.36015735               -1.11085708               -0.48199952               13.07891753                0.03851405
               4.24125701                9.99713845                4.98905263                0.42937554                0.96311693               -0.33663789               -0.17613795                0.19635440               13.24362587                0.07574841
               5.24652246                9.99099465                5.04705296                0.45171614                0.21802307               -0.40018685                0.73407496                0.29063598               13.83991625                0.19663203
               6.24561747                9.98699493                5.11210878                0.49825019               -0.33517653               -0.43798957                1.51548745                0.30267223               14.84714811                0.31153182
               7.23981893                9.98253339                5.18567014                0.58023715               -0.60122945               -0.56720093                2.09891920                0.19197047                9.05505523                0.51114242
               8.23359288                9.97609219                5.13166953                0.72854898               -0.50759852               -0.47247944                1.74267623                0.06348212                1.75553425                0.46648113
               9.22966696                9.97169496                5.05943761                1.00000000               -0.26438448               -0.22463582                0.88562080                0.12677761                0.51927785                0.26881280
              10.22830519                9.96837482                4.98058335                1.00000000               -0.13617697                0.04447270                0.00273694                0.09524713                0.18716144               -0.29200046
               0.12781158                0.07949062                6.14664525                1.00000000               -0.57889549               -0.67330045                2.34885317               -0.16053980               -0.43638760                0.49914243
               1.12202263                0.05424133                6.09950408                1.00000000               -0.44690003               -0.46479650                1.65022498               -0.12123847               -0.42333331               -0.03192532
               2.11887358                0.02892708                6.05247946                0.71393688               -0.06291886               -0.28957996                0.95576801                0.04534870               -0.17736589               -0.47508261
               3.12076425                0.00733813                6.01036846                0.52217545                0.53712866               -0.15034247                0.31353544                0.32036264                1.05881735               -0.06727479
               4.12961615               -0.00334374                5.98803560                0.44674715                0.89774995               -0.14261333               -0.11193937                0.32016454                3.09651607               -0.04657106
               5.13871925               -0.00229103                5.98600501                0.45270922                0.50374793               -0.09367478               -0.33589175                0.15253667                4.02915095                0.00911514
               6.13969111               -0.00192336                5.98163712                0.53278369               -0.05884686                0.08107806               -0.58746996                0.23712575                2.92934750                0.05123004
               7.13754231               -0.01278508                5.95694092                0.69620286               -0.05226164                0.26192463               -1.01819765                0.22775413                1.12494780                0.07138454
               8.13864588               -0.03334269                5.91586955                0.97216244                0.30675677                0.44546583               -1.58398130                0.07149941               -0.00067124                0.26816315
               9.14367745               -0.05734284                5.86836681                1.00000000                0.61426602                0.60860310               -2.18236295               -0.08018058               -0.32017751                0.10726321
              10.15093120               -0.08120147                5.82085352                1.00000000                0.72537540                0.76931278               -2.76737293               -0.14536180               -0.33191874               -0.38180871
               0.15145548                1.07275762                6.13254039                1.00000000               -0.53634660               -0.63033778                2.12876054               -0.05993697               -0.00938579                0.66854380
               1.14609201                1.04959336                6.08483265                1.00000000               -0.43384068               -0.42666011                1.42878350               -0.02897954                0.04737066               -0.05678990
               2.14277867                1.02603128                6.03810915                0.28789796               -0.29943622               -0.25224759                0.73628554                0.15510975                0.74729626               -0.76028062
               3.14010329                1.00583471                6.00458079                0.00010000               -0.25731428               -0.09620153                0.18858522                0.63506415                2.11631339               -0.90879204
               4.13763238                0.99523012                5.98607279                0.00010000               -0.02844332                0.30377915               -0.16473434                1.51056137                3.79499694                0.13843943
               5.13953442                0.99677223                5.98741512                0.00010000                0.48385095                0.08310172               -0.28311507                1.84279012                4.65542817                0.14762944
               6.14730940                0.99888742                5.98636747                0.01560466                0.79975480               -0.06628725               -0.43519911                1.50696769                3.61667779                0.17592325
               7.15552952                0.98983416                5.96544921                0.25755458                0.71651769                0.26502308               -0.79446364                0.82270589                2.01882009                0.91892250
               8.16163975                0.97111197                5.93050039                0.69208174                0.56377569                0.40755640               -1.30961400                0.27257844                0.88977595                0.67883647
               9.16680503                0.94874319                5.88583457                1.00000000                0.58482302                0.54869213               -1.85242552                0.02875298                0.25894196                0.25859410
              10.17333621                0.92649166                5.83796992                1.00000000                0.65311812                0.69380984               -2.42385968               -0.05856895                0.09573848               -0.47241260
               0.17294135                2.06688386                6.12159302                1.00000000               -0.47719810               -0.54514371                1.92672702               -0.06463104                0.06530909                0.82683255
               1.16816937                2.04570812                6.06966427                0.89714545               -0.36034617               -0.35602938                1.20073030               -0.03449246                0.10105702               -0.13762531
               2.16573443                2.02388213                6.01826139                0.12953911               -0.19513408               -0.18494140                0.48454801                0.19011667                0.88930168               -1.11994985
               3.16426669                2.00541410                5.98226093                0.00010000                0.15777174                0.11807866               -0.09925046                1.33854504                3.74507348               -1.38929000
               4.16888986                2.00273184                5.98811764                0.00010000                0.38255298                0.51527509               -0.14401392                2.51644485                5.63426870                0.10093133
               5.17191775                1.99937101                5.99180285                0.00010000                0.39393322                0.24416865               -0.23375667                2.68671720                5.40078882                0.39204198
               6.17676853                1.99675090                5.99363475                0.00010000                0.49270658               -0.06612293               -0.32154610                2.45102917                5.12772500                0.72258926
               7.18177188                1.99251538                5.99071464                0.11493067                0.42099457                0.17545928               -0.44708564                1.44140091                3.28751693                2.08185875
               8.18518842                1.97480844                5.95317060                0.40912591                0.35504682                0.31981579               -0.95345212                0.35508438                1.12674206                1.54700946
               9.18887282                1.95363100                5.90638700                0.99550449                0.45372340                0.42106840               -1.44090340                0.04390278                0.37244077                0.46188999
              10.19426289                1.93267473                5.85354182                1.00000000                0.53900702                0.54287991               -2.03508641               -0.05680360                0.06947881               -0.51431721
               0.19251434                3.06185474                6.11061411                1.00000000               -0.41104403               -0.46229566                1.72043006               -0.06402177                0.03976109                0.79854553
               1.18840390                3.04247277                6.05344780                0.85141642               -0.28196601               -0.28895820                0.94613326               -0.03470327                0.08248766               -0.19750825
               2.18687502                3.02233245                5.99691266                0.10575188               -0.01897111               -0.12192250                0.17208391                0.31788406                1.47031786               -1.19050768
               3.18802448                3.00819628                5.96770949                0.00010000                0.35646751                0.25207119               -0.01504660                1.44910385                5.15307673               -0.71194963
               4.19400437                3.00553562                5.98475570                0.00010000                0.56126144                0.21851593               -0.14008247                2.09857476                7.16614637               -0.06128604
               5.19924971                3.00165560                5.99837927                0.00010000                0.45906200                0.16877046               -0.13380833                2.17268512                6.87202138                0.59070914
               6.20318561                2.99756496                6.01019132                0.00010000                0.35251431                0.07189821               -0.11310487                2.10177828                6.80435912                1.32276032
               7.20629999                2.99334335                6.02172850                0.12531900                0.22201021                0.07880930               -0.17570327                1.34099388                4.46971788                2.39521305
               8.20762581                2.97750829                5.98474279                0.40823596                0.17584031                0.18794410               -0.41632366                0.35088263                1.11258630                1.76483683
               9.20981680                2.95716456                5.92781937                0.95396183                0.32434388                0.28657480               -1.03417072                0.02520352                0.07481933                0.47648948
              10.21411269                2.93734926                5.86981415                1.00000000                0.42958928                0.39903782               -1.65729169               -0.04758286                0.02538211               -0.50142652
               0.21042486                4.05763795                6.09928843                1.00000000               -0.34272589               -0.38673284                1.51031695               -0.05827198                0.03908621                0.75762618
               1.20699760                4.03992896                6.03723198                0.82341212               -0.20281261               -0.22018095                0.69218821               -0.02760076                0.08217714               -0.20290147
               2.20636860                4.02144368                5.97579438                0.09392861                0.15239996               -0.05349425               -0.12737390                0.39658005                2.25801546               -1.16002669
               3.21004560                4.01045553                5.95745799                0.00010000                0.55167194                0.20012147               -0.02312928                1.40675715                6.63475895               -0.30539241
               4.21740204                4.00710216                5.98336434                0.00010000                0.66482582                0.11480900               -0.09883802                1.86782912                8.59136707                0.15058538
               5.22334211                4.00274642                6.00680457                0.00010000                0.48571508                0.06037798               -0.00587124                1.86644836                8.39562730                0.75303840
               6.22711634                3.99818886                6.02960974                0.00010000                0.26531625                0.01950463                0.11762010                1.84915795                8.48588230                1.50627024
               7.22864844                3.99409157                6.05395759                0.13828557                0.06342588                0.01886078                0.21609052                1.15998590                5.30980347                2.41586799
               8.22838486                3.97856732                6.01113498                0.42705421                0.04437403                0.05261257               -0.04781456                0.27055670                1.00105661                1.45420711
               9.22953592                3.95936250                5.94833456                0.97904214                0.22784880                0.17371591               -0.69945601                0.01621367                0.00589266                0.43121810
              10.23294184                3.94065549                5.88538061                1.00000000                0.34059194                0.29271443               -1.34458847               -0.04662029                0.00453114               -0.52681924
               0.22676689                5.05412008                6.08782486                1.00000000               -0.27207265               -0.32320193                1.30163797               -0.05425797                0.04074000                0.72739701
               1.22404616                5.03806915                6.02105251                0.79276185               -0.12434148               -0.15075498                0.44071906               -0.02015339                0.09009405               -0.20351820
               2.22428006                5.02126257                5.95501739                0.08040289                0.32274916                0.02276616               -0.41838030                0.41537738                3.17332851               -1.12322346
               3.23050114                5.01219871                5.95009043                0.00010000                0.73950030                0.16403569               -0.09930712                1.31535323                8.18898940                0.00256392
               4.23907006                5.00783180                5.98398593                0.00010000                0.74954139                0.03698978               -0.06981840                1.62873640                9.93806727                0.32523693
               5.24549197                5.00286316                6.01657583                0.00010000                0.48767799               -0.03342812                0.13249200                1.63869849                9.86482625                0.85244910
               6.24882362                4.99795506                6.04978447                0.00010000                0.18146405               -0.07298508                0.36133260                1.62747787               10.04927194                1.54011381
               7.24912125                4.99372056                6.08502856                0.14859434               -0.05288041               -0.09334638                0.55630055                0.99561289                6.03371001                2.33314609
               8.24776601                4.97856054                6.03600335                0.44232978               -0.05341700               -0.04125734                0.23926208                0.20997883                0.92366835                1.37722804
               9.24805291                4.96063888                5.96835583                1.00000000                0.14141522                0.09387039               -0.42066960                0.01183699               -0.00199152                0.43310933
              10.25059432                4.94320355                5.90065871                1.00000000                0.25414070                0.23163724               -1.08376361               -0.04605182                0.00075629               -0.49762902
               0.24144156                6.05117391                6.07626246                1.00000000               -0.19895114               -0.26947261                1.09317689               -0.05393577                0.04020320                0.70194803
               1.23945205                6.03691386                6.00491201                0.76214892               -0.04474815               -0.07720432                0.18235365               -0.01705756                0.09677014               -0.19998577
               2.24054659                6.02189900                5.93445192                0.06606749                0.51656885                0.11408504               -0.72240429                0.37505195                4.21855561               -1.08233228
               3.24978342                6.01373624                5.94569295                0.00010000                0.93828638                0.13641936               -0.21254783                1.14668754                9.77880696                0.19646546
               4.25931232                6.00784195                5.98585347                0.00010000                0.81047026               -0.03149962               -0.05900834                1.36910723               11.15246154                0.41109165
               5.26599283                6.00207785                6.02683880                0.00010000                0.47480860               -0.12258233                0.26518529                1.41883674               11.25602972                0.87010598
               6.26880849                5.99672916                6.06971848                0.00010000                0.09811926               -0.17082843                0.59244618                1.42753978               11.53728150                1.49192944
               7.26795521                5.99222464                6.11519055                0.15706260               -0.15711852               -0.19988222                0.85263307                0.85068130                6.75080187                2.22731838
               8.26566612                5.97774218                6.06068377                0.45594134               -0.14127821               -0.11910605                0.50299125                0.15975439                0.88817939                1.34448521
               9.26512965                5.96123991                5.98850594                1.00000000                0.06126711                0.03116485               -0.17463841                0.00426595                0.00459944                0.45554674
              10.26689147                5.94528823                5.91625759                1.00000000                0.17618162                0.19013190               -0.86712369               -0.04505056                0.00423607               -0.44739732
               0.25420828                7.04873063                6.06460445                1.00000000               -0.12283570               -0.21969330                0.88135596               -0.05589362                0.04183750                0.67934183
               1.25297992                7.03652507                5.98882585                0.73027032                0.03752196                0.00444209               -0.09054086               -0.01705752                0.11166040               -0.19761964
               2.25495872                7.02354427                5.91422494                0.05076429                0.72560108                0.22765867               -1.05233902                0.25224099                5.28870120               -1.03310539
               3.26749194                7.01492710                5.94213396                0.00010000                1.15759377                0.09710918               -0.39211672                0.84853111               11.33804336                0.18285253
               4.27811059                7.00720181                5.98796963                0.00010000                0.87447781               -0.10541785               -0.07008414                1.06552116               12.28842328                0.39831353
               5.28498150                7.00041151                6.03668226                0.00010000                0.45585216               -0.21238658                0.38214750                1.18897058               12.57453188                0.80033724
               6.28722763                6.99453849                6.08864161                0.00010000                0.00701821               -0.26266987                0.81015608                1.22808943               12.96590378                1.35501008
               7.28512186                6.98972292                6.14394129                0.16325342               -0.26409020               -0.30527597                1.14612818                0.71080702                7.48945410                2.02845364
               8.28194583                6.97617842                6.08505360                0.46713574               -0.22648429               -0.20219949                0.77809590                0.11496285                0.91679875                1.27680955
               9.28059218                6.96126218                6.00881583                1.00000000               -0.01745835               -0.02906746                0.06653876               -0.00325689                0.02634891                0.45631440
              10.28159666                6.94700618                5.93211727                1.00000000                0.10044876                0.15339492               -0.66483038               -0.04683476                0.00343943               -0.41929531
               0.26473482                8.04678005                6.05277331                1.00000000               -0.04375551               -0.17081307                0.66241084               -0.05639058                0.05142647                0.65426236
               1.26429726                8.03700270                5.97269478                0.69199709                0.12272846                0.09774481               -0.38281719               -0.01526433                0.14700593               -0.21952843
               2.26718938                8.02645217                5.89434667                0.03337162                0.93996207                0.36616122               -1.42167796                0.02550907                6.29524876               -0.98003876
               3.28309650                8.01567842                5.93742278                0.00010000                1.39744732                0.03229701               -0.64450077                0.38090386               12.80487254                0.04499944
               4.29513833                8.00573360                5.98924714                0.00010000                0.96695307               -0.21372941               -0.10837815                0.72220487               13.38555743                0.30604284
               5.30243556                7.99783012                6.04510338                0.00010000                0.44602712               -0.29750981                0.47533142                0.93195200               13.81103818                0.63168333
               6.30405887                7.99147576                6.10545903                0.00010000               -0.09520688               -0.34101741                1.01835089                0.99871238               14.32196891                1.08133570
               7.30053143                7.98611912                6.17016913                0.16573589               -0.38163744               -0.42892217                1.49472323                0.55551446                8.29021064                1.68203655
               8.29642612                7.97369819                6.10878852                0.47238570               -0.31473404               -0.30761970                1.09895090                0.07106146                1.05527370                1.16010915
               9.29423674                7.96065856                6.02905178                1.00000000               -0.09796857               -0.09985794                0.32476041               -0.00725094                0.07259908                0.43892132
              10.29446675                7.94835613                5.94806514                1.00000000                0.02300088                0.11247495               -0.45294070               -0.04853631                0.00736079               -0.42266519
               0.27263515                9.04531437                6.04061748                1.00000000                0.03673495               -0.12229005                0.43609580               -0.05305921                0.05169526                0.53182756
               1.27300250                9.03847996                5.95610092                0.63928146                0.20790102                0.20123696               -0.69151293               -0.00782779                0.22557700               -0.23483843
               2.27679318                9.03086749                5.87494177                0.01245718                1.14130459                0.51054481               -1.81862706               -0.34057189                7.23441978               -0.78514669
               3.29582860                9.01557304                5.93091819                0.00010000                1.68049063               -0.17090067               -0.92409813               -0.07318924               14.14557276               -0.04312521
               4.31040299                9.00292722                5.98902090                0.00010000                1.10248866               -0.29066266               -0.17179456                0.35249568               14.40535991                0.16827472
               5.31787837                8.99446132                6.05099117                0.00010000                0.42549491               -0.35578051                0.53765884                0.58590188               14.90219115                0.35850125
               6.31891289                8.98771814                6.11854889                0.00010000               -0.19343214               -0.40565114                1.20051246                0.62429393               15.57110454                0.61707504
               7.31400973                8.98114448                6.19236702                0.16337025               -0.50426342               -0.54976223                1.90466037                0.34623656                9.20148698                1.08130638
               8.30882762                8.97002602                6.13137846                0.46655914               -0.41102564               -0.42346572                1.46201504                0.02618591                1.38144001                0.84418910
               9.30578921                8.95926502                6.04922243                1.00000000               -0.17984099               -0.18519150                0.60621582               -0.00406892                0.16089257                0.37022599
              10.30523080                8.94925568                5.96385730                1.00000000               -0.05584161                0.06286548               -0.22456604               -0.04825085               -0.00356310               -0.38163336
               0.27734245               10.04433425                6.02618352                1.00000000                0.12451374               -0.09801255                0.18087410                0.14004860                0.30686036                0.43027477
               1.27858758               10.04102744                5.93965568                0.79952557                0.29712136                0.25474768               -0.98433309                0.17494915                0.60500233               -0.23473687
               2.28328487               10.03666307                5.85906635                0.49928627                1.54927010                0.57955784               -2.12155719               -0.78918177                8.16268219               -0.63526807
               3.30957299               10.01226041                5.92410257                0.43311441                2.00075469               -0.33126281               -1.13294072               -0.46269747               15.18906218               -0.02659326
               4.32329997                9.99992034                5.98690942                0.42963092                0.98948490               -0.30068806               -0.25031619                0.21240306               15.21962254                0.10610204
               5.32936268                9.99071451                6.05334090                0.45240692                0.32808118               -0.37468026                0.56352012                0.32055125               15.75093915                0.20686274
               6.32986159                9.98336274                6.12583810                0.49860738               -0.21072049               -0.43554004                1.32285908                0.31533846               16.58583572                0.33091276
               7.32514827                9.97512387                6.20710843                0.58015200               -0.55161439               -0.60206036                2.16559303                0.20716128               10.13472030                0.68791482
               8.31882930                9.96522887                6.14914740                0.72897218               -0.51112839               -0.47971517                1.73566440                0.09171128                2.02066325                0.60198010
               9.31492571                9.95695473                6.06827999                1.00000000               -0.26544494               -0.23102881                0.88686400                0.13287752                0.54288011                0.30989028
              10.31352040                9.94961344                5.98074546                1.00000000               -0.14053021                0.03577546                0.02913494                0.09483149                0.20525100               -0.33419292
               0.17386731                0.09987673                7.16989871                1.00000000               -0.57252724               -0.66223244                2.30538654               -0.15250965               -0.47962606                0.54026314
               1.16814203                0.06967943                7.11599651                1.00000000               -0.44647686               -0.46460360                1.64839482               -0.11237674               -0.46722959               -0.03423263
               2.16493777                0.03942104                7.06222501                0.71214104               -0.06701976               -0.29984637                0.99099377                0.06058150               -0.19921061               -0.51673814
               3.16680164                0.01306318                7.01379118                0.52017264                0.54716665               -0.16412767                0.36932317                0.34667725                1.15007431               -0.06975497
               4.17588110               -0.00164069                6.98712060                0.44623086                0.92047434               -0.15408350               -0.07214874                0.33363437                3.35768678               -0.05465919
               5.18521112               -0.00392143                6.98259435                0.45293867                0.52747398               -0.09869110               -0.34397136                0.15735582                4.34673591                0.00295668
               6.18643058               -0.00691854                6.97546547                0.53252391               -0.03589263                0.08189890               -0.63653959                0.24468068                3.13665240                0.04977119
               7.18449327               -0.02168169                6.94642909                0.69518438               -0.03774828                0.27025379               -1.06967577                0.23948307                1.17957475                0.07464104
               8.18567562               -0.04662828                6.89988420                0.97206987                0.31048710                0.45096246               -1.60414773                0.08092000               -0.02654150                0.27670066
               9.19070301               -0.07527740                6.84663680                1.00000000                0.60965956                0.60654337               -2.16723753               -0.07680243               -0.35803706                0.12662129
              10.19786881               -0.10386760                6.79347500                1.00000000                0.71657926                0.76127703               -2.72289606               -0.13914878               -0.36015137               -0.38932244
               0.20253951                1.09325440                7.15360472                1.00000000               -0.52933958               -0.62310981                2.08669147               -0.05672591               -0.01420942                0.71851298
               1.19724611                1.06503339                7.09912062                1.00000000               -0.43438986               -0.42764542                1.42813624               -0.02428621                0.04484925               -0.06121374
               2.19385171                1.03642257                7.04568691                0.28096760               -0.32234196               -0.26182278                0.77553633                0.17159643                0.81510324               -0.81521402
               3.19079927                1.01142190                7.00675406                0.00010000               -0.30709803               -0.12316064                0.24312734                0.70350597                2.34799667               -0.98173454
               4.18770975                0.99681848                6.98466108                0.00010000               -0.06878310                0.31115058               -0.12291240                1.59873770                4.22960132                0.17632896
               5.18942361                0.99509166                6.98453590                0.00010000                0.50238834                0.07585273               -0.29405384                1.93685334                5.16518204                0.14991826
               6.19775752                0.99390045                6.98167463                0.01320917                0.86596805               -0.08206079               -0.49427630                1.58017667                3.98074809                0.15875484
               7.20674297                0.98102085                6.95710530                0.25168293                0.77625782                0.28686748               -0.85959070                0.87770179                2.18651770                0.97232787
               8.21328267                0.95788135                6.91720009                0.68281518                0.59058406                0.41856715               -1.34235530                0.28545221                0.95222360                0.71908770
               9.21855465                0.93078803                6.86728844                1.00000000                0.58924232                0.55146594               -1.85771891                0.02841418                0.28553663                0.32124039
              10.22506752                0.90374517                6.81387413                1.00000000                0.65128666                0.69396143               -2.40438677               -0.05547850                0.10992337               -0.44437446
               0.22917481                2.08741453                7.14066463                1.00000000               -0.46866676               -0.54664888                1.88924191               -0.05987466                0.07194856                0.88597897
               1.22448814                2.06112652                7.08169552                0.88280719               -0.35968081               -0.35970839                1.20349358               -0.02839781                0.11158230               -0.15616546
               2.22198119                2.03418458                7.02336103                0.12114838               -0.20061436               -0.19172763                0.52927406                0.19529505                0.97166206               -1.21882561
               3.22047585                2.01059996                6.98172254                0.00010000                0.11024537                0.13364275               -0.01954484                1.45534853                4.14704847               -1.33723919
               4.22418610                2.00458233                6.98697518                0.00010000                0.31951849                0.53235358               -0.09558503                2.68084172                6.26427140                0.15669989
               5.22686622                1.99759562                6.98943349                0.00010000                0.39594120                0.23938061               -0.24005743                2.82989590                5.99184799                0.42364178
               6.23210492                1.99144024                6.99000674                0.00010000                0.56000936               -0.08166839               -0.38968393                2.59747001                5.66882462                0.75134459
               7.23806641                1.98405566                6.98558514                0.10801772                0.47562779                0.18013105               -0.54892449                1.52991503                3.58864704                2.13552753
               8.24161748                1.96174307                6.94327030                0.39672162                0.36705341                0.34436922               -1.00919120                0.36180872                1.24682891                1.70892900
               9.24540748                1.93575192                6.89185367                0.97500709                0.46137428                0.43631356               -1.48064008                0.04243668                0.44399899                0.57030877
              10.25084496                1.91001163                6.83328278                1.00000000                0.54374865                0.55755624               -2.04906087               -0.05147643                0.09467973               -0.45892971
               0.25391803                3.08232142                7.12763698                1.00000000               -0.40099288               -0.47184409                1.68547305               -0.06105774                0.03685645                0.85763129
               1.24990810                3.05783923                7.06294584                0.83741607               -0.28169331               -0.29386687                0.95109637               -0.03118954                0.07839667               -0.22699775
               2.24828417                3.03258802                6.99890162                0.09766622               -0.01998034               -0.12280450                0.21957020                0.35734425                1.77351048               -1.31363438
               3.24950850                3.01409476                6.96828362                0.00010000                0.30233783                0.31012837                0.08677428                1.55569383                5.75095687               -0.54083559
               4.25433092                3.00746555                6.98370504                0.00010000                0.48275554                0.22993881               -0.08509447                2.22530699                7.83974228                0.00073644
               5.25916361                2.99987927                6.99697299                0.00010000                0.44579767                0.17268636               -0.14533281                2.31176273                7.60044973                0.66198715
               6.26324688                2.99226708                7.00856571                0.00010000                0.39374198                0.07858467               -0.19510783                2.24242013                7.45357471                1.41987705
               7.26703845                2.98462347                7.01894126                0.11821015                0.27878569                0.08017298               -0.33778425                1.44024265                4.97200285                2.50286721
               8.26882259                2.96476873                6.98011550                0.39696454                0.20481880                0.21945074               -0.49719145                0.38557715                1.34330560                1.95376643
               9.27113482                2.93951431                6.91728810                0.93716068                0.33479893                0.31332899               -1.08678980                0.02035199                0.08993282                0.55949139
              10.27551857                2.91489630                6.85317555                1.00000000                0.43837452                0.42362028               -1.69879307               -0.04507192                0.03768972               -0.47768693
               0.27691805                4.07797765                7.11421251                1.00000000               -0.33202978               -0.39974542                1.47551939               -0.05760367                0.03264866                0.82180100
               1.27359775                4.05524918                7.04417304                0.81230643               -0.20227526               -0.22347246                0.69456398               -0.02726035                0.07267912               -0.22828986
               2.27287254                4.03172849                6.97474074                0.08697500                0.15572225               -0.04740257               -0.08722267                0.45138499                2.72471327               -1.27383118
               3.27671220                4.01680253                6.95792090                0.00010000                0.50175884                0.22991889                0.06566844                1.50667580                7.44828442               -0.24171043
               4.28290772                4.00918110                6.98273634                0.00010000                0.57938737                0.13080074               -0.04645092                1.98171343                9.37648015                0.22355835
               5.28829994                4.00104935                7.00660135                0.00010000                0.46507001                0.07154837               -0.02867465                2.01206287                9.25311934                0.84820437
               6.29220912                3.99301194                7.03019243                0.00010000                0.30348322                0.03393182                0.02218325                2.01939818                9.30147594                1.63373722
               7.29436961                3.98565912                7.05519717                0.13163071                0.11145327                0.04926077                0.05910395                1.29395940                5.91266450                2.59920441
               8.29443819                3.96613208                7.01037535                0.41769869                0.06586727                0.07527683               -0.10287639                0.31055686                1.22190240                1.53887314
               9.29568695                3.94201850                6.94110480                0.96742191                0.23706778                0.19965201               -0.74723274                0.01256501                0.00328200                0.46439043
              10.29917954                3.91848403                6.87171390                1.00000000                0.34925887                0.32032707               -1.39058095               -0.04811660                0.00599025               -0.54388381
               0.29822289                5.07432652                7.10065783                1.00000000               -0.26108357               -0.33468770                1.26534518               -0.05458990                0.03618121                0.80046473
               1.29561205                5.05336978                7.02545283                0.78323154               -0.12321862               -0.15121691                0.43863289               -0.02138954                0.08396477               -0.22736358
               2.29575852                5.03163997                6.95100640                0.07429572                0.32886737                0.03352068               -0.38602214                0.46604699                3.76615294               -1.23915702
               3.30218940                5.01869313                6.94961258                0.00010000                0.69799271                0.17457954               -0.04534542                1.40250128                9.19848132                0.00050030
               4.30971837                5.01008157                6.98359062                0.00010000                0.66923135                0.05478875               -0.03128116                1.73442765               10.87516603                0.38483094
               5.31557403                5.00131024                7.01764918                0.00010000                0.46533481               -0.01607928                0.09393773                1.78532587               10.86554237                0.95809127
               6.31902507                4.99294572                7.05274200                0.00010000                0.21117310               -0.05495234                0.26066762                1.80816734               11.00787286                1.68343355
               7.31979749                4.98560869                7.08993276                0.14229057               -0.01753584               -0.06888707                0.44161717                1.12461817                6.68768320                2.49182561
               8.31867435                4.96627427                7.03827760                0.43406187               -0.03816598               -0.03388791                0.21392141                0.24106519                1.13001455                1.41731254
               9.31903417                4.94350735                6.96401072                0.99273407                0.14754065                0.10950116               -0.45073132                0.00998006                0.00217689                0.43067207
              10.32162516                4.92130284                6.88966312                1.00000000                0.25909928                0.25441808               -1.11825237               -0.04715897                0.00441776               -0.55244330
               0.31773973                6.07128389                7.08700061                1.00000000               -0.18832235               -0.27590604                1.05419398               -0.05358589                0.03801153                0.78222507
               1.31585651                6.05222484                7.00670784                0.75250425               -0.04348024               -0.07507435                0.17716461               -0.01802747                0.09495773               -0.23050332
               2.31687013                6.03239890                6.92736411                0.06040626                0.52320586                0.12625166               -0.69434741                0.41698888                4.92257655               -1.21851202
               3.32632063                6.02029412                6.94378529                0.00010000                0.90545210                0.14404954               -0.20837917                1.21470174               10.97617526                0.14027522
               4.33497917                6.01027688                6.98544232                0.00010000                0.74108417               -0.01052144               -0.04374726                1.46471226               12.25675247                0.45491116
               5.34114231                6.00072777                7.02911629                0.00010000                0.45474246               -0.09972191                0.20885202                1.55616439               12.40447338                0.97376263
               6.34407402                5.99191289                7.07496177                0.00010000                0.11955552               -0.15217469                0.49380697                1.59891303               12.62348679                1.63429768
               7.34353342                5.98428138                7.12335999                0.15081605               -0.13565927               -0.19232705                0.79176284                0.96279529                7.45425483                2.37751462
               8.34136083                5.96545432                7.06576696                0.44772478               -0.13377155               -0.12598751                0.50617488                0.17891901                1.08810390                1.38774953
               9.34085799                5.94420852                6.98671249                1.00000000                0.06422731                0.03649989               -0.18593189                0.00323449                0.01035029                0.43692557
              10.34264538                5.92357240                6.90749076                1.00000000                0.17873912                0.20414916               -0.88790323               -0.04546170                0.00492894               -0.53408720
               0.33526927                7.06880840                7.07320309                1.00000000               -0.11327768               -0.21948718                0.83856540               -0.05350210                0.04058704                0.76222609
               1.33413650                7.05186829                6.98788438                0.71973499                0.03798729                0.00763945               -0.09560413               -0.01556859                0.11194793               -0.24086248
               2.33602902                7.03416500                6.90382359                0.04544094                0.72344845                0.23645584               -1.02258553                0.28993936                6.08353582               -1.20117200
               3.34860546                7.02157412                6.93811544                0.00010000                1.12749781                0.10830503               -0.42895991                0.89587729               12.72581046                0.07102095
               4.35857897                7.00987114                6.98726374                0.00010000                0.82279190               -0.07975764               -0.08423592                1.14464330               13.58167822                0.42196053
               5.36506130                6.99931580                7.04001119                0.00010000                0.44353694               -0.18531714                0.30889928                1.30554364               13.87618686                0.89091176
               6.36744971                6.98990222                7.09608782                0.00010000                0.02253308               -0.24623571                0.72001457                1.37115209               14.18862171                1.49190048
               7.36551196                6.98176215                7.15541377                0.15711907               -0.25620609               -0.31409676                1.14437050                0.79669818                8.25612449                2.20989957
               8.36232559                6.96375452                7.09302352                0.45853617               -0.22655873               -0.21791368                0.80189439                0.12535459                1.11112888                1.35168797
               9.36098079                6.94423734                7.00951327                1.00000000               -0.01687050               -0.03166180                0.06872713               -0.00108474                0.02939892                0.44684215
              10.36198818                6.92538582                6.92545333                1.00000000                0.10073918                0.15891584               -0.66908773               -0.04657821                0.00246248               -0.50831555
               0.35054990                8.06689415                7.05915652                1.00000000               -0.03613727               -0.16456728                0.61621418               -0.05191047                0.04878072                0.73544508
               1.35018853                8.05237763                6.96886227                0.68148649                0.12065885                0.09901777               -0.38069657               -0.01118724                0.14387433               -0.27627436
               2.35296308                8.03712802                6.88033695                0.02868150                0.91717535                0.36430337               -1.37453640                0.06784395                7.16495947               -1.17895215
               3.36853204                8.02246022                6.93070016                0.00010000                1.35836398                0.04605701               -0.69133397                0.42323429               14.39915400               -0.09171401
               4.38013036                8.00868172                6.98795241                0.00010000                0.93450284               -0.18315482               -0.15007491                0.77946184               14.89042560                0.30820924
               5.38722209                7.99702142                7.04927849                0.00010000                0.44601770               -0.26933905                0.38994257                1.01526607               15.27683043                0.69938565
               6.38905071                7.98698818                7.11506085                0.00010000               -0.08035036               -0.32824891                0.94057672                1.09673319               15.71684382                1.20278868
               7.38561509                7.97799945                7.18543831                0.16057274               -0.38289922               -0.44349622                1.53392048                0.61219636                9.13985023                1.91389906
               8.38139273                7.96109605                7.11996718                0.46426122               -0.32050466               -0.32063204                1.12061450                0.07812398                1.23000150                1.27719039
               9.37920499                7.94357529                7.03236990                1.00000000               -0.09879342               -0.10598592                0.33341584               -0.00233097                0.06627003                0.45138363
              10.37941686                7.92675071                6.94360794                1.00000000                0.02118671                0.11156443               -0.44343322               -0.04728808                0.00713157               -0.49785914
               0.36326410                9.06551705                7.04472554                1.00000000                0.04147833               -0.11203570                0.38934356               -0.04850642                0.04516135                0.59947976
               1.36367888                9.05384864                6.94927376                0.63383832                0.20196052                0.19711567               -0.67315692               -0.00422926                0.21737868               -0.28997524
               2.36730331                9.04145107                6.85718445                0.00969409                1.09187834                0.49239511               -1.73413949               -0.28297124                8.19067909               -0.95133192
               3.38551645                9.02249526                6.92151845                0.00010000                1.61518518               -0.14624340               -0.94008723               -0.02883869               15.96886701               -0.14141235
               4.39960701                9.00620804                6.98693214                0.00010000                1.07718616               -0.25991380               -0.22891464                0.38572632               16.12370228                0.16294891
               5.40706017                8.99392902                7.05574769                0.00010000                0.43996710               -0.32944944                0.44677847                0.62598368               16.53950163                0.39461322
               6.40840635                8.98333725                7.13006053                0.00010000               -0.17060764               -0.39767138                1.13368071                0.67395697               17.17787955                0.69525056
               7.40364802                8.97289222                7.21173876                0.16124032               -0.50470610               -0.55952932                1.93834013                0.37967889               10.16377470                1.26980116
               8.39831223                8.95734188                7.14597644                0.46282422               -0.41842551               -0.42510737                1.45230736                0.03336277                1.53467656                0.94546994
               9.39527951                8.94211762                7.05533090                1.00000000               -0.18103332               -0.18988234                0.61221660               -0.00016297                0.14342640                0.39671662
              10.39469156                8.92761711                6.96172341                1.00000000               -0.05879428                0.05819675               -0.20711585               -0.04693117               -0.00680027               -0.43488213
               0.37291659               10.06465344                7.02778342                1.00000000                0.12533402               -0.08636128                0.14209717                0.13189980                0.33667689                0.48491394
               1.37416993               10.05631995                6.92999626                0.80020145                0.28702253                0.24713027               -0.94951126                0.16522879                0.64977937               -0.28158216
               2.37865704               10.04697592                6.83845822                0.49884977                1.45141836                0.55248540               -2.00803927               -0.70385681                9.23814782               -0.75521757
               3.40319829               10.01953536                6.91283407                0.43302168                1.88770477               -0.29599089               -1.11414826               -0.40643924               17.18785475               -0.07812816
               4.41641113               10.00348345                6.98404631                0.42996255                0.97071346               -0.27245921               -0.30103253                0.22526593               17.11028856                0.10004702
               5.42261256                9.99043243                7.05832336                0.45287402                0.35777591               -0.34965847                0.47155197                0.33280420               17.54669767                0.22695190
               6.42356665                9.97903475                7.13856597                0.49900054               -0.17042652               -0.43024965                1.25749065                0.33485088               18.36175680                0.38330702
               7.41920403                9.96680886                7.22898200                0.58065094               -0.53660334               -0.60833626                2.19143034                0.23355906               11.22490959                0.81742064
               8.41283458                9.95259390                7.16638282                0.72987599               -0.51387633               -0.47479760                1.71441656                0.10067407                2.23722164                0.66978724
               9.40892650                9.93977764                7.07717489                1.00000000               -0.26776569               -0.23399855                0.89174336                0.13073696                0.56615561                0.33885108
              10.40747927                9.92791465                6.98116605                1.00000000               -0.14472362                0.02975394                0.05139254                0.09247132                0.22264332               -0.37296920
               0.22602344                0.12288385                8.19275298                1.00000000               -0.56717105               -0.65218951                2.26822703               -0.14593157               -0.52595624                0.58524324
               1.22035173                0.08730847                8.13247198                1.00000000               -0.44643685               -0.46383889                1.64619013               -0.10525888               -0.51555057               -0.03462011
               2.21709471                0.05166851                8.07229933                0.71146157               -0.07407927               -0.30775339                1.02077391                0.07069826               -0.23377107               -0.55554237
               3.21887015                0.02001727                8.01775492                0.51931526                0.54360080               -0.17486162                0.41977436                0.36257025                1.20578295               -0.07376795
               4.22796672                0.00048211                7.98659262                0.44606851                0.92194766               -0.15799929               -0.03521851                0.34097008                3.55186245               -0.06168373
               5.23730910               -0.00611500                7.97912558                0.45310223                0.53113481               -0.09535505               -0.34677862                0.16012368                4.59016299               -0.00172187
               6.23858942               -0.01334625                7.96890633                0.53233963               -0.02970151                0.08675039               -0.66687014                0.25007075                3.29458618                0.04930843
               7.23671507               -0.03264468                7.93554740                0.69454113               -0.03410391                0.27693579               -1.09824431                0.24722502                1.22028369                0.07822854
               8.23790734               -0.06244044                7.88378660                0.97182983                0.31054227                0.45480720               -1.61359744                0.08592363               -0.04944965                0.28666650
               9.24292591               -0.09611369                7.82502206                1.00000000                0.60722254                0.60648263               -2.16023578               -0.07570730               -0.39289149                0.14482388
              10.25005179               -0.12978619                7.76639559                1.00000000                0.71258754                0.75825770               -2.70239683               -0.13609843               -0.38825564               -0.39828645
               0.26013950                1.11636195                8.17427421                1.00000000               -0.52326942               -0.61563314                2.04983574               -0.05443219               -0.01962291                0.77385310
               1.25490681                1.08267008                8.11339537                1.00000000               -0.43461088               -0.42744425                1.42621989               -0.02090440                0.04121025               -0.06282390
               2.25144729                1.04859098                8.05361988                0.27737274               -0.34088793               -0.26888040                0.80742292                0.18222601                0.87055063               -0.86696006
               3.24808905                1.01826866                8.00944334                0.00010000               -0.35023629               -0.14387607                0.29156131                0.75172465                2.54018467               -1.04589834
               4.24444256                0.99890212                7.98361454                0.00010000               -0.11322673                0.31698834               -0.08916297                1.65802020                4.59234643                0.21600482
               5.24582452                0.99293144                7.98153404                0.00010000                0.49562009                0.07608802               -0.30430834                2.00165972                5.59160687                0.15787618
               6.25435496                0.98752125                7.97648194                0.01177247                0.89549476               -0.08835196               -0.53581809                1.62985973                4.28860182                0.14500916
               7.26373441                0.97012468                7.94825740                0.24806020                0.80730596                0.30173253               -0.90114638                0.90762882                2.33654951                1.02317983
               8.27050108                0.94210763                7.90365329                0.67647356                0.60536530                0.42560245               -1.36363985                0.28877897                1.01563519                0.76383366
               9.27584172                0.90995113                7.84868020                1.00000000                0.59311107                0.55756090               -1.86733953                0.02515756                0.31205254                0.36835563
              10.28236330                0.87779639                7.78988219                1.00000000                0.65215854                0.69904568               -2.40337383               -0.05315091                0.12286260               -0.43856134
               0.29231854                2.11057119                8.15937786                1.00000000               -0.46139248               -0.54512321                1.85516361               -0.05644808                0.07910259                0.95025336
               1.28770462                2.07875959                8.09373414                0.87028159               -0.35889456               -0.36073946                1.20299791               -0.02399478                0.12366038               -0.17204248
               2.28514065                2.04629091                8.02884687                0.11591272               -0.20555567               -0.19554623                0.56363880                0.19701640                1.05188913               -1.31535658
               3.28359350                2.01713975                7.98187003                0.00010000                0.06618434                0.14562779                0.04064900                1.53410558                4.50740731               -1.27735008
               4.28646434                2.00682188                7.98620594                0.00010000                0.25648276                0.54435419               -0.06493593                2.79671462                6.81395566                0.21771109
               5.28872316                1.99540676                7.98700171                0.00010000                0.37645210                0.23980224               -0.24460207                2.93191755                6.49342368                0.45969790
               6.29399338                1.98488671                7.98584107                0.00010000                0.57790521               -0.08722205               -0.43123725                2.69585435                6.13790859                0.77645108
               7.30028126                1.97338997                7.97973615                0.10313163                0.49315419                0.18319923               -0.60408037                1.58203763                3.87000692                2.16837245
               8.30385646                1.94607161                7.93298678                0.38717367                0.37295253                0.36854647               -1.04276185                0.36457805                1.36685828                1.87039574
               9.30774031                1.91503752                7.87677420                0.95642654                0.47209013                0.45760612               -1.52894811                0.04184005                0.50252931                0.66299505
              10.31329827                1.88419472                7.81256061                1.00000000                0.55579520                0.57840081               -2.09213589               -0.04786558                0.11191871               -0.43561342
               0.32263374                3.10545949                8.14432358                1.00000000               -0.39265485               -0.47590328                1.65309090               -0.05850919                0.03612493                0.91839517
               1.31870719                3.07545529                8.07246973                0.82383885               -0.28131469               -0.29517054                0.95194771               -0.02805518                0.07819434               -0.25694426
               2.31700745                3.04468006                8.00130406                0.09205438               -0.02335004               -0.12143160                0.25600003                0.38501431                2.07111976               -1.43991854
               3.31824019                3.02118121                7.96944498                0.00010000                0.25512002                0.35763031                0.12018176                1.62656616                6.30338233               -0.38719895
               4.32210985                3.00978920                7.98305381                0.00010000                0.40789208                0.24329341               -0.05518714                2.31665668                8.42853167                0.06509020
               5.32639804                2.99772749                7.99547261                0.00010000                0.40894928                0.18137820               -0.15281375                2.41064285                8.23023230                0.72799834
               6.33028883                2.98577681                8.00628916                0.00010000                0.38961132                0.09003036               -0.24611679                2.33089171                8.01334166                1.50310319
               7.33419026                2.97378866                8.01497282                0.11250899                0.29281266                0.08470911               -0.42419383                1.50696504                5.45840779                2.58887226
               8.33614509                2.94947856                7.97479896                0.38690863                0.21825728                0.25555372               -0.56056235                0.41867012                1.59679082                2.15364135
               9.33855541                2.91910326                7.90608357                0.91893431                0.34732538                0.34450838               -1.14949881                0.02042670                0.10191796                0.65148401
              10.34309160                2.88936440                7.83583829                1.00000000                0.45361886                0.45477579               -1.76271010               -0.04662576                0.03744166               -0.45698030
               0.35115675                4.10105312                8.12879882                1.00000000               -0.32338045               -0.40591069                1.44275882               -0.05635614                0.02823234                0.88366550
               1.34792295                4.07285617                8.05112326                0.80028600               -0.20208673               -0.22341021                0.69439321               -0.02605777                0.06623448               -0.25838704
               2.34711502                4.04386227                7.97404993                0.08192331                0.15463679               -0.04119986               -0.05392810                0.49360474                3.17844671               -1.39597716
               3.35101568                4.02429236                7.95877136                0.00010000                0.45680886                0.25815545                0.07872303                1.57359109                8.21059828               -0.20925157
               4.35625119                4.01168774                7.98243533                0.00010000                0.49663612                0.15166196               -0.02580296                2.05844508               10.07325492                0.28683082
               5.36094841                3.99903432                8.00623107                0.00010000                0.41494234                0.08912743               -0.04231891                2.11264881               10.00774394                0.92940536
               6.36455004                3.98668732                8.03005340                0.00010000                0.28852027                0.05387910               -0.03445719                2.12292453               10.02931122                1.74297582
               7.36671881                3.97508415                8.05513967                0.12589284                0.11826155                0.08027965               -0.04513012                1.38222126                6.51772933                2.78496318
               8.36691527                3.95118269                8.00907745                0.40851110                0.07720989                0.10183055               -0.15411088                0.34934008                1.48322454                1.65597639
               9.36826301                3.92192769                7.93338990                0.95212866                0.24640925                0.22706901               -0.79644762                0.01315374                0.00430619                0.51498047
              10.37184346                3.89329024                7.85756899                1.00000000                0.35804484                0.35067100               -1.44120054               -0.04943149                0.00640471               -0.55162000
               0.37790051                5.09734128                8.11313177                1.00000000               -0.25236253               -0.33899848                1.23045722               -0.05388972                0.03251239                0.86678545
               1.37537689                5.07098709                8.02982517                0.77275614               -0.12285747               -0.14919645                0.43562957               -0.02102298                0.07932901               -0.25772065
               2.37544336                5.04385606                7.94729695                0.06999482                0.32548303                0.04246486               -0.35731738                0.50814446                4.33140352               -1.36224925
               3.38188655                5.02634432                7.94918353                0.00010000                0.65467141                0.18732629               -0.05678734                1.45897045               10.15368976               -0.04233983
               4.38853679                5.01282244                7.98336031                0.00010000                0.58824471                0.07896563               -0.02503770                1.80154462               11.72722864                0.42227291
               5.39365144                4.99951004                8.01845459                0.00010000                0.40803516                0.00783890                0.07251586                1.88231992               11.76582653                1.04132670
               6.39669749                4.98685439                8.05499782                0.00010000                0.18439384               -0.03090126                0.20591036                1.91843537               11.90001814                1.80739861
               7.39733932                4.97539425                8.09386090                0.13679665               -0.02045714               -0.03951170                0.35851152                1.20885432                7.36298418                2.66818885
               8.39628835                4.95151517                8.04028178                0.42583117               -0.03141938               -0.02157225                0.18598050                0.27054052                1.37326089                1.48761901
               9.39671093                4.92364464                7.95934120                0.97983669                0.15447621                0.12740847               -0.48499915                0.01062510                0.00631472                0.44564038
              10.39937787                4.89637782                7.87829366                1.00000000                0.26669448                0.27630169               -1.15871384               -0.04717860                0.00855525               -0.59986080
               0.40278733                6.09427315                8.09734634                1.00000000               -0.17996267               -0.27610162                1.01627737               -0.05224349                0.03600221                0.85084193
               1.40098770                6.06987225                8.00845530                0.74251319               -0.04333290               -0.07168538                0.17287961               -0.01700409                0.09356870               -0.26653629
               2.40192067                6.04471157                7.92056497                0.05666088                0.51205035                0.13459605               -0.66574011                0.45608211                5.57838105               -1.35570821
               3.41122871                6.02803888                7.94152537                0.00010000                0.85978485                0.15441603               -0.24597056                1.26184680               12.11390987                0.04798615
               4.41911637                6.01326706                7.98497852                0.00010000                0.66670693                0.01542476               -0.05427492                1.52319185               13.28673805                0.46650350
               5.42456285                5.99919110                8.03101584                0.00010000                0.39590806               -0.07212473                0.17976758                1.64159736               13.46294410                1.04917476
               6.42703453                5.98606929                8.07959462                0.00010000                0.08361323               -0.12884879                0.44772129                1.70014045               13.67142572                1.75775629
               7.42623511                5.97429392                8.13102581                0.14559827               -0.14794148               -0.17758343                0.74596366                1.03256421                8.18887519                2.54549227
               8.42407570                5.95075124                8.07080726                0.43990095               -0.13111261               -0.12516064                0.49754867                0.19812499                1.31265657                1.44894978
               9.42361286                5.92447586                7.98478730                1.00000000                0.06789051                0.04484864               -0.20210379                0.00522247                0.01384322                0.43201937
              10.42543351                5.89881627                7.89849953                1.00000000                0.18206493                0.21724318               -0.90830322               -0.04656255                0.00442615               -0.60548200
               0.42565745                7.09181924                8.08137576                1.00000000               -0.10590671               -0.21533250                0.79805412               -0.05100673                0.03900239                0.82937640
               1.42459838                7.06955338                7.98691377                0.70969188                0.03704579                0.01077909               -0.09745672               -0.01323274                0.11168974               -0.28596113
               2.42639837                7.04654798                7.89377323                0.04218448                0.69848070                0.24003485               -0.98718045                0.33046363                6.81499356               -1.35927923
               3.43856800                7.02943264                7.93355477                0.00010000                1.07250234                0.12011283               -0.47342196                0.94091840               14.05023227               -0.05603002
               4.44784841                7.01313093                7.98628492                0.00010000                0.75565781               -0.05188358               -0.10886002                1.19435219               14.81074457                0.41046053
               5.45368115                6.99806754                8.04286024                0.00010000                0.38745340               -0.15548825                0.27358724                1.37236821               15.10546274                0.95262422
               6.45559748                6.98427742                8.10304190                0.00010000               -0.01862512               -0.22552309                0.68450850                1.44882205               15.40154710                1.61253002
               7.45330865                6.97184259                8.16682870                0.15238476               -0.27642872               -0.31109030                1.13293759                0.84607657                9.05456255                2.39795293
               8.45006891                6.94901196                8.10109148                0.45089408               -0.22791520               -0.22310826                0.80473597                0.13589450                1.31198040                1.42674619
               9.44875035                6.92454161                8.01019037                1.00000000               -0.01515521               -0.03036275                0.06390679                0.00096208                0.02899385                0.44147094
              10.44976580                6.90072269                7.91873552                1.00000000                0.10154553                0.16562982               -0.67513209               -0.04690297                0.00289452               -0.58270760
               0.44629892                8.08996650                8.06509759                1.00000000               -0.03046079               -0.15710873                0.57499144               -0.04864291                0.04609744                0.79956778
               1.44599431                8.07008783                7.96508085                0.67248061                0.11758816                0.09965460               -0.37498929               -0.00807238                0.14079553               -0.32873753
               2.44865068                8.04951227                7.86685594                0.02628091                0.87349058                0.35858049               -1.32291284                0.11585109                7.96751923               -1.35036997
               3.46346412                8.03044114                7.92359610                0.00010000                1.28589140                0.05891223               -0.71529849                0.48036851               15.92123594               -0.21909518
               4.47436851                8.01222938                7.98624564                0.00010000                0.86998034               -0.15193155               -0.18008830                0.82197849               16.33252798                0.28418179
               5.48086373                7.99608133                8.05290223                0.00010000                0.39337084               -0.23794158                0.35128332                1.05941500               16.69012698                0.74387523
               6.48223593                7.98155883                8.12427056                0.00010000               -0.12208154               -0.30796904                0.91277075                1.14363526               17.12011388                1.30969744
               7.47842210                7.96807211                8.20084754                0.15704463               -0.40706799               -0.44228871                1.53671680                0.63954532               10.01488556                2.12517606
               8.47409457                7.94628908                8.13120081                0.45776185               -0.32503607               -0.32460881                1.12082774                0.08282991                1.40010957                1.36963503
               9.47192138                7.92386861                8.03572010                1.00000000               -0.09806359               -0.10736254                0.33321767                0.00001118                0.05823160                0.45938010
              10.47213330                7.90212887                7.93919648                1.00000000                0.02119179                0.11386242               -0.44276588               -0.04677505                0.00681378               -0.56414527
               0.46444194                9.08867707                8.04840435                1.00000000                0.04492301               -0.10248637                0.34980008               -0.04549070                0.04028868                0.65288295
               1.46489117                9.07154647                7.94263779                0.62951394                0.19600687                0.19314888               -0.65524242               -0.00217110                0.21283178               -0.33689628
               2.46836207                9.05371959                7.84025898                0.00910093                1.02835414                0.47494599               -1.65654295               -0.21881242                9.07991553               -1.08329206
               3.48545825                9.03061089                7.91211644                0.00010000                1.51428576               -0.11872683               -0.93039410                0.03252891               17.69332409               -0.22064335
               4.49864779                9.01009230                7.98444261                0.00010000                1.00408794               -0.22682213               -0.25322906                0.41728779               17.76718317                0.14417462
               5.50554001                8.99330871                8.05992674                0.00010000                0.39158078               -0.29895638                0.40866756                0.64694905               18.13658017                0.41930894
               6.50647941                8.97811804                8.14122250                0.00010000               -0.20853495               -0.37704084                1.10927567                0.69451285               18.79203676                0.76172582
               7.50136931                8.96299681                8.23113382                0.16019189               -0.52751980               -0.55431554                1.93274048                0.39046320               11.13581958                1.42027208
               8.49592901                8.94251979                8.16042461                0.46029003               -0.42292668               -0.42386031                1.43769492                0.03419109                1.68160153                1.01417835
               9.49291078                8.92239436                8.06146676                1.00000000               -0.18096162               -0.19124208                0.61269879                0.00121761                0.13118458                0.41467205
              10.49230978                8.90299993                7.95971499                1.00000000               -0.06009992                0.05699492               -0.19881155               -0.04655956               -0.00897604               -0.48258249
               0.47965030               10.08791677                8.02902546                1.00000000                0.12580718               -0.07602953                0.10891035                0.12423932                0.36197360                0.52821789
               1.48090837               10.07395081                7.92066545                0.80051344                0.27798619                0.24043325               -0.92005185                0.15644102                0.69256878               -0.31930192
               2.48521002               10.05901119                7.81890557                0.49927478                1.34168096                0.52915987               -1.91270143               -0.60941536               10.23932354               -0.84222154
               3.50774199               10.02806660                7.90181961                0.43341722                1.74032104               -0.25442831               -1.08378204               -0.33753838               19.07459834               -0.11667917
               4.52001644               10.00769294                7.98088877                0.43031690                0.90174952               -0.23993608               -0.31480427                0.23864536               18.91315872                0.09230867
               5.52577698                9.99010220                8.06277194                0.45320120                0.32108213               -0.32065069                0.43984459                0.33995054               19.30297364                0.24374343
               6.52643809                9.97401801                8.15098792                0.49936290               -0.19736822               -0.41000243                1.23973385                0.34004781               20.15048507                0.43088659
               7.52182962                9.95698580                8.25093704                0.58120691               -0.55286199               -0.60110108                2.19301184                0.23572339               12.30974929                0.90690231
               8.51538085                9.93781187                8.18343574                0.73064237               -0.51820163               -0.47079164                1.69923041                0.09808179                2.43332869                0.70712710
               9.51146558                9.92004377                8.08611486                1.00000000               -0.26949462               -0.23505924                0.89460148                0.12832553                0.59085889                0.35937611
              10.50999095                9.90326877                7.98177331                1.00000000               -0.14746295                0.02688328                0.06556964                0.09061777                0.23803204               -0.40707641
               0.28391018                0.14853913                9.21526325                1.00000000               -0.56255133               -0.64325370                2.23614629               -0.14043427               -0.57377915                0.63216878
               1.27828467                0.10714024                9.14892032                1.00000000               -0.44653876               -0.46254820                1.64282254               -0.09950305               -0.56630426               -0.03413025
               2.27497941                0.06566910                9.08264049                0.71120729               -0.08303306               -0.31332692                1.04433905                0.07707242               -0.27645311               -0.59299180
               3.27662401                0.02821098                9.02218667                0.51917995                0.52841388               -0.18221617                0.46255489                0.36906390                1.23451804               -0.07854991
               4.28554769                0.00308180                8.98641623                0.44614994                0.90383353               -0.15565409               -0.00188824                0.34264004                3.69428267               -0.06739906
               5.29470068               -0.00877279                8.97565878                0.45321814                0.51764016               -0.08541527               -0.34443578                0.16049767                4.77893720               -0.00504929
               6.29590049               -0.02108360                8.96212806                0.53215746               -0.03410027                0.09494876               -0.68416076                0.25235502                3.42145557                0.04944686
               7.29401867               -0.04553711                8.92446421                0.69396129               -0.03442624                0.28328032               -1.11540161                0.25115774                1.25430095                0.08183776
               8.29521196               -0.08062832                8.86761226                0.97102854                0.31087572                0.45861638               -1.62255689                0.08805674               -0.07039735                0.29926845
               9.30023619               -0.11969720                8.80343209                1.00000000                0.60723288                0.61002014               -2.16285996               -0.07584856               -0.42645951                0.16000785
              10.30735662               -0.15880652                8.73942706                1.00000000                0.71204333                0.76154485               -2.69913316               -0.13451543               -0.41663250               -0.41498125
               0.32390473                1.14210659                9.19460144                1.00000000               -0.51800759               -0.60844441                2.01804686               -0.05247769               -0.02510359                0.83195221
               1.31872465                1.10251476                9.12764501                1.00000000               -0.43449841               -0.42644595                1.42321882               -0.01815495                0.03716617               -0.06335121
               2.31521476                1.06253583                9.06183537                0.27540316               -0.35581763               -0.27379166                0.83237809                0.18888685                0.91809832               -0.91734062
               3.31160830                1.02638882                9.01258528                0.00010000               -0.38743945               -0.15798294                0.33339572                0.78151725                2.70088986               -1.10676537
               4.30746597                1.00152525                8.98287782                0.00010000               -0.16099740                0.32077444               -0.05972186                1.68850453                4.89579252                0.25423233
               5.30838835                0.99037306                8.97844974                0.00010000                0.46701144                0.08119015               -0.30999652                2.03697638                5.95651289                0.17246025
               6.31680620                0.97986589                8.97095826                0.01084845                0.89571310               -0.08771799               -0.56349030                1.65753959                4.56126185                0.13878280
               7.32630261                0.95729570                8.93908237                0.24565038                0.81831883                0.31223988               -0.92934327                0.91970569                2.47985549                1.07862393
               8.33317258                0.92395784                8.88992729                0.67152308                0.61320934                0.43168135               -1.38099785                0.29059699                1.08095405                0.81212844
               9.33856680                0.88640300                8.82994165                1.00000000                0.59741050                0.56528200               -1.88184346                0.02495675                0.33716964                0.40553852
              10.34512079                0.84880893                8.76580666                1.00000000                0.65539854                0.70748879               -2.41546505               -0.05171188                0.13346619               -0.44790085
               0.36204429                2.13637024                9.17776790                1.00000000               -0.45519654               -0.54191117                1.82470922               -0.05371685                0.08673105                1.01694631
               1.35749233                2.09861132                9.10575548                0.85882200               -0.35806071               -0.36017698                1.20060597               -0.02050589                0.13702518               -0.18713782
               2.35488308                2.06019327                9.03463380                0.11260642               -0.21136997               -0.19746175                0.59056841                0.19782792                1.12868203               -1.41116035
               3.35326493                2.02505132                8.98253552                0.00010000                0.02252284                0.15303144                0.08698812                1.57610586                4.83356886               -1.23576655
               4.35533354                2.00949728                8.98567647                0.00010000                0.19173201                0.55063583               -0.04416447                2.86038225                7.30211563                0.27770041
               5.35709957                1.99285102                8.98454145                0.00010000                0.33975545                0.24184052               -0.24562327                2.99046543                6.93519836                0.50224005
               6.36212865                1.97716204                8.98138199                0.00010000                0.56106333               -0.08745405               -0.45335428                2.75319873                6.56500542                0.80717198
               7.36832084                1.96070769                8.97350353                0.09973729                0.48939746                0.18508526               -0.63571360                1.61187254                4.14595219                2.20728568
               8.37191659                1.92800531                8.92241506                0.37986843                0.37816990                0.38965233               -1.06836610                0.36879149                1.48472713                2.02840085
               9.37588423                1.89160844                8.86127471                0.93975466                0.47969659                0.47626392               -1.56537544                0.04525046                0.55501070                0.74216877
              10.38151053                1.85534326                8.79144006                1.00000000                0.56262926                0.59696846               -2.12789631               -0.04465907                0.12661811               -0.43016601
               0.39834823                3.13126837                9.16069880                1.00000000               -0.38567224               -0.47637353                1.62337949               -0.05623897                0.03659279                0.97875458
               1.39449151                3.09531122                9.08198480                0.81093395               -0.28084571               -0.29426609                0.94999722               -0.02513823                0.08057098               -0.28786237
               2.39273131                3.05858660                9.00402162                0.08820415               -0.03325533               -0.11886016                0.28366642                0.40242686                2.34415347               -1.56808228
               3.39382640                3.02944945                8.97068726                0.00010000                0.20713050                0.39138132                0.12202711                1.66126061                6.81772754               -0.26525180
               4.39687392                3.01253797                8.98260130                0.00010000                0.33532507                0.25569650               -0.04043824                2.36699953                8.97042812                0.12444577
               5.40053290                2.99520987                8.99391672                0.00010000                0.35697886                0.19022328               -0.15663028                2.46580088                8.79580199                0.79216257
               6.40401350                2.97811681                9.00364337                0.00010000                0.35819512                0.10003753               -0.27405298                2.37728162                8.52343092                1.58461626
               7.40769680                2.96099740                9.01045738                0.10810980                0.28170760                0.08813074               -0.46178813                1.55066958                5.92880422                2.66832603
               8.40964765                2.93175089                8.96890425                0.37836347                0.22185270                0.28817448               -0.61155144                0.44333659                1.85116112                2.35272112
               9.41213386                2.89592828                8.89429812                0.90098704                0.35551588                0.37260174               -1.20042853                0.01973552                0.11618111                0.74199461
              10.41675797                2.86074830                8.81792134                1.00000000                0.46241138                0.48265021               -1.81439137               -0.04605155                0.03532670               -0.44205605
               0.43283381                4.12684277                9.14306768                1.00000000               -0.31624783               -0.40768280                1.41233032               -0.05477191                0.02537243                0.94150077
               1.42967133                4.09272600                9.05806091                0.78788046               -0.20202142               -0.22139472                0.69239227               -0.02423758                0.06232497               -0.29210665
               2.42879338                4.05781606                8.97366217                0.07821959                0.14337159               -0.03533286               -0.02635690                0.52249375                3.59795987               -1.52278848
               3.43253877                4.03287895                8.95949536                0.00010000                0.40598613                0.28214374                0.06116279                1.60842926                8.92867517               -0.19762196
               4.43691311                4.01461121                8.98222028                0.00010000                0.41489909                0.17229286               -0.02213645                2.09472469               10.72828973                0.33683241
               5.44083675                3.99665548                9.00575497                0.00010000                0.34868211                0.10710644               -0.05083655                2.16358657               10.70020658                1.00271056
               6.44388675                3.97916280                9.02950329                0.00010000                0.24317007                0.07178305               -0.06616545                2.17102194               10.70161072                1.85005301
               7.44570015                3.96247030                9.05429456                0.12115831                0.09828481                0.10444623               -0.10549576                1.43412087                7.11861792                2.97391035
               8.44585244                3.93376880                9.00729313                0.39994485                0.07906919                0.12729726               -0.19943115                0.38008937                1.76289447                1.79138801
               9.44728153                3.89906048                8.92517585                0.93495929                0.25485061                0.25472345               -0.84417988                0.01210971                0.00611643                0.57563838
              10.45094946                3.86499626                8.84288989                1.00000000                0.36679241                0.38133934               -1.49306368               -0.04975201                0.00573489               -0.55587925
               0.46548633                5.12311471                9.12526698                1.00000000               -0.24528713               -0.33930129                1.19813782               -0.05273718                0.02953567                0.92559603
               1.46303346                5.09088332                9.03416542                0.76150656               -0.12290465               -0.14602386                0.43234530               -0.01984293                0.07581033               -0.29290675
               2.46302824                5.05787994                8.94386005                0.06683490                0.30831878                0.04961975               -0.33160585                0.53916507                4.85507492               -1.48886568
               3.46919983                5.03509232                8.94847684                0.00010000                0.59818250                0.20018276               -0.08329479                1.48752006               11.06219673               -0.10404318
               4.47499189                5.01598383                8.98308987                0.00010000                0.50266090                0.10355634               -0.03126847                1.82850124               12.54307293                0.44097267
               5.47925305                4.99735200                9.01909949                0.00010000                0.33136157                0.03250601                0.05960181                1.92584943               12.61148975                1.11157000
               6.48161912                4.97955247                9.05686021                0.00010000                0.12600842               -0.00694312                0.17476483                1.96700727               12.74793851                1.92945172
               7.48177322                4.96308633                9.09710299                0.13216720               -0.04799250               -0.01234377                0.30129137                1.25712471                8.04589326                2.86677799
               8.48065927                4.93429684                9.04199721                0.41785080               -0.03123181               -0.00725924                0.15684183                0.29682260                1.63818713                1.57649278
               9.48114858                4.90102275                8.95431073                0.96418172                0.16160452                0.14696300               -0.52132164                0.01196556                0.00885800                0.47331762
              10.48389136                4.86837509                8.86648884                1.00000000                0.27427743                0.30123170               -1.20187187               -0.04676609                0.00941384               -0.63414969
               0.49624184                6.12005674                9.10732616                1.00000000               -0.17325966               -0.27350193                0.98171993               -0.05077368                0.03399824                0.90930411
               1.49450925                6.08980552                9.01016543                0.73203350               -0.04370800               -0.06799021                0.16947327               -0.01544583                0.09233566               -0.30587833
               2.49536768                6.05880846                8.91404930                0.05404953                0.48380154                0.14042560               -0.63871024                0.48683728                6.18424426               -1.49072368
               3.50418528                6.03688261                8.93886588                0.00010000                0.79278869                0.16452343               -0.27717645                1.28862358               13.20312636               -0.05507943
               4.51122346                6.01668234                8.98435682                0.00010000                0.57999078                0.04147004               -0.06780523                1.54597493               14.28821979                0.45799249
               5.51578509                5.99730560                9.03271164                0.00010000                0.31345560               -0.04350505                0.16430170                1.67510554               14.47881540                1.10873790
               6.51749257                5.97902393                9.08391619                0.00010000                0.01565937               -0.10377947                0.42300454                1.74054559               14.69400940                1.87867323
               7.51609828                5.96222343                9.13827926                0.14127918               -0.18200491               -0.15934240                0.70840968                1.06900471                8.93621963                2.73802776
               8.51385247                5.93362361                9.07571794                0.43241330               -0.13278446               -0.12004699                0.48302503                0.21602824                1.55295773                1.52070796
               9.51344259                5.90199974                8.98267041                0.98797602                0.07284953                0.05556092               -0.22438461                0.00826686                0.01867476                0.43822711
              10.51530946                5.87102090                8.88932469                1.00000000                0.18668701                0.23298127               -0.93397348               -0.04466254                0.00943857               -0.66115360
               0.52497330                7.11764467                9.08916418                1.00000000               -0.10004736               -0.20999149                0.76221068               -0.04894108                0.03719454                0.88533238
               1.52397282                7.08952352                8.98593524                0.69980726                0.03572994                0.01366741               -0.09798340               -0.01096882                0.11122597               -0.33095114
               2.52568790                7.06068845                8.88407998                0.04014812                0.65627993                0.24132039               -0.95339099                0.36449051                7.49315898               -1.50651328
               3.53709842                7.03838279                8.92864700                0.00010000                0.99002460                0.13170172               -0.49618575                0.97532807               15.32026606               -0.17673677
               4.54548839                7.01681323                8.98508654                0.00010000                0.66575741               -0.02373366               -0.12398502                1.21752193               16.01225737                0.38394838
               5.55041357                6.99648190                9.04548293                0.00010000                0.30119070               -0.12365830                0.25804661                1.39391362               16.30388377                0.99864439
               6.55151220                6.97747688                9.10977799                0.00010000               -0.09299674               -0.20112024                0.66767576                1.47163468               16.60580916                1.72686452
               7.54855363                6.95989948                9.17807253                0.14864982               -0.31543392               -0.30127924                1.11442322                0.86516403                9.86565662                2.59722905
               8.54520352                6.93189590                9.10911824                0.44394770               -0.23185006               -0.22339928                0.79842256                0.14521926                1.52045037                1.50024643
               9.54391663                6.90213397                9.01079141                1.00000000               -0.01238686               -0.02566178                0.05352427                0.00350930                0.02940162                0.44036250
              10.54495579                6.87303471                8.91195069                1.00000000                0.10391523                0.17337204               -0.68739534               -0.04538013                0.00714231               -0.64977482
               0.55150533                8.11585691                9.07065635                1.00000000               -0.02592365               -0.14989171                0.53966736               -0.04631869                0.04356550                0.85292491
               1.55124609                8.09007887                8.96136249                0.66418755                0.11464454                0.10013017               -0.36912810               -0.00569894                0.13825649               -0.37711720
               2.55379822                8.06363487                8.85387870                0.02516007                0.81604846                0.35235762               -1.27607452                0.15864182                8.71921973               -1.50111485
               3.56756706                8.03951664                8.91639419                0.00010000                1.18382861                0.07380476               -0.71540416                0.53368427               17.37739225               -0.32638035
               4.57747479                8.01620767                8.98435064                0.00010000                0.77163260               -0.11824154               -0.18932505                0.84838969               17.73679422                0.25386259
               5.58299971                7.99483244                9.05630416                0.00010000                0.30164470               -0.20182045                0.33819292                1.06960856               18.07818637                0.77553825
               6.58350768                7.97500153                9.13331626                0.00010000               -0.20085817               -0.28112375                0.90097353                1.14466049               18.52222082                1.40531531
               7.57898255                7.95619784                9.21617265                0.15446533               -0.44926606               -0.43456560                1.52570585                0.63813820               10.89808568                2.32621628
               8.57452236                7.92915563                9.14238373                0.45226228               -0.33042948               -0.32526867                1.11466052                0.08482287                1.57256451                1.44657971
               9.57237396                7.90148650                9.03903425                1.00000000               -0.09609962               -0.10588328                0.32693426                0.00144509                0.05064565                0.46510783
              10.57260037                7.87448834                8.93475263                1.00000000                0.02264118                0.11769570               -0.44792510               -0.04682605                0.00622025               -0.62509001
               0.57560301                9.11464684                9.05172154                1.00000000                0.04778805               -0.09406656                0.31654219               -0.04353372                0.03644661                0.69772118
               1.57608089                9.09152612                8.93616892                0.62523754                0.19099759                0.18998564               -0.64048175               -0.00080632                0.21105205               -0.37807193
               2.57942296                9.06773560                8.82405359                0.00953283                0.95592080                0.46017291               -1.59129805               -0.15880507                9.91998387               -1.19315908
               3.59519930                9.03985889                8.90291056                0.00010000                1.38587124               -0.08605980               -0.90583617                0.09263955               19.33557297               -0.28129700
               4.60714038                9.01444840                8.98186756                0.00010000                0.89062877               -0.18851883               -0.25182754                0.44168940               19.35802120                0.12515671
               5.61301188                8.99244549                9.06392104                0.00010000                0.29498091               -0.26077698                0.40050148                0.64895949               19.70744338                0.43626820
               6.61304000                8.97185441                9.15224604                0.00010000               -0.29247896               -0.34399379                1.10070731                0.68331219               20.40116718                0.81620522
               7.60716230                8.95120817                9.25039357                0.15955374               -0.57143402               -0.54286854                1.91828206                0.37523816               12.10676478                1.55276414
               8.60161132                8.92539052                9.17473034                0.45813817               -0.42747394               -0.42207167                1.42474147                0.03045566                1.82957130                1.06536787
               9.59861282                8.90001630                9.06758488                1.00000000               -0.17978657               -0.19087676                0.60925828                0.00151283                0.12296856                0.42841274
              10.59801559                8.87538863                8.95774718                1.00000000               -0.05972312                0.05840669               -0.19902381               -0.04663595               -0.01029703               -0.52542345
               0.59687608               10.11397558                9.02996162                1.00000000                0.12651152               -0.06712564                0.08055772                0.11760746                0.38383970                0.56471226
               1.59814120               10.09387858                8.91159522                0.80016735                0.27066334                0.23524596               -0.89751230                0.14916805                0.73347783               -0.35148000
               2.60228935               10.07283832                8.80020419                0.50003484                1.22829285                0.51027217               -1.83704992               -0.51751800               11.18577755               -0.91106085
               3.62270705               10.03779544                8.89115843                0.43408810                1.57163140               -0.20634445               -1.04620993               -0.26927672               20.87468059               -0.14420192
               4.63372198               10.01243729                8.97775022                0.43066753                0.79329188               -0.20111071               -0.30377930                0.24923180               20.65936119                0.08566853
               5.63857289                9.98961690                9.06712025                0.45341023                0.23446378               -0.28285929                0.44004849                0.34031919               21.03415963                0.25788806
               6.63841125                9.96812165                9.16336064                0.49961971               -0.28108474               -0.37327553                1.23964164                0.32330374               21.93591965                0.47005070
               7.63295120                9.94534047                9.27284224                0.58163972               -0.60439580               -0.58676914                2.18576246                0.20851656               13.38505017                0.98128887
               8.62632334                9.92071419                9.20036742                0.73103302               -0.52725442               -0.46763296                1.68949165                0.08762600                2.62164709                0.73235748
               9.62240611                9.89766897                9.09506692                1.00000000               -0.27001664               -0.23473375                0.89421747                0.12644261                0.61601512                0.37568177
              10.62092300                9.87565647                8.98247744                1.00000000               -0.14831052                0.02678444                0.07082862                0.08949179                0.25152340               -0.43739091
               0.34723372                0.17685084               10.23747591                1.00000000               -0.55853111               -0.63544973                2.20845818               -0.13578042               -0.62197211                0.67957244
               1.34164841                0.12917647               10.16532843                1.00000000               -0.44672111               -0.46085753                1.63824402               -0.09481664               -0.61797648               -0.03334774
               2.33829929                0.08141891               10.09318611                0.71095587               -0.09318200               -0.31680642                1.06198218                0.08059691               -0.32382000               -0.62974083
               3.33978477                0.03764904               10.02700602                0.51942581                0.50404854               -0.18645404                0.49745115                0.36756449                1.24385665               -0.08342307
               4.34838026                0.00621094                9.98655486                0.44637754                0.86956215               -0.14844177                0.02763945                0.33902190                3.79832874               -0.07211283
               5.35717601               -0.01179791                9.97223687                0.45328642                0.49164168               -0.07041137               -0.33912551                0.15839928                4.92832375               -0.00716470
               6.35821310               -0.03001772                9.95522311                0.53190819               -0.04295557                0.10606972               -0.69524831                0.25112900                3.52727510                0.05020702
               7.35631690               -0.06024426                9.91323937                0.69325091               -0.03407943                0.29020949               -1.12950325                0.25118904                1.28297210                0.08566083
               8.35753151               -0.10108514                9.85133546                0.96951781                0.31325119                0.46325365               -1.63496224                0.08851701               -0.09240966                0.31357199
               9.36258192               -0.14593267                9.78176486                1.00000000                0.60988440                0.61519498               -2.17427041               -0.07561131               -0.46114028                0.17329053
              10.36972920               -0.19084501                9.71241293                1.00000000                0.71472772                0.76703758               -2.70831707               -0.13389179               -0.44645361               -0.43854273
               0.39355028                1.17049634               10.21463515                1.00000000               -0.51340781               -0.60190455                1.99091596               -0.05063002               -0.03033931                0.89068805
               1.38841620                1.12456790               10.14185975                1.00000000               -0.43406493               -0.42497143                1.41936693               -0.01573415                0.03313888               -0.06377129
               2.38486898                1.07825085               10.07026744                0.27400578               -0.36759030               -0.27687339                0.85116124                0.19257766                0.96095316               -0.96684175
               3.38106440                1.03578450               10.01611125                0.00010000               -0.41875112               -0.16632959                0.36826600                0.79565640                2.83859795               -1.16667340
               4.37649396                1.00472653                9.98242011                0.00010000               -0.20950325                0.32207315               -0.03334744                1.69169637                5.15332227                0.28870744
               5.37687433                0.98749797                9.97533411                0.00010000                0.42268018                0.08912451               -0.31154650                2.04310237                6.27623040                0.19253104
               6.38494756                0.97104298                9.96521213                0.01014655                0.87440830               -0.08186213               -0.58303412                1.66390867                4.81113407                0.14115219
               7.39436250                0.94265783                9.92967053                0.24378586                0.81566602                0.32024673               -0.95139892                0.91773806                2.62023129                1.13910225
               8.40126088                0.90354740                9.87603333                0.66698672                0.61716234                0.43739026               -1.39836001                0.29048821                1.14804863                0.86303322
               9.40670574                0.86021928                9.81104333                1.00000000                0.60208697                0.57285490               -1.89867928                0.02557848                0.36145628                0.43612380
              10.41330262                0.81682537                9.74157289                1.00000000                0.65968784                0.71608628               -2.43269923               -0.05085548                0.14209617               -0.46904774
               0.43807801                2.16481275               10.19587204                1.00000000               -0.44987924               -0.53807728                1.79800708               -0.05140460                0.09493254                1.08366204
               1.43357922                2.12067704               10.11774626                0.84784474               -0.35718795               -0.35876422                1.19719203               -0.01758567                0.15178406               -0.20278393
               2.43093425                2.07588145               10.04065824                0.11032539               -0.21784985               -0.19804059                0.61176002                0.19822376                1.20249201               -1.50696218
               3.42922222                2.03432245                9.98360979                0.00010000               -0.02167666                0.15659214                0.12393510                1.58608142                5.13277368               -1.21731834
               4.43050072                2.01265241                9.98532265                0.00010000                0.12496911                0.55038885               -0.02788597                2.87285639                7.74520202                0.33227858
               5.43172160                1.98998458                9.98208924                0.00010000                0.29153478                0.24296263               -0.24367526                3.00451525                7.33805899                0.55048375
               6.43633141                1.96834504                9.97677398                0.00010000                0.52228189               -0.08475709               -0.46477321                2.77226595                6.96501762                0.84666976
               7.44216724                1.94616067                9.96702188                0.09734691                0.47242068                0.18531565               -0.65793975                1.62302997                4.41743482                2.26033809
               8.44577983                1.90766267                9.91161946                0.37407942                0.38241425                0.40537573               -1.08862869                0.37152233                1.59909646                2.18170418
               9.44981552                1.86552443                9.84546669                0.92442642                0.48600480                0.49113611               -1.59309063                0.04851197                0.60260854                0.81162873
              10.45549992                1.82347672                9.77000268                1.00000000                0.56843973                0.61240457               -2.15713140               -0.04231807                0.14256746               -0.43857492
               0.48079360                3.15973480               10.17679116                1.00000000               -0.37978077               -0.47488962                1.59668936               -0.05423153                0.03763771                1.03714258
               1.47699579                3.11739261               10.09146967                0.79864524               -0.28027718               -0.29218136                0.94634603               -0.02245113                0.08455697               -0.32018214
               2.47518806                3.07429004               10.00697739                0.08545464               -0.04903630               -0.11566875                0.30441934                0.41146214                2.59183863               -1.69730262
               3.47601507                3.03891634                9.97188552                0.00010000                0.15504496                0.41139481                0.12013359                1.66265635                7.30337733               -0.17339816
               4.47828896                3.01573430                9.98224504                0.00010000                0.26284680                0.26417083               -0.03205352                2.37487734                9.48615758                0.17634187
               5.48127200                2.99235723                9.99234000                0.00010000                0.29639151                0.19605884               -0.15729706                2.47807313                9.32279611                0.85591632
               6.48421679                2.96934784               10.00080810                0.00010000                0.31167335                0.10632505               -0.28793992                2.38590836                9.00764463                1.66819691
               7.48750547                2.94636415               10.00573706                0.10474589                0.25553933                0.08780392               -0.47462738                1.57205816                6.38196446                2.74858174
               8.48932757                2.91165491                9.96256793                0.37117674                0.21782335                0.31274100               -0.64898415                0.45949535                2.09445430                2.54813633
               9.49186194                2.87004200                9.88207500                0.88394421                0.36120593                0.39517097               -1.23873658                0.01958004                0.13114774                0.82921820
              10.49655169                2.82907346                9.79955046                1.00000000                0.46897549                0.50642209               -1.85538525               -0.04534647                0.03541464               -0.43464354
               0.52167775                4.15531496               10.15704543                1.00000000               -0.31027944               -0.40700387                1.38478051               -0.05311751                0.02360357                0.99483042
               1.51857495                4.11483342               10.06497111                0.77544568               -0.20189904               -0.21840911                0.68912655               -0.02213314                0.06042249               -0.32842435
               2.51763977                4.07356807                9.97352279                0.07537851                0.12280649               -0.02992111               -0.00416141                0.53811563                3.98263612               -1.65130326
               3.52103108                4.04255034                9.95999461                0.00010000                0.34588051                0.29882978                0.04276805                1.61266743                9.61263888               -0.19658131
               4.52455738                4.01793582                9.98199260                0.00010000                0.33192225                0.18855225               -0.02336071                2.09210241               11.36472652                0.37689669
               5.52766953                3.99390575               10.00521434                0.00010000                0.27426407                0.12137688               -0.05537327                2.16873068               11.35846973                1.07254398
               6.53004266                3.97047154               10.02873009                0.00010000                0.18158994                0.08413413               -0.08278045                2.17234881               11.34179746                1.95911792
               7.53130133                3.94791675               10.05302975                0.11730220                0.06246080                0.11904853               -0.13642240                1.45303298                7.70894270                3.15900649
               8.53129187                3.91391749               10.00508883                0.39214488                0.07436274                0.14826549               -0.23734442                0.40139391                2.04532898                1.93736809
               9.53278858                3.87342785                9.91650631                0.91718807                0.26191061                0.27872110               -0.88590251                0.01110953                0.00868044                0.64163165
              10.53653009                3.83360516                9.82770772                1.00000000                0.37415050                0.40932830               -1.54008998               -0.04935678                0.00459197               -0.55828100
               0.56069433                5.15159472               10.13709452                1.00000000               -0.23943157               -0.33764634                1.16918508               -0.05147883                0.02716145                0.97777751
               1.55830002                5.11302443               10.03847208                0.74979870               -0.12304430               -0.14242798                0.42885622               -0.01833929                0.07332349               -0.33137109
               2.55823344                5.07369162                9.94066483                0.06433480                0.28003246                0.05545487               -0.30936474                0.55669231                5.34153690               -1.61665778
               3.56390066                5.04489294                9.94751763                0.00010000                0.52710733                0.21083929               -0.10245396                1.48831830               11.93452881               -0.16854371
               4.56877559                5.01950535                9.98273494                0.00010000                0.41051161                0.12472049               -0.03772399                1.81847265               13.34268971                0.45041576
               5.57211090                4.99478476               10.01964662                0.00010000                0.24385862                0.05383322                0.05251455                1.92177170               13.42917838                1.17676967
               6.57365276                4.97103052               10.05849312                0.00010000                0.05046424                0.01267134                0.15689323                1.96323975               13.56740003                2.05430944
               7.57312018                4.94874512               10.09988673                0.12828074               -0.09042062                0.00840948                0.26344279                1.27230707                8.72833745                3.07551809
               8.57184435                4.91462022               10.04341861                0.41023101               -0.03618622                0.00634380                0.12886304                0.31615705                1.91398641                1.67903837
               9.57239646                4.87561643                9.94891477                0.94695453                0.16827942                0.16659385               -0.55674220                0.01154105                0.01034239                0.51017913
              10.57520994                4.83726002                9.85425622                1.00000000                0.28134828                0.32630967               -1.24416644               -0.04645825                0.00944483               -0.66131350
               0.59778875                6.14856203               10.11698074                1.00000000               -0.16774785               -0.26995115                0.95138623               -0.04947352                0.03203450                0.96002779
               1.59611127                6.11198486               10.01184477                0.72117614               -0.04418202               -0.06435663                0.16646746               -0.01388891                0.09121698               -0.34718453
               2.59690511                6.07467717                9.90779077                0.05204058                0.44362235                0.14483515               -0.61490576                0.50493044                6.75168748               -1.62279136
               3.60498372                6.04676713                9.93598184                0.00010000                0.70649462                0.17383280               -0.29136682                1.29095774               14.25476503               -0.15480371
               4.61103500                6.02043023                9.98362242                0.00010000                0.47980349                0.06553668               -0.07477247                1.53486664               15.27484849                0.44297445
               5.61457979                5.99498242               10.03430188                0.00010000                0.21560487               -0.01684250                0.15738705                1.66256083               15.47401855                1.16298433
               6.61534710                5.97072497               10.08805471                0.00010000               -0.07110117               -0.08079425                0.40850634                1.72869142               15.69806371                2.00236519
               7.61315776                5.94808494               10.14519400                0.13765633               -0.23016970               -0.14256688                0.67816020                1.07403741                9.68916999                2.94552405
               8.61074371                5.91404436               10.08046776                0.42523698               -0.13890809               -0.11345652                0.46700067                0.22947314                1.80422283                1.60107709
               9.61037960                5.87675973                9.98029961                0.97134548                0.07850112                0.06842960               -0.25050928                0.00982315                0.02106277                0.45400232
              10.61231373                5.84013135                9.87982006                1.00000000                0.19341249                0.25196157               -0.96907625               -0.04382994                0.01197255               -0.70783473
               0.63285921                7.14619570               10.09661997                1.00000000               -0.09521088               -0.20471997                0.73143855               -0.04737978                0.03528662                0.93366328
               1.63190710                7.11173730                9.98495410                0.68993847                0.03452884                0.01634767               -0.09839433               -0.00907771                0.11063042               -0.37528141
               2.63354978                7.07658832                9.87470541                0.03874200                0.60298288                0.24195943               -0.92419075                0.38652780                8.13365452               -1.64472430
               3.64396676                7.04836959                9.92363105                0.00010000                0.88539246                0.14414232               -0.49898008                0.98920328               16.54840835               -0.28488875
               4.65125763                7.02081608                9.98380522                0.00010000                0.55503104                0.00476944               -0.12643286                1.21188753               17.19529993                0.35606515
               5.65506738                6.99444791               10.04802118                0.00010000                0.19332179               -0.09142151                0.25418166                1.37403028               17.48625695                1.03999886
               6.65512407                6.96941464               10.11639542                0.00010000               -0.18929218               -0.17639426                0.65879940                1.44553113               17.80011771                1.84074152
               7.65128153                6.94589378               10.18911716                0.14559221               -0.36825205               -0.29047740                1.09540917                0.85475197               10.68320595                2.80381587
               8.64775903                6.91235109               10.11705994                0.43748998               -0.23878002               -0.22178962                0.79016888                0.15158956                1.73749236                1.57349557
               9.64650593                6.87698502               10.01126086                0.99095177               -0.00844677               -0.01912141                0.03843236                0.00669793                0.02990175                0.44431399
              10.64759009                6.84229925                9.90498761                1.00000000                0.10841598                0.18496147               -0.70940665               -0.04321485                0.01112054               -0.70681305
               0.66575795                8.14446763               10.07589094                1.00000000               -0.02208568               -0.14347410                0.50981574               -0.04473616                0.04127436                0.89945392
               1.66553710                8.11231181                9.95769829                0.65613253                0.11227107                0.10075000               -0.36457746               -0.00391068                0.13633215               -0.42234045
               2.66800337                8.07951636                9.84133445                0.02464315                0.75014637                0.34712975               -1.23694430                0.19042410                9.43598480               -1.63699852
               3.68054002                8.04964997                9.90928802                0.00010000                1.05955283                0.09255615               -0.70079646                0.56991263               18.78415984               -0.41568520
               4.68919443                8.02052562                9.98245914                0.00010000                0.64609081               -0.08101115               -0.18299150                0.85220593               19.11270745                0.22679716
               5.69346184                7.99315399               10.05966609                0.00010000                0.18087127               -0.16149653                0.33942485                1.04572370               19.44944291                0.80340229
               6.69281186                7.96719708               10.14229003                0.00010000               -0.30727462               -0.25084367                0.89682874                1.10137778               19.91644774                1.49614987
               7.68731635                7.94227539               10.23136165                0.15241652               -0.50637992               -0.42556365                1.51242890                0.60751326               11.78508590                2.52175150
               8.68268426                7.90960857               10.15349402                0.44729566               -0.33754732               -0.32538207                1.10853270                0.08360040                1.75055954                1.51466757
               9.68056540                7.87637730               10.04225878                1.00000000               -0.09316496               -0.10275371                0.31703346                0.00346938                0.04528175                0.47011305
              10.68082096                7.84383058                9.93023798                1.00000000                0.02555579                0.12336965               -0.45922768               -0.04521470                0.00949654               -0.68047208
               0.69627613                9.14332622               10.05473520                1.00000000                0.05040333               -0.08683878                0.28861377               -0.04229454                0.03324458                0.73730799
               1.69678016                9.11375230                9.92982815                0.62051683                0.18719892                0.18783894               -0.62970966                0.00014829                0.21140579               -0.41557786
               2.70002010                9.08353091                9.80843302                0.01030329                0.87877936                0.44862104               -1.53939999               -0.10862942               10.72612069               -1.28930378
               3.71435575                9.05022071                9.89399972                0.00010000                1.23888168               -0.04815666               -0.87482385                0.14072440               20.91967352               -0.32817359
               4.72479774                9.01919586                9.97940606                0.00010000                0.74773216               -0.14423204               -0.23538304                0.45223391               20.91062447                0.10974802
               5.72931039                8.99121798               10.06793676                0.00010000                0.16162410               -0.21462244                0.40797644                0.62949095               21.25771981                0.45067757
               6.72803022                8.96439776               10.16323665                0.00010000               -0.41450396               -0.30036268                1.10073289                0.63935805               21.99821169                0.86504624
               7.72102031                8.93738251               10.26949946                0.15898123               -0.63505446               -0.52805766                1.90377491                0.33265906               13.07533115                1.67627529
               8.71532913                8.90584345               10.18891944                0.45585831               -0.43334991               -0.42118604                1.41639087                0.02261433                1.98272533                1.10736298
               9.71235331                8.87492994               10.07365193                1.00000000               -0.17749475               -0.18919955                0.60195761                0.00168308                0.11769129                0.43984885
              10.71177924                8.84476665                9.95573451                1.00000000               -0.05740765                0.06149167               -0.20685023               -0.04735863               -0.01179892               -0.56541844
               0.72405990               10.14273086               10.03063662                1.00000000                0.12754671               -0.05953598                0.05633630                0.11215035                0.40327361                0.59717899
               1.72533536               10.11606859                9.90271520                0.79911013                0.26512374                0.23162911               -0.88160973                0.14341646                0.77301167               -0.38062635
               2.72936237               10.08848878                9.78216457                0.50083155                1.11771025                0.49578641               -1.77904324               -0.43486089               12.09496579               -0.97018808
               3.74768957               10.04868684                9.88089541                0.43488898                1.39397347               -0.15338736               -1.00649064               -0.20900781               22.61571273               -0.16476068
               4.75724184               10.01764098                9.97481319                0.43100438                0.65800930               -0.15548776               -0.27954764                0.25314511               22.36648282                0.08116376
               5.76084975                9.98886154               10.07157291                0.45351897                0.10963266               -0.23564435                0.45494132                0.33137884               22.74543028                0.27038238
               6.75943449                9.96118983               10.17578075                0.49974621               -0.41629577               -0.32079329                1.24653164                0.28306233               23.70833193                0.50439099
               7.75252384                9.93171424               10.29465229                0.58187195               -0.69226936               -0.56682664                2.17619012                0.15010383               14.45373928                1.04966041
               8.74558911                9.90118485               10.21722557                0.73093044               -0.54239860               -0.46586011                1.68472988                0.06995089                2.80973131                0.75180260
               9.74167587                9.87259331               10.10399921                1.00000000               -0.26943638               -0.23366366                0.89135391                0.12603352                0.64095272                0.38930451
              10.74020038                9.84506041                9.98318988                1.00000000               -0.14754877                0.02937660                0.06714966                0.08882486                0.26369751               -0.46445006
               0.41576569                0.20781209               11.25943241                1.00000000               -0.55507603               -0.62878704                2.18477393               -0.13183923               -0.66975132                0.72648313
               1.41021493                0.15341064               11.18168520                1.00000000               -0.44701357               -0.45891407                1.63274024               -0.09100180               -0.66947414               -0.03255679
               2.40682542                0.09891163               11.10388013                0.71049127               -0.10412669               -0.31847650                1.07441987                0.08176057               -0.37325936               -0.66608151
               3.40813240                0.04833205               11.03213569                0.51982348                0.47289935               -0.18804770                0.52492542                0.35938969                1.24009073               -0.08794712
               4.41628341                0.00990904               10.98696902                0.44667897                0.82332501               -0.13774327                0.05296562                0.33048341                3.87411938               -0.07605853
               5.42459890               -0.01511057               10.96887627                0.45330872                0.45800412               -0.05181207               -0.33327665                0.15387643                5.04779974               -0.00821732
               6.42544349               -0.04005750               10.94822310                0.53155833               -0.05165663                0.11955638               -0.70485637                0.24611483                3.61624895                0.05168602
               7.42356577               -0.07668622               10.90187414                0.69231711               -0.03026061                0.29814439               -1.14457828                0.24727171                1.30554882                0.08977133
               8.42483828               -0.12375262               10.83491301                0.96728312                0.31850727                0.46871302               -1.65141245                0.08714207               -0.11734867                0.32887737
               9.42993591               -0.17478832               10.75994668                1.00000000                0.61465630                0.62119689               -2.19166446               -0.07518767               -0.49795259                0.18568774
              10.43713141               -0.22589728               10.68526072                1.00000000                0.71954930                0.77355117               -2.72459193               -0.13367772               -0.47842469               -0.46805909
               0.46884874                1.20152422               11.23441976                1.00000000               -0.50936016               -0.59623102                1.96802435               -0.04883034               -0.03512770                0.94863275
               1.46375514                1.14882150               11.15603235                1.00000000               -0.43332102               -0.42324616                1.41490231               -0.01352359                0.02936706               -0.06455808
               2.46018232                1.09572687               11.07885859                0.27260957               -0.37637747               -0.27837793                0.86459477                0.19370180                1.00131209               -1.01538575
               3.45622759                1.04645158               11.01995060                0.00010000               -0.44363842               -0.17006812                0.39612496                0.79641668                2.96043600               -1.22604790
               4.45130955                1.00853161               10.98221087                0.00010000               -0.25533297                0.32044404               -0.01048061                1.66972279                5.37620327                0.31906241
               5.45112093                0.98437131               10.97221881                0.00010000                0.36914544                0.09826853               -0.31122216                2.02084898                6.56147904                0.21680997
               6.45869246                0.96113807               10.95929758                0.00949917                0.83825553               -0.07215151               -0.59916378                1.64883919                5.04406304                0.15173958
               7.46788604                0.92629523               10.92005440                0.24206348                0.80341446                0.32670715               -0.97188189                0.90273699                2.75827389                1.20371281
               8.47476075                0.88093451               10.86196009                0.66229456                0.61851623                0.44287016               -1.41734927                0.28719270                1.21644831                0.91643057
               9.48025637                0.83142365               10.79196807                1.00000000                0.60714180                0.57988318               -1.91714729                0.02604925                0.38552066                0.46308536
              10.48690359                0.78183823               10.71715267                1.00000000                0.66472205                0.72457347               -2.45210090               -0.05061700                0.14961811               -0.49859024
               0.52019451                2.19588747               11.21372804                1.00000000               -0.44527023               -0.53431917                1.77500890               -0.04941322                0.10386485                1.14878677
               1.51574181                2.14494572               11.12969932                0.83697681               -0.35625633               -0.35693893                1.19319257               -0.01510564                0.16810966               -0.21973704
               2.51306938                2.09334407               11.04686900                0.10850382               -0.22429081               -0.19754359                0.62817299                0.19774435                1.27443225               -1.60298640
               3.51125599                2.04493069               10.98501422                0.00010000               -0.06556268                0.15725454                0.15361227                1.56862739                5.41135800               -1.21637574
               4.51175813                2.01631792               10.98511875                0.00010000                0.05767139                0.54316289               -0.01362589                2.83785726                8.15560156                0.38052588
               5.51240942                1.98685480               10.97966795                0.00010000                0.23691132                0.24158934               -0.24023413                2.97431906                7.71472587                0.60329665
               6.51649636                1.95849947               10.97208653                0.00010000                0.47073192               -0.08067136               -0.47151133                2.75350016                7.34553943                0.89580656
               7.52182406                1.92984793               10.96034473                0.09557321                0.44786778                0.18329670               -0.67698691                1.61477653                4.68505876                2.32915290
               8.52545371                1.88510479               10.90064249                0.36918616                0.38645610                0.41548668               -1.10623279                0.36997277                1.71257535                2.33325656
               9.52955318                1.83680934               10.82941290                0.90984874                0.49180938                0.50246925               -1.61606852                0.05036580                0.64828900                0.87489903
              10.53528990                1.78859419               10.74829743                1.00000000                0.57367198                0.62560805               -2.18248910               -0.04092766                0.15916941               -0.45712682
               0.56974397                3.19083783               11.19263259                1.00000000               -0.37475484               -0.47257242                1.57322934               -0.05251026                0.03890559                1.09269605
               1.56599642                3.14168272               11.10091172                0.78682532               -0.27958646               -0.28953084                0.94165332               -0.02006125                0.08954508               -0.35419436
               2.56415224                3.09177600               11.01011001                0.08333252               -0.06850638               -0.11207573                0.31952664                0.41335792                2.82143218               -1.82733830
               3.56462629                3.04959667               10.97308993                0.00010000                0.09951748                0.41922608                0.12485018                1.63423072                7.76776127               -0.10413459
               4.56614259                3.01939487               10.98196023                0.00010000                0.18997351                0.26706642               -0.02447680                2.34181042                9.98452116                0.22165868
               5.56842576                2.98920310               10.99077078                0.00010000                0.23133758                0.19724713               -0.15549435                2.44944994                9.82667892                0.92001065
               6.57076934                2.95952464               10.99788457                0.00010000                0.25752483                0.10803332               -0.29432105                2.35844957                9.47895348                1.75521974
               7.57357626                2.92996116               11.00096484                0.10212761                0.22147257                0.08264180               -0.47780017                1.57079099                6.82171047                2.83476395
               8.57519879                2.88924425               10.95592457                0.36503018                0.20990117                0.32803461               -0.67502413                0.46703157                2.32648533                2.74033399
               9.57777428                2.84147303               10.86952339                0.86787186                0.36582762                0.41220002               -1.26787161                0.01946048                0.14732738                0.91188162
              10.58251534                2.79435039               10.78081364                1.00000000                0.47410616                0.52653480               -1.88887200               -0.04483580                0.03671357               -0.43554605
               0.61745452                4.18643602               11.17076329                1.00000000               -0.30521010               -0.40514403                1.36042923               -0.05156735                0.02256389                1.04388599
               1.61440242                4.13915510               11.07184344                0.76318981               -0.20159603               -0.21502424                0.68492341               -0.02001279                0.06005165               -0.36658221
               2.61342260                4.09110256               10.97357895                0.07306455                0.09596586               -0.02485956                0.01282834                0.54106452                4.34077479               -1.77981417
               3.61632174                4.05331521               10.96035072                0.00010000                0.27826547                0.30687783                0.03392534                1.58753469               10.27108989               -0.20119112
               4.61898791                4.02165925               10.98175306                0.00010000                0.24734543                0.19837295               -0.02259123                2.05293149               11.99122146                0.41152992
               5.62126865                3.99079974               11.00464750                0.00010000                0.19596871                0.12983794               -0.05620405                2.13267844               11.99799808                1.14174400
               6.62290728                3.96066014               11.02784768                0.00010000                0.11258121                0.08947023               -0.09050097                2.13293447               11.96511734                2.07074488
               7.62352027                3.93150076               11.05156612                0.11413385                0.01875946                0.12356385               -0.15092669                1.44217762                8.28863292                3.33856949
               8.62328247                3.89166548               11.00254624                0.38507703                0.06579883                0.16272085               -0.26702625                0.41323701                2.32423271                2.08916229
               9.62483625                3.84505334               10.90745780                0.89956614                0.26779975                0.29799975               -0.92018545                0.01014715                0.01221879                0.70903375
              10.62863847                3.79912488               10.81208809                1.00000000                0.38022214                0.43430459               -1.58078294               -0.04874562                0.00375607               -0.56271368
               0.66327445                5.18273495               11.14865068                1.00000000               -0.23448260               -0.33520848                1.14388310               -0.05027396                0.02530418                1.02464600
               1.66092962                5.13738224               11.04274255                0.73794926               -0.12305133               -0.13876497                0.42500924               -0.01675073                0.07182936               -0.37193415
               2.66081342                5.09127880               10.93767276                0.06221515                0.24453371                0.06047465               -0.29125940                0.55968719                5.80063360               -1.74425329
               3.66582030                5.05573422               10.94642776                0.00010000                0.44516331                0.21789493               -0.11015344                1.46053564               12.77915472               -0.22903955
               4.66971669                5.02336232               10.98233539                0.00010000                0.31290732                0.14061533               -0.03922009                1.77390554               14.13275839                0.45809059
               5.67207844                4.99179986               11.02014978                0.00010000                0.15051618                0.06954954                0.05050617                1.87581209               14.23160289                1.24202941
               6.67272701                4.96131404               11.05999807                0.00010000               -0.03319853                0.02543979                0.14730439                1.91435085               14.36938153                2.18243678
               7.67141447                4.93243244               11.10237185                0.12498064               -0.14080295                0.02013565                0.23867206                1.25664884                9.40810582                3.28683483
               8.66991095                4.89249866               11.04457447                0.40302611               -0.04483254                0.01691758                0.10473004                0.32747170                2.19507695                1.79237727
               9.67051782                4.84743303               10.94317589                0.92912388                0.17431991                0.18401760               -0.58885049                0.01065628                0.01165447                0.55359140
              10.67339735                4.80303648               10.84160551                1.00000000                0.28795293                0.35039655               -1.28465505               -0.04617670                0.00926803               -0.68497253
               0.70715447                6.17973185               11.12635388                1.00000000               -0.16309130               -0.26636082                0.92533098               -0.04838830                0.03017341                1.00514747
               1.70552355                6.13637980               11.01349478                0.71014312               -0.04450525               -0.06089356                0.16339935               -0.01247099                0.09029388               -0.38963307
               2.70626436                6.09231205               10.90175119                0.05033828                0.39626891                0.14857391               -0.59520881                0.50819621                7.29291958               -1.75214749
               3.71344893                6.05767311               10.93303854                0.00010000                0.60680143                0.18223095               -0.29217266                1.26529939               15.27780703               -0.24613131
               4.71840039                6.02447156               10.98286137                0.00010000                0.36921193                0.08677434               -0.07378942                1.49025980               16.25024503                0.42988594
               5.72083317                5.99219073               11.03585938                0.00010000                0.10806646                0.00589053                0.15687720                1.60837204               16.45682307                1.21854782
               6.72056172                5.96116893               11.09208632                0.00010000               -0.16822713               -0.06288256                0.40041111                1.67021497               16.68887241                2.13048262
               7.71746863                5.93190348               11.15184247                0.13454523               -0.28652001               -0.13121479                0.65441489                1.04868306               10.44608021                3.16202495
               8.71483132                5.89200383               11.08505795                0.41835798               -0.14785361               -0.10795577                0.45211410                0.23644697                2.06446266                1.69052857
               9.71451155                5.84873369               10.97766023                0.95393592                0.08383532                0.08140264               -0.27633618                0.00990781                0.02200373                0.47716311
              10.71650802                5.80613281               10.86994317                1.00000000                0.19964702                0.27220243               -1.00538443               -0.04372078                0.01194192               -0.74771476
               0.74901077                7.17740773               11.10379295                1.00000000               -0.09107712               -0.20005417                0.70538724               -0.04625458                0.03336381                0.97687838
               1.74810000                7.13616437               10.98396736                0.68005910                0.03366353                0.01891035               -0.09932646               -0.00758925                0.10997069               -0.41894065
               2.74968404                7.09425028               10.86559617                0.03762287                0.54333916                0.24276146               -0.90046318                0.39391504                8.74962701               -1.77615839
               3.75896678                7.05937884               10.91866740                0.00010000                0.76601106                0.15805770               -0.48973907                0.97620838               17.74592944               -0.38068598
               4.76500426                7.02509781               10.98255788                0.00010000                0.42908623                0.03356071               -0.11936045                1.17446509               18.36310968                0.33339984
               5.76754850                6.99191767               11.05056656                0.00010000                0.07071547               -0.06029202                0.25780554                1.31415436               18.65712672                1.08357969
               6.76641857                6.96005639               11.12295398                0.00010000               -0.29976339               -0.15428186                0.65498385                1.37349153               18.98551289                1.95792271
               7.76155324                6.92980814               11.19998071                0.14297135               -0.43044485               -0.28264505                1.07849947                0.81474028               11.50740887                3.01698629
               8.75780967                6.89033955               11.12492162                0.43134774               -0.24831220               -0.22071782                0.78341136                0.15290235                1.96435634                1.64982432
               9.75658699                6.84906108               11.01156006                0.97446902               -0.00424889               -0.01179987                0.02129299                0.00825332                0.03007904                0.45374744
              10.75772469                6.80848053               10.89776256                1.00000000                0.11377016                0.19995915               -0.73834464               -0.04186073                0.01356630               -0.75634157
               0.78871611                8.17573076               11.08085266                1.00000000               -0.01868872               -0.13802092                0.48471754               -0.04371394                0.03921819                0.94162969
               1.78852922                8.13675801               10.95407094                0.64806865                0.11060402                0.10166412               -0.36187597               -0.00261488                0.13499966               -0.46542143
               2.79092819                8.09716728               10.82913981                0.02434092                0.67981751                0.34345634               -1.20603766                0.20830093               10.13013271               -1.76271724
               3.80212557                8.06083426               10.90237826                0.00010000                0.92113402                0.11545906               -0.67945792                0.58142244               20.15638830               -0.49146211
               4.80935087                8.02514277               10.98069081                0.00010000                0.50160528               -0.04042506               -0.16772799                0.82810999               20.46689238                0.20629825
               5.81215767                7.99098489               11.06309266                0.00010000                0.03951024               -0.11827222                0.34869370                0.98638539               20.80722141                0.83336454
               6.81014107                7.95808330               11.15125284                0.00010000               -0.43386999               -0.21958881                0.89769308                1.01443254               21.30237670                1.58782273
               7.80348028                7.92625057               11.24642123                0.15062563               -0.57523226               -0.41825516                1.50037229                0.54695361               12.67812072                2.71650292
               8.79863643                7.88758947               11.16455439                0.44251861               -0.34723188               -0.32666569                1.10578993                0.07754078                1.93793127                1.58006122
               9.79653564                7.84849770               11.04537492                0.99133414               -0.09022594               -0.09941122                0.30745996                0.00535537                0.04207387                0.47587036
              10.79683191                7.81013200               10.92556807                1.00000000                0.02962703                0.13239115               -0.47917723               -0.04208253                0.01481696               -0.73207787
               0.82608199                9.17464732               11.05749382                1.00000000                0.05291873               -0.08072201                0.26511386               -0.04155293                0.03041730                0.77367475
               1.82661118                9.13819765               10.92357472                0.61517780                0.18459046                0.18669686               -0.62282811                0.00081764                0.21341241               -0.45097250
               2.82977380                9.10111941               10.79326559                0.01105423                0.80042792                0.44020938               -1.49990661               -0.07146778               11.51013597               -1.37712259
               3.84261974                9.06168802               10.88541409                0.00010000                1.08210136               -0.00627059               -0.84298546                0.17085110               22.46466416               -0.36575886
               4.85141583                9.02428931               10.97715990                0.00010000                0.58579726               -0.09482315               -0.21201388                0.44437330               22.43598008                0.09889223
               5.85433569                8.98955222               11.07208057                0.00010000                0.00128542               -0.16163180                0.42315324                0.58657831               22.79152066                0.46608141
               6.85144154                8.95566462               11.17426070                0.00010000               -0.56747765               -0.24810133                1.10587189                0.56241291               23.58375569                0.91325194
               7.84298613                8.92144304               11.28846907                0.15828567               -0.71640870               -0.51112705                1.89182788                0.26212527               14.04742619                1.79692937
               8.83711337                8.88380624               11.20305816                0.45315849               -0.44172778               -0.42257447                1.41524203                0.00822159                2.14475991                1.14544801
               9.83415158                8.84707286               11.07962403                1.00000000               -0.17494610               -0.18686009                0.59427253                0.00236654                0.11518481                0.45005504
              10.83361444                8.81112835               10.95361017                1.00000000               -0.05371334                0.06623646               -0.22199617               -0.04526553               -0.01014159               -0.60376951
               0.86078438               10.17411632               11.03108835                1.00000000                0.12890997               -0.05309928                0.03560368                0.10780093                0.42094442                0.62728357
               1.86207348               10.14049195               10.89396303                0.79739864                0.26120396                0.22942977               -0.87141323                0.13898698                0.81172499               -0.40834634
               2.86600846               10.10597147               10.76462332                0.50152180                1.01496060                0.48520595               -1.73596576               -0.36568930               12.98029449               -1.02445362
               3.88237269               10.06070885               10.87102861                0.43572924                1.21828385               -0.09791706               -0.96863064               -0.16096305               24.31807573               -0.18139838
               4.89037414               10.02324631               10.97215927                0.43132357                0.50706222               -0.10430029               -0.25030489                0.24800067               24.04616861                0.07840394
               5.89251394                9.98775226               11.07621908                0.45354764               -0.04378116               -0.17999637                0.47567442                0.31157314               24.43999988                0.28252713
               6.88949851                9.95312127               11.18829128                0.49974434               -0.59663867               -0.25433454                1.25628321                0.21948605               25.46773934                0.53659839
               7.88058116                9.91602803               11.31636604                0.58187703               -0.81637352               -0.54150059                2.16691735                0.06033862               15.52466834                1.11727422
               8.87317104                9.87913798               11.23406202                0.73030212               -0.56601563               -0.46682503                1.68758132                0.04239072                3.00580805                0.76844615
               9.86926085                9.84476050               11.11289400                1.00000000               -0.26777204               -0.23123607                0.88459502                0.12686432                0.66536282                0.40266680
              10.86781560                9.81145673               10.98382044                1.00000000               -0.14452481                0.03283723                0.05559718                0.08973887                0.27344577               -0.49030207
               0.48933311                0.24140581               12.28117139                1.00000000               -0.55219124               -0.62324425                2.16486317               -0.12853597               -0.71659714                0.77229566
               1.48381120                0.17983103               12.19798324                1.00000000               -0.44747489               -0.45684121                1.62669369               -0.08792203               -0.72003635               -0.03188498
               2.48038362                0.11814036               12.11467451                0.70972503               -0.11567542               -0.31860973                1.08245649                0.08079716               -0.42287098               -0.70212842
               3.48149769                0.06026026               12.03750453                0.52023426                0.43692302               -0.18752559                0.54567320                0.34559968                1.22815059               -0.09185471
               4.48912208                0.01420606               11.98761417                0.44700540                0.76901152               -0.12480187                0.07369706                0.31739437                3.92902177               -0.07938322
               5.49687792               -0.01864734               11.96557134                0.45328984                0.42090631               -0.03101668               -0.32865695                0.14697643                5.14307632               -0.00832673
               6.49754020               -0.05113297               11.94112598                0.53110031               -0.05699813                0.13473084               -0.71537910                0.23720320                3.68995685                0.05390383
               7.49573796               -0.09480934               11.89034780                0.69112733               -0.02141024                0.30708412               -1.16190753                0.23931168                1.32125301                0.09427135
               8.49711200               -0.14860175               11.81830721                0.96436720                0.32686008                0.47482833               -1.67113992                0.08380068               -0.14619438                0.34484672
               9.50227516               -0.20626169               11.73793157                1.00000000                0.62103156                0.62764621               -2.21275812               -0.07457637               -0.53735127                0.19822541
              10.50953263               -0.26399010               11.65792109                1.00000000                0.72574665                0.78069440               -2.74461456               -0.13352613               -0.51244633               -0.50223623
               0.54962253                1.23517337               12.25399564                1.00000000               -0.50578287               -0.59150769                1.94897976               -0.04709312               -0.03935194                1.00492578
               1.54456471                1.17526262               12.17015780                1.00000000               -0.43227823               -0.42140458                1.41001544               -0.01149307                0.02598945               -0.06590303
               2.54097697                1.11495426               12.08755934                0.27094493               -0.38219345               -0.27850269                0.87341925                0.19233825                1.04060356               -1.06273717
               3.53692084                1.05838501               12.02403375                0.00010000               -0.46135739               -0.17023297                0.41720656                0.78528634                3.07174610               -1.28458679
               4.53174982                1.01295805               11.98221049                0.00010000               -0.29518176                0.31537518                0.00799580                1.62472141                5.57299233                0.34630793
               5.53101720                0.98104249               11.96910967                0.00010000                0.31217063                0.10729421               -0.31136164                1.97133565                6.81904835                0.24476652
               6.53799323                0.95021434               11.95322886                0.00881754                0.79241330               -0.05964273               -0.61507137                1.61221090                5.26250420                0.17016355
               7.54686547                0.90826150               11.91023289                0.24025563                0.78414709                0.33213170               -0.99328460                0.87533445                2.89345608                1.27181451
               8.55367618                0.85614654               11.84768634                0.65714934                0.61790534                0.44825344               -1.43859010                0.28022239                1.28589297                0.97266084
               9.55922357                0.80001477               11.77270038                1.00000000                0.61248005                0.58643884               -1.93708654                0.02607501                0.40995890                0.48860758
              10.56592578                0.74381684               11.69253087                1.00000000                0.67022029                0.73316563               -2.47272080               -0.05071259                0.15642688               -0.53425910
               0.60821275                2.22957566               12.23137222                1.00000000               -0.44123070               -0.53099494                1.75548559               -0.04772635                0.11363156                1.21140975
               1.60380045                2.17140294               12.14161011                0.82600735               -0.35523809               -0.35490060                1.18876095               -0.01303925                0.18612789               -0.23835177
               2.60110799                2.11257031               12.05322170                0.10682184               -0.23004044               -0.19604657                0.64033314                0.19570910                1.34559459               -1.69920869
               3.59919964                2.05685560               11.98668204                0.00010000               -0.10744851                0.15560723                0.17679845                1.52712473                5.67471487               -1.22491687
               4.59895902                2.02051357               11.98505014                0.00010000               -0.00756492                0.52875566               -0.00101135                2.75958254                8.54216912                0.42412737
               5.59904834                1.98349854               11.97728456                0.00010000                0.18031966                0.23676965               -0.23683570                2.90123228                8.07250391                0.66067560
               6.60256541                1.94767418               11.96734376                0.00010000                0.41320588               -0.07616310               -0.47723730                2.69716534                7.71058707                0.95518462
               7.60731246                1.91183329               11.95348214                0.09413724                0.41988776                0.17882727               -0.69628804                1.58616799                4.94939920                2.41322683
               8.61096317                1.86036332               11.88949480                0.36473936                0.39069493                0.42056500               -1.12368522                0.36281726                1.82731863                2.48667601
               9.61512635                1.80546709               11.81314532                0.89557214                0.49755324                0.51099793               -1.63685692                0.05028640                0.69358323                0.93497527
              10.62091423                1.75067321               11.72635290                1.00000000                0.57878795                0.63775197               -2.20569736               -0.04040286                0.17657165               -0.48363740
               0.66501345                3.22455347               12.20825575                1.00000000               -0.37041738               -0.47005350                1.55294878               -0.05108749                0.04018615                1.14510805
               1.66130927                3.16816461               12.11030274                0.77532313               -0.27874798               -0.28659962                0.93621389               -0.01801266                0.09515737               -0.39002078
               2.65943849                3.11103333               12.01336792                0.08153744               -0.08946011               -0.10806335                0.32976135                0.40862700                3.04132601               -1.95821297
               3.65952007                3.06149715               11.97438252                0.00010000                0.04300244                0.41665450                0.13654948                1.57894768                8.21729158               -0.04931882
               4.66029854                3.02353316               11.98175551                0.00010000                0.11805825                0.26388468               -0.01596068                2.27033659               10.46855261                0.26295008
               5.66188123                2.98577788               11.98923012                0.00010000                0.16516291                0.19315415               -0.15218615                2.38222297               10.31574584                0.98565972
               6.66360179                2.94869108               11.99492168                0.00010000                0.20092253                0.10493808               -0.29759102                2.29605675                9.94343159                1.84684931
               7.66589969                2.91183804               11.99618105                0.10000509                0.18484652                0.07239201               -0.47993158                1.54648606                7.25304583                2.93010869
               8.66729872                2.86455784               11.94906745                0.35960070                0.20098631                0.33437553               -0.69361420                0.46591816                2.55065224                2.93166285
               9.66991941                2.81023473               11.85671757                0.85260934                0.37033728                0.42444698               -1.29105481                0.01894027                0.16423579                0.99070505
              10.67470547                2.75657188               11.76177302                1.00000000                0.47860577                0.54428995               -1.91728429               -0.04476457                0.03889061               -0.44471619
               0.71996873                4.22017459               12.18425401                1.00000000               -0.30083999               -0.40282087                1.33929030               -0.05020266                0.02197792                1.08920691
               1.71696033                4.16567095               12.07866958                0.75120004               -0.20103731               -0.21150981                0.67992257               -0.01801490                0.06078406               -0.40605853
               2.71594798                4.11040904               11.97377936                0.07106671                0.06592161               -0.01995102                0.02479702                0.53200839                4.68201373               -1.90749854
               3.71827876                4.06518869               11.96067312                0.00010000                0.20685181                0.30635835                0.03455612                1.53416403               10.91177824               -0.20987756
               4.72008502                4.02579126               11.98154077                0.00010000                0.16280559                0.20128457               -0.01803606                1.97915641               12.60999692                0.44425021
               5.72153487                3.98736162               12.00409026                0.00010000                0.11706850                0.13177931               -0.05405078                2.05903587               12.62639154                1.21237786
               6.72242639                3.94977294               12.02692007                0.00010000                0.04202733                0.08747670               -0.09364465                2.05680213               12.58000006                2.18544647
               7.72237542                3.91328113               12.05001122                0.11146816               -0.02707737                0.11837107               -0.15839144                1.40420534                8.86064109                3.51420679
               8.72188484                3.86705083               11.99974830                0.37862678                0.05578455                0.16991125               -0.28913849                0.41590116                2.59892298                2.24434249
               9.72349111                3.81395603               11.89810260                0.88244561                0.27298975                0.31255484               -0.94793264                0.00936358                0.01688706                0.77565199
              10.72734464                3.76155901               11.79609206                1.00000000                0.38535255                0.45668045               -1.61586457               -0.04817202                0.00345836               -0.57180775
               0.77301668                5.21649705               12.15997219                1.00000000               -0.23021534               -0.33259382                1.12215058               -0.04917969                0.02386271                1.06744696
               1.77071452                5.16393441               12.04697226                0.72618078               -0.12278848               -0.13517794                0.42062113               -0.01516151                0.07123446               -0.41377626
               2.77056091                5.11063431               11.93483964                0.06032580                0.20533030                0.06508867               -0.27769859                0.54808315                6.24183988               -1.87088241
               3.77482113                5.06762432               11.94531456                0.00010000                0.35739133                0.22080812               -0.10920300                1.40377244               13.60405334               -0.28448527
               4.77770873                5.02755885               11.98195054                0.00010000                0.21295718                0.15070969               -0.03550494                1.69615959               14.91529847                0.46792252
               5.77908027                4.98841347               12.02065674                0.00010000                0.05547991                0.07874852                0.05248339                1.79190970               15.02459926                1.31023263
               6.77881833                4.95044062               12.06143920                0.00010000               -0.11871852                0.03028844                0.14261971                1.82535338               15.16062280                2.31409742
               7.77670590                4.91420546               12.10466017                0.12212046               -0.19382406                0.02177249                0.22161797                1.21238823               10.08593583                3.49782191
               8.77494185                4.86795606               12.04551321                0.39623519               -0.05536986                0.02284752                0.08563752                0.33053595                2.47984784                1.91420271
               9.77559850                4.81648583               11.93713776                0.91131989                0.17971050                0.19813968               -0.61637565                0.00963898                0.01335841                0.60114124
              10.77853606                4.76570549               11.82856312                1.00000000                0.29375554                0.37304992               -1.32179702               -0.04593099                0.00880556               -0.70782079
               0.82411042                6.21352271               12.13548736                1.00000000               -0.15905805               -0.26312844                0.90325689               -0.04748285                0.02846470                1.04628107
               1.82251984                6.16296739               12.01511276                0.69911094               -0.04453426               -0.05760417                0.15990893               -0.01115625                0.08968843               -0.43271578
               2.82321974                6.11171081               11.89588659                0.04879683                0.34549152                0.15211095               -0.58003072                0.49594211                7.81752190               -1.87916185
               3.82942967                6.06960486               11.93013839                0.00010000                0.49996617                0.18959150               -0.28554379                1.20985704               16.28061747               -0.32871897
               4.83321906                6.02880545               11.98214663                0.00010000                0.25308154                0.10478941               -0.06703394                1.41218363               17.21607516                0.42237391
               5.83449130                5.98893659               12.03743942                0.00010000               -0.00387984                0.02363815                0.16074866                1.51533998               17.43086866                1.27885999
               6.83314146                5.95037871               12.09606293                0.00010000               -0.26917819               -0.05170221                0.39633938                1.56909183               17.67003581                2.26402882
               7.82910774                5.91371658               12.15828230                0.13179744               -0.34631335               -0.12753603                0.63520153                0.99426218               11.20730580                3.38481555
               8.82621520                5.86750778               12.08951005                0.41175513               -0.15866393               -0.10524596                0.44004231                0.23635990                2.33334791                1.78930456
               9.82593446                5.81791882               11.97477289                0.93632225                0.08857460                0.09297220               -0.29948018                0.00901512                0.02269856                0.50685749
              10.82798669                5.76902001               11.85971237                1.00000000                0.20522284                0.29210122               -1.03996979               -0.04386279                0.01179592               -0.78460646
               0.87317767                7.21123448               12.11072772                1.00000000               -0.08743708               -0.19616776                0.68351227               -0.04544863                0.03149642                1.01664425
               1.87230330                7.16278233               11.98296757                0.67018869                0.03323063                0.02143154               -0.10112471               -0.00639270                0.10939428               -0.46210219
               2.87384228                7.11367653               11.85669614                0.03661531                0.48101653                0.24408867               -0.88228662                0.38563940                9.35055252               -1.90274851
               3.88192363                7.07141615               11.91383627                0.00010000                0.63891936                0.17345957               -0.47531375                0.93326105               18.92261518               -0.46617569
               4.88662067                7.02965464               11.98141801                0.00010000                0.29450948                0.06220598               -0.10703545                1.10344540               19.51843320                0.31814626
               5.88781382                6.98888623               12.05317729                0.00010000               -0.06002416               -0.03146607                0.26568794                1.21524359               19.81907138                1.13289060
               6.88542018                6.94940657               12.12949510                0.00010000               -0.41758717               -0.13659472                0.65420996                1.25789322               20.16370332                2.08106869
               7.87946207                6.91165474               12.21068715                0.14061434               -0.49766883               -0.27997439                1.06327110                0.74570226               12.34028187                3.23757382
               8.87546681                6.86585114               12.13272816                0.42539135               -0.25977466               -0.22172624                0.77943702                0.14822606                2.20271317                1.73290174
               9.87426658                6.81834527               12.01168672                0.95777114               -0.00051910               -0.00440425                0.00476903                0.00775532                0.02950905                0.47013659
              10.87545642                6.77154752               11.89022072                1.00000000                0.11898453                0.21606980               -0.76918059               -0.04256007                0.01311704               -0.80226872
               0.92010576                8.20959935               12.08558529                1.00000000               -0.01558233               -0.13352294                0.46365868               -0.04308387                0.03738015                0.98098693
               1.91994994                8.16339602               11.95046077                0.63988417                0.10964686                0.10292171               -0.36112929               -0.00167159                0.13425853               -0.50722855
               2.92229870                8.11659259               11.81721370                0.02405606                0.60834217                0.34142099               -1.18287529                0.21096053               10.81049020               -1.88174152
               3.93211678                8.07307405               11.89569886                0.00010000                0.77595913                0.14195196               -0.65683646                0.56440448               21.50602394               -0.55764824
               4.93781788                8.03004957               11.97910458                0.00010000                0.34637283                0.00253042               -0.14883530                0.77317090               21.80504596                0.19290791
               5.93904424                7.98830727               12.06663996                0.00010000               -0.11435332               -0.07365223                0.36165346                0.89117113               22.15486359                0.86844080
               6.93553082                7.94764682               12.16024389                0.00010000               -0.57335144               -0.18911029                0.90118545                0.88532351               22.68203354                1.68427303
               7.92757721                7.90811709               12.26136910                0.14891783               -0.65208148               -0.41392312                1.48942022                0.45678745               13.58176627                2.91540292
               8.92248919                7.86307326               12.17560982                0.43771143               -0.35920104               -0.33031821                1.10786625                0.06581037                2.13982018                1.64887238
               9.92039319                7.81783074               12.04840798                0.97648035               -0.08790954               -0.09666523                0.29963746                0.00532818                0.04036701                0.48576208
              10.92073100                7.77334141               11.92065443                1.00000000                0.03378058                0.14456879               -0.50463269               -0.04154833                0.01673159               -0.78117486
               0.96472266                9.20856402               12.06003748                1.00000000                0.05539685               -0.07559451                0.24528221               -0.04114331                0.02778983                0.80804541
               1.96527663                9.16484076               11.91737159                0.60920251                0.18303974                0.18645172               -0.61939130                0.00129359                0.21672007               -0.48533691
               2.96838346                9.12050495               11.77843489                0.01162606                0.72390467                0.43458295               -1.47117990               -0.04907994               12.28060579               -1.46007963
               3.97975473                9.07425519               11.87714001                0.00010000                0.92336992                0.03778862               -0.81379048                0.17993239               23.98481279               -0.39734674
               4.98685086                9.02970525               11.97516578                0.00010000                0.41426350               -0.04196320               -0.18712118                0.41574306               23.94262915                0.09233446
               5.98804000                8.98741319               12.07639983                0.00010000               -0.17670115               -0.10361070                0.44096727                0.51963118               24.31350446                0.48433085
               6.98331683                8.94562437               12.18535409                0.00010000               -0.74343089               -0.18930824                1.11312704                0.45372960               25.16185816                0.96412836
               7.97317138                8.90337628               12.30733602                0.15736988               -0.81237326               -0.49256576                1.88236836                0.16448295               15.03167791                1.91999472
               8.96706937                8.85924478               12.21722428                0.44990244               -0.45331924               -0.42636061                1.42205081               -0.01380962                2.32320455                1.18678730
               9.96410499                8.81641197               12.08553738                0.99429860               -0.17326267               -0.18620186                0.59080426                0.00128151                0.11557794                0.45801537
              10.96360412                8.77443889               11.95129459                1.00000000               -0.05008781                0.07462176               -0.24283918               -0.04303634               -0.00900294               -0.64140447
               1.00672943               10.20808746               12.03134869                1.00000000                0.13054607               -0.04765595                0.01781635                0.10443500                0.43730985                0.65601177
               2.00803489               10.16712505               11.88528694                0.79512556                0.25866237                0.22842919               -0.86589183                0.13566453                0.85005278               -0.43561598
               3.01190267               10.12528424               11.74744525                0.50205234                0.92401237                0.47792954               -1.70517152               -0.31284001               13.85133266               -1.07653029
               4.02651514               10.07382982               11.86152280                0.43655730                1.05360352               -0.04253683               -0.93524095               -0.12765576               25.99638391               -0.19619435
               5.03297475               10.02921031               11.96980709                0.43162378                0.35013051               -0.04949354               -0.22117049                0.23265079               25.70680619                0.07685684
               6.03351775                9.98623506               12.08108640                0.45351567               -0.21662138               -0.11781287                0.49722491                0.28029199               26.12182049                0.29498626
               7.02864232                9.94386065               12.20090641                0.49962721               -0.81356437               -0.17637138                1.26616453                0.13408418               27.21764673                0.56853423
               8.01724646                9.89826578               12.33799063                0.58165403               -0.97325046               -0.51105039                2.15799646               -0.05822228               16.61009633                1.18719724
               9.00917731                9.85454605               12.25097720                0.72916502               -0.60108759               -0.46987320                1.69904969                0.00284002                3.21858529                0.79032179
              10.00522471                9.81410670               12.12169111                1.00000000               -0.26804443               -0.23052692                0.87945894                0.12636105                0.69235755                0.40857014
              11.00381642                9.77483384               11.98430183                1.00000000               -0.14082868                0.03949484                0.03814005                0.09394470                0.28979760               -0.51518013
               0.56781005                0.27760949               13.30272967                1.00000000               -0.54989706               -0.61875966                2.14857697               -0.12583353               -0.76215231                0.81661621
               1.56231108                0.20842382               13.21421907                1.00000000               -0.44816690               -0.45472532                1.62048921               -0.08548840               -0.76913210               -0.03140154
               2.55884671                0.13909942               13.12552926                0.70863951               -0.12776631               -0.31744838                1.08688524                0.07780720               -0.47126845               -0.73794090
               3.55975575                0.07343651               13.04304915                0.52058362                0.39751609               -0.18541828                0.56058999                0.32702565                1.21183002               -0.09500056
               4.56679703                0.01912873               12.98844296                0.44732726                0.70964285               -0.11069262                0.08980417                0.30013066                3.96851095               -0.08215906
               5.57394861               -0.02235377               12.96230313                0.45323625                0.38345636               -0.00928094               -0.32621639                0.13779786                5.21791495               -0.00758218
               6.57446616               -0.06318517               12.93391552                0.53054052               -0.05695056                0.15087335               -0.72772329                0.22445636                3.74913497                0.05688275
               7.57280960               -0.11457097               12.87863599                0.68968276               -0.00677688                0.31681478               -1.18153385                0.22736901                1.32958310                0.09927829
               8.57433062               -0.17561395               12.80149021                0.96083907                0.33827031                0.48140882               -1.69323867                0.07852676               -0.17944454                0.36129499
               9.57957501               -0.24036143               12.71569152                1.00000000                0.62864044                0.63434826               -2.23610669               -0.07377917               -0.57950930                0.21162992
              10.58690343               -0.30516156               12.63036843                1.00000000                0.73284272                0.78828021               -2.76657034               -0.13324075               -0.54832532               -0.54014277
               0.63573739                1.27142190               13.27339935                1.00000000               -0.50261533               -0.58769729                1.93339258               -0.04546728               -0.04295773                1.05906197
               1.63071123                1.20387657               13.18423266                1.00000000               -0.43094733               -0.41950384                1.40482380               -0.00965796                0.02307881               -0.06787692
               2.62711844                1.13592493               13.09632698                0.26890849               -0.38499392               -0.27740519                0.87824440                0.18841962                1.07976008               -1.10870093
               3.62301136                1.07158233               13.02829474                0.00010000               -0.47124795               -0.16764633                0.43198326                0.76314854                3.17633478               -1.34187125
               4.61769348                1.01802180               12.98237079                0.00010000               -0.32639097                0.30633652                0.02149071                1.55865265                5.74993607                0.37207800
               5.61648354                0.97755342               12.96599157                0.00010000                0.25629212                0.11508194               -0.31359093                1.89595168                7.05343344                0.27665521
               6.62281932                0.93832357               12.94699616                0.00806172                0.74070712               -0.04522452               -0.63248621                1.55440557                5.46756890                0.19641722
               7.63129768                0.88859718               12.90018870                0.23824699                0.75958998                0.33676371               -1.01663021                0.83639877                3.02528197                1.34313375
               8.63801112                0.82920014               12.83318829                0.65142447                0.61566709                0.45355728               -1.46208154                0.26955765                1.35639603                1.03213594
               9.64361102                0.76598205               12.75322634                1.00000000                0.61800128                0.59265467               -1.95830313                0.02564214                0.43525352                0.51412713
              10.65037115                0.70272124               12.66769826                1.00000000                0.67601290                0.74204232               -2.49411490               -0.05094304                0.16283114               -0.57461823
               0.70199136                2.26585555               13.24883775                1.00000000               -0.43764780               -0.52818478                1.73904880               -0.04636369                0.12424788                1.27111977
               1.69761488                2.20003374               13.15347454                0.81482866               -0.35410076               -0.35268630                1.18386057               -0.01140354                0.20586794               -0.25872892
               2.69490935                2.13355131               13.05967567                0.10511652               -0.23465133               -0.19354259                0.64849519                0.19151866                1.41680238               -1.79552177
               3.69292186                2.07008358               12.98855019                0.00010000               -0.14551757                0.15184414                0.19375224                1.46386642                5.92736316               -1.23602159
               4.69199900                2.02525546               12.98509852                0.00010000               -0.06779895                0.50707150                0.00940558                2.64184242                8.91134938                0.46595993
               5.69156588                1.97994787               12.97493123                0.00010000                0.12557591                0.22785852               -0.23478152                2.78729272                8.41558417                0.72365423
               6.69451051                1.93591034               12.96254178                0.00010000                0.35475599               -0.07191294               -0.48413521                2.60420750                8.06215822                1.02553869
               7.69866100                1.89216430               12.94641897                0.09285227                0.39131965                0.17185398               -0.71757884                1.53702923                5.21067222                2.51137463
               8.70233691                1.83345720               12.87816878                0.36044464                0.39528746                0.42119308               -1.14227141                0.34957753                1.94483707                2.64513600
               9.70656675                1.77149166               12.79667576                0.88130844                0.50346374                0.51739053               -1.65699625                0.04822475                0.73960476                0.99412698
              10.71240618                1.70967929               12.70418349                1.00000000                0.58394338                0.64978303               -2.22788176               -0.04068191                0.19484792               -0.51652382
               0.76645372                3.26085820               13.22369156                1.00000000               -0.36663221               -0.46759131                1.53558719               -0.04995652                0.04131618                1.19447443
               1.76278740                3.19682284               13.11963600                0.76401183               -0.27773716               -0.28346682                0.93008918               -0.01631241                0.10111924               -0.42761904
               2.76089898                3.13205408               13.01670523                0.07989195               -0.11014283               -0.10352215                0.33555035                0.39731752                3.25835285               -2.09001767
               3.76058454                3.07461921               12.97582092                0.00010000               -0.01164649                0.40510195                0.15228631                1.49915893                8.65741997               -0.00212377
               4.76066605                3.02816323               12.98164101                0.00010000                0.04949824                0.25468818               -0.00701716                2.16315465               10.93959431                0.30315132
               5.76157451                2.98211059               12.98772705                0.00010000                0.10104952                0.18364030               -0.14868249                2.27866869               10.79413547                1.05445315
               6.76268704                2.93688531               12.99193275                0.00010000                0.14584501                0.09706009               -0.30070079                2.19997394               10.40304421                1.94432366
               7.76449141                2.89203426               12.99136621                0.09818899                0.14941413                0.05707391               -0.48527248                1.49912815                7.68004931                3.03638597
               8.76567532                2.83762400               12.94205228                0.35462174                0.19310111                0.33246830               -0.70800873                0.45641258                2.77091646                3.12509980
               9.76835343                2.77632986               12.84370230                0.83793977                0.37534672                0.43272666               -1.31077577                0.01781895                0.18149024                1.06717365
              10.77318225                2.71571690               12.74246795                1.00000000                0.48288259                0.56096708               -1.94254363               -0.04516921                0.04154494               -0.46145416
               0.82906295                4.25650372               13.19754910                1.00000000               -0.29701939               -0.40038271                1.32118478               -0.04903988                0.02163427                1.13146664
               1.82609276                4.19436441               13.08544189                0.73947945               -0.20018095               -0.20796538                0.67416332               -0.01616958                0.06224513               -0.44647579
               2.82505933                4.13148087               12.97407489                0.06925581                0.03515660               -0.01500803                0.03198036                0.51150790                5.01439257               -2.03406300
               3.82679589                4.07818562               12.96104184                0.00010000                0.13556894                0.29800210                0.04126425                1.45371368               11.54145620               -0.22234809
               4.82777071                4.03034922               12.98139234                0.00010000                0.08106441                0.19758446               -0.01076553                1.87247387               13.22166169                0.47738320
               5.82841718                3.98362067               13.00356649                0.00010000                0.04078075                0.12723784               -0.05040279                1.95047904               13.24707832                1.28601007
               6.82858632                3.93785154               13.02597479                0.00010000               -0.02561553                0.07839125               -0.09542337                1.94670581               13.19022372                2.30407829
               7.82790487                3.89330578               13.04839829                0.10915081               -0.07083837                0.10417698               -0.16476266                1.34113977                9.42862737                3.68871360
               8.82716956                3.84010657               12.99676347                0.37265544                0.04626810                0.16984843               -0.30535779                0.40977039                2.87139983                2.40221986
               9.82883023                3.78014619               12.88849915                0.86592422                0.27795749                0.32278512               -0.97059916                0.00868585                0.02254023                0.84084895
              10.83272871                3.72089863               12.77977080                1.00000000                0.38984798                0.47714285               -1.64633217               -0.04773192                0.00363535               -0.58665366
               0.88975155                5.25285055               13.17109369                1.00000000               -0.22646914               -0.33008924                1.10373846               -0.04820084                0.02273273                1.10723269
               1.88748686                5.19266353               13.05115497                0.71460657               -0.12218135               -0.13171155                0.41555939               -0.01356492                0.07140303               -0.45636742
               2.88730792                5.13175392               12.93211879                0.05858417                0.16518039                0.06957207               -0.26878665                0.52227761                6.67263232               -1.99618748
               3.89079046                5.08057925               12.94424370                0.00010000                0.26862761                0.21957010               -0.10358439                1.31831779               14.41634370               -0.33610295
               4.89268047                5.03211492               12.98162529                0.00010000                0.11456493                0.15511733               -0.02856075                1.58631211               15.69160906                0.48133439
               5.89308176                4.98465535               13.02119945                0.00010000               -0.03722148                0.08133598                0.05656222                1.67276370               15.81093602                1.38280884
               6.89193604                4.93845313               13.06285047                0.00010000               -0.20112917                0.02710376                0.13994766                1.69978414               15.94485492                2.44973841
               7.88905918                4.89411780               13.10680421                0.11957772               -0.24528630                0.01335109                0.20784125                1.14153021               10.76399944                3.70819576
               8.88703032                4.84102097               13.04628722                0.38981606               -0.06620488                0.02342032                0.07144695                0.32529479                2.76885772                2.04302877
               9.88773508                4.78278556               12.93084838                0.89387438                0.18462117                0.20878467               -0.63934155                0.00858824                0.01568987                0.65119902
              10.89072274                4.72525976               12.81516957                1.00000000                0.29876592                0.39422297               -1.35491042               -0.04576609                0.00839835               -0.73237583
               0.94847296                6.24990194               13.14441902                1.00000000               -0.15548740               -0.26039298                0.88475832               -0.04670414                0.02693907                1.08458053
               1.94691808                6.19173018               13.01669296                0.68818836               -0.04418954               -0.05446126                0.15574839               -0.00985121                0.08951921               -0.47614727
               2.94758917                6.13287231               12.89015057                0.04734711                0.29415808                0.15571434               -0.56949782                0.46826600                8.33237983               -2.00419492
               3.95280124                6.08257702               12.92732767                0.00010000                0.39158455                0.19578035               -0.27622431                1.12430061               17.27046442               -0.40401970
               4.95542086                6.03345157               12.98152070                0.00010000                0.13664960                0.11939335               -0.05758259                1.30109007               18.17439197                0.42122635
               5.95553424                5.98524739               13.03907436                0.00010000               -0.11506507                0.03597964                0.16655581                1.38565663               18.39830300                1.34526182
               6.95311956                5.93839362               13.10001311                0.00010000               -0.36833040               -0.04781634                0.39384512                1.42860698               18.64391434                2.40354291
               7.94816763                5.89357280               13.16454650                0.12929941               -0.40559337               -0.13224886                0.61794449                0.91239905               11.97438857                3.61261719
               8.94500769                5.84057497               13.09385880                0.40539529               -0.17022126               -0.10615819                0.43143946                0.22915661                2.61196532                1.89729337
               9.94476320                5.78432189               12.97167062                0.91884658                0.09286484                0.10215799               -0.31933805                0.00788269                0.02366350                0.54180366
              10.94686499                5.72878309               12.84914377                1.00000000                0.21017815                0.31166653               -1.07233846               -0.04406478                0.01138656               -0.82031083
               1.00516098                7.24764269               13.11746319                1.00000000               -0.08415270               -0.19305961                0.66526207               -0.04484849                0.02974694                1.05401595
               2.00431946                7.19157431               12.98194486                0.66034942                0.03327055                0.02396241               -0.10397834               -0.00532913                0.10909607               -0.50499075
               3.00582639                7.13486821               12.84795043                0.03563747                0.41888823                0.24606968               -0.86947481                0.36156428                9.94295590               -2.02599182
               4.01269722                7.08449486               12.90916113                0.00010000                0.51027557                0.19002667               -0.46032044                0.85942511               20.08632807               -0.54361310
               5.01603191                7.03450279               12.98041718                0.00010000                0.15778109                0.09007945               -0.09325252                0.99849526               20.66450194                0.31029736
               6.01585284                6.98537494               13.05588032                0.00010000               -0.19245672               -0.00581122                0.27478081                1.07877065               20.97431871                1.18919042
               7.01218277                6.93749681               13.13603818                0.00010000               -0.53635178               -0.12419255                0.65408262                1.10154648               21.33627290                2.21155430
               8.00512581                6.89147282               13.22124613                0.13840348               -0.56592017               -0.28315193                1.04793804                0.64915237               13.18428617                3.46631929
               9.00086437                6.83889781               13.14051036                0.41953463               -0.27205942               -0.22520837                0.77821609                0.13710816                2.45454280                1.82514433
               9.99968462                6.78482872               13.01165544                0.94103687                0.00273354                0.00201984               -0.00980838                0.00652222                0.02952175                0.49330210
              11.00091904                6.73149309               12.88237894                1.00000000                0.12344198                0.23257714               -0.79851669               -0.04313044                0.01268029               -0.84620801
               1.05971274                8.24604074               13.09012584                1.00000000               -0.01267627               -0.12989326                0.44601867               -0.04270283                0.03574906                1.01843086
               2.05958598                8.19220943               12.94684835                0.63153913                0.10935802                0.10452172               -0.36227227               -0.00091628                0.13415590               -0.54843677
               3.06189990                8.13779371               12.80548230                0.02370157                0.53845941                0.34090268               -1.16670105                0.19796167               11.48319554               -1.99657199
               4.07035517                8.08637756               12.88924154                0.00010000                0.63053896                0.17111459               -0.63632243                0.51736680               22.84207920               -0.61718345
               5.07451068                8.03525316               12.97771411                0.00010000                0.18802313                0.04653510               -0.13021372                0.68651508               23.13230295                0.18596066
               6.07411563                7.98513117               13.07032573                0.00010000               -0.27290392               -0.02912666                0.37477368                0.76106188               23.49562712                0.90972689
               7.06905260                7.93590977               13.16927655                0.00010000               -0.71829790               -0.16060708                0.90456959                0.71691692               24.05771117                1.78763411
               8.05974967                7.88790977               13.27620963                0.14718983               -0.73293269               -0.41257089                1.47768436                0.33923627               14.50098605                3.12202843
               9.05439395                7.83607080               13.18671171                0.43275282               -0.37256538               -0.33616013                1.11417402                0.04821245                2.35979828                1.72622066
              10.05229837                7.78436228               13.05136767                0.96123783               -0.08601578               -0.09393416                0.29225611                0.00360178                0.04004999                0.50196752
              11.05267363                7.73343463               12.91547542                1.00000000                0.03752693                0.15798902               -0.53070074               -0.04271886                0.01625531               -0.82924364
               1.11196956                9.24504482               13.06239946                1.00000000                0.05786051               -0.07133069                0.22851399               -0.04094108                0.02525361                0.84112749
               2.11254817                9.19366474               12.91118690                0.60264239                0.18239659                0.18697513               -0.61889829                0.00167154                0.22109769               -0.51939358
               3.11561750                9.14168626               12.76384200                0.01196742                0.65184684                0.43132151               -1.45156008               -0.04241217               13.04356811               -1.54040014
               4.12558511                9.08791715               12.86913828                0.00010000                0.76955502                0.08209195               -0.78925006                0.16652962               25.49039020               -0.42521234
               5.13100860                9.03543349               12.97341747                0.00010000                0.24161808                0.01238346               -0.16430394                0.36556163               25.43731735                0.08939120
               6.13041747                8.98479241               13.08089991                0.00010000               -0.36330423               -0.04261590                0.45770609                0.42932827               25.82800428                0.50609761
               7.12374251                8.93428466               13.19652324                0.00010000               -0.93339860               -0.12612337                1.11949882                0.31618010               26.73664432                1.01956049
               8.11174950                8.88322140               13.32611644                0.15619493               -0.91832062               -0.47235068                1.87292138                0.04262872               16.03619511                2.04904519
               9.10537610                8.83217461               13.23149917                0.44605629               -0.46783341               -0.43161080                1.43523705               -0.04115206                2.52531203                1.23620549
              10.10239283                8.78295004               13.09144011                0.98109005               -0.17280684               -0.18689225                0.59100841               -0.00183654                0.11958025                0.46950094
              11.10191996                8.73465287               12.94875339                1.00000000               -0.04728649                0.08520070               -0.26552101               -0.04389259               -0.00907971               -0.68096555
               1.16165408               10.24461413               13.03144468                1.00000000                0.13238940               -0.04306917                0.00254718                0.10193103                0.45267623                0.68392467
               2.16297797               10.19594893               12.87664519                0.79238701                0.25725881                0.22841839               -0.86413540                0.13328044                0.88830421               -0.46300686
               3.16679925               10.14642014               12.73051989                0.50241610                0.84802811                0.47338743               -1.68441748               -0.27830087               14.71467940               -1.12790029
               4.17993853               10.08801940               12.85232379                0.43734666                0.90737033                0.01022458               -0.90776953               -0.11062282               27.66090576               -0.21047032
               5.18494666               10.03550083               12.96773586                0.43190480                0.19562436                0.00673367               -0.19538662                0.20677902               27.35484642                0.07599254
               6.18385102                9.98427885               13.08616358                0.45343939               -0.39997253               -0.05135554                0.51624519                0.23767906               27.79469859                0.30802641
               7.17694721                9.93338730               13.21361457                0.49941160               -1.05693578               -0.08973630                1.27361150                0.02966484               28.96208806                0.60125655
               8.16271231                9.87846275               13.35952597                0.58121803               -1.15524681               -0.47586500                2.14801368               -0.20115471               17.71959912                1.26208350
               9.15384227                9.82743859               13.26804302                0.72756491               -0.64644682               -0.47360174                1.71507843               -0.04529837                3.45972281                0.81981071
              10.14978337                9.78062444               13.13048318                0.99713091               -0.27260798               -0.23256003                0.88504867                0.12405691                0.72876417                0.41629535
              11.14839011                9.73513865               12.98458324                1.00000000               -0.13932551                0.04857735                0.01745622                0.09843590                0.31312285               -0.54487210
               0.65111127                0.31639878               14.32414293                1.00000000               -0.54822988               -0.61522499                2.13582847               -0.12374656               -0.80612636                0.85913331
               1.64562897                0.23917582               14.23039302                1.00000000               -0.44915525               -0.45262057                1.61452827               -0.08366515               -0.81632323               -0.03119564
               2.64212817                0.16178611               14.13641222                0.70725125               -0.14041884               -0.31522688                1.08857003                0.07285642               -0.51730327               -0.77362336
               3.64282059                0.08786909               14.04871633                0.52083828                0.35550782               -0.18225401                0.57089230                0.30436877                1.19412321               -0.09726153
               4.64923832                0.02470722               13.98941025                0.44762782                0.64715354               -0.09631797                0.10172361                0.27909011                3.99664589               -0.08436959
               5.65576367               -0.02617588               13.95904701                0.45315483                0.34758582                0.01233694               -0.32629961                0.12649323                5.27498834               -0.00604058
               6.65619004               -0.07615659               13.92657152                0.52989093               -0.05043698                0.16730110               -0.74206746                0.20807841                3.79434084                0.06063150
               7.65475493               -0.13592920               13.86671713                0.68800297                0.01387708                0.32703942               -1.20309324                0.21163452                1.33033708                0.10486903
               8.65646758               -0.20477200               13.78444244                0.95677448                0.35259180                0.48826839               -1.71696913                0.07141211               -0.21730606                0.37806667
               9.66180676               -0.27709873               13.69320944                1.00000000                0.63723624                0.64118053               -2.26082559               -0.07283935               -0.62448053                0.22637123
              10.66921230               -0.34945261               13.60258969                1.00000000                0.74055424                0.79620324               -2.78950865               -0.13276231               -0.58588437               -0.58119093
               0.72709676                1.31024653               14.29266349                1.00000000               -0.49981063               -0.58464676                1.92083801               -0.04404768               -0.04595723                1.11072526
               1.72209866                1.23464961               14.19825427                1.00000000               -0.42933327               -0.41753980                1.39934751               -0.00808861                0.02066573               -0.07052950
               2.71851010                1.15863384               14.10512422                0.26648492               -0.38474663               -0.27522455                0.87951961                0.18185755                1.11946607               -1.15323195
               3.71440372                1.08604655               14.03267342                0.00010000               -0.47291953               -0.16300497                0.44118898                0.73068303                3.27692841               -1.39753534
               4.70905171                1.02374404               13.98264031                0.00010000               -0.34716094                0.29276576                0.03012324                1.47337929                5.91162400                0.39816885
               5.70746050                0.97394749               13.96283785                0.00010000                0.20478889                0.12060145               -0.31854516                1.79627364                7.26792612                0.31311067
               6.71314748                0.92551642               13.94057913                0.00721596                0.68592354               -0.02975279               -0.65195826                1.47622512                5.66005054                0.23062183
               7.72117897                0.86734119               13.88990029                0.23599046                0.73094899                0.34062426               -1.04198268                0.78691197                3.15357826                1.41754425
               8.72776646                0.80011069               13.81844471                0.64509376                0.61198509                0.45870218               -1.48744654                0.25537153                1.42812914                1.09510136
               9.73341868                0.72931307               13.73353432                1.00000000                0.62360502                0.59861998               -1.98054362                0.02478564                0.46178430                0.54053153
              10.74023856                0.65850942               13.64264857                1.00000000                0.68198872                0.75128268               -2.51605483               -0.05119408                0.16904666               -0.61874491
               0.80142414                2.30470584               14.26615320                1.00000000               -0.43442534               -0.52574574                1.72517916               -0.04537495                0.13558375                1.32787711
               1.79707989                2.23082502               14.16528732                0.80339697               -0.35278792               -0.35023718                1.17827804               -0.01024494                0.22721091               -0.28078881
               2.79436838                2.15628161               14.06619161                0.10331262               -0.23779211               -0.19000397                0.65261654                0.18472420                1.48862099               -1.89177795
               3.79232405                2.08460899               13.99055708                0.00010000               -0.17817100                0.14582408                0.20470423                1.38049453                6.17317431               -1.24466350
               4.79080496                2.03056254               13.98523825                0.00010000               -0.12036435                0.47791582                0.01713264                2.48798732                9.26806469                0.50894346
               5.78991676                1.97623615               13.97258893                0.00010000                0.07579371                0.21421025               -0.23486901                2.63487590                8.74650971                0.79356235
               6.79232084                1.92324836               13.95766105                0.00010000                0.29910700               -0.06859367               -0.49328797                2.47615870                8.40129913                1.10744929
               7.79589890                1.87088328               13.93913057                0.09160107                0.36411430                0.16226283               -0.74131611                1.46779296                5.46901775                2.62214930
               8.79960312                1.80440205               13.86664937                0.35612540                0.40024213                0.41772267               -1.16237510                0.33024440                2.06626324                2.81096261
               9.80390374                1.73487367               13.78000540                0.86689565                0.50963047                0.52208695               -1.67723931                0.04429317                0.78711695                1.05398564
              10.80979573                1.66557304               13.68179526                1.00000000                0.58919913                0.66230368               -2.24968302               -0.04173833                0.21412145               -0.55455522
               0.87395090                3.29973161               14.23896750                1.00000000               -0.36329154               -0.46520252                1.52082472               -0.04908984                0.04212864                1.24123254
               1.87031798                3.22764487               14.12890452                0.75279034               -0.27651407               -0.28012837                0.92320012               -0.01491506                0.10715641               -0.46676245
               2.86842062                3.15483376               14.02007893                0.07829356               -0.12926478               -0.09836939                0.33705262                0.37928293                3.47736723               -2.22271267
               3.86773269                3.08896303               13.97742825                0.00010000               -0.06181638                0.38549847                0.16901914                1.39674935                9.09275669                0.04261101
               4.86718429                3.03330236               13.98161516                0.00010000               -0.01302414                0.23960555                0.00118835                2.02286541               11.39885990                0.34475572
               5.86747221                2.97823169               13.98625647                0.00010000                0.04196172                0.16866391               -0.14626363                2.14097132               11.26391025                1.12782950
               6.86802352                2.92414455               13.98890766                0.00010000                0.09544684                0.08442201               -0.30550965                2.07164889               10.85779125                2.04861934
               7.86938114                2.87058645               13.98647560                0.09654270                0.11787189                0.03670595               -0.49542441                1.42904867                8.10568353                3.15419308
               8.87038096                2.80846514               13.93490728                0.34989442                0.18762020                0.32291237               -0.72042834                0.43886106                2.99094337                3.32341932
               9.87313355                2.73975481               13.83050205                0.82366398                0.38120461                0.43766282               -1.32866928                0.01606015                0.19880985                1.14292887
              10.87800505                2.67175549               13.72292215                1.00000000                0.48715083                0.57756406               -1.96591682               -0.04601620                0.04438578               -0.48464452
               0.94461583                4.29540179               14.21067771                1.00000000               -0.29363872               -0.39799141                1.30591058               -0.04804004                0.02138061                1.17139909
               1.94167944                4.22522246               14.09215284                0.72798983               -0.19899720               -0.20444385                0.66767313               -0.01440317                0.06413030               -0.48751666
               2.94063589                4.15431423               13.97441896                0.06755034                0.00554936               -0.00994415                0.03467906                0.48003524                5.34385372               -2.15938330
               3.94179043                4.09231896               13.96149841                0.00010000                0.06788599                0.28267029                0.05060863                1.34746166               12.16574183               -0.23858136
               4.94199361                4.03535465               13.98132546                0.00010000                0.00517839                0.18774121               -0.00272813                1.73456697               13.82680894                0.51227826
               5.94189400                3.97960943               14.00308220                0.00010000               -0.02972716                0.11650418               -0.04702738                1.80918780               13.86158400                1.36364381
               6.94139906                3.92493680               14.02501161                0.00010000               -0.08673583                0.06262559               -0.09823442                1.80475611               13.79693871                2.42742773
               7.94015928                3.87161740               14.04671597                0.10706165               -0.10935425                0.08173616               -0.17350426                1.25457467                9.99602200                3.86466033
               8.93921198                3.81086029               13.99364114                0.36702744                0.03876561                0.16280864               -0.31751356                0.39516992                3.14465653                2.56319858
               9.94093459                3.74362693               13.87869061                0.84996223                0.28310370                0.32917598               -0.98962086                0.00802150                0.02892272                0.90497598
              10.94487405                3.67712432               13.76316542                1.00000000                0.39394584                0.49647542               -1.67318122               -0.04743115                0.00418427               -0.60726323
               1.01334877                5.29177178               14.18204695                1.00000000               -0.22312836               -0.32784878                1.08837388               -0.04730430                0.02183373                1.14482365
               2.01111749                5.22355599               14.05528345                0.70325379               -0.12119728               -0.12839545                0.40977849               -0.01188410                0.07221252               -0.49940262
               3.01092482                5.15463487               13.92946391                0.05694147                0.12620063                0.07405198               -0.26434340                0.48285887                7.09850117               -2.12007596
               4.01364150                5.09461643               13.94324287                0.00010000                0.18301677                0.21440381               -0.09652698                1.20503594               15.22194124               -0.38560978
               5.01458516                5.03705719               13.98137932                0.00010000                0.02161590                0.15417226               -0.02084529                1.44559737               16.46306864                0.49840740
               6.01407382                4.98056178               14.02178799                0.00010000               -0.12372428                0.07757673                0.06055704                1.52054138               16.59209474                1.46020178
               7.01211067                4.92539706               14.06423816                0.00010000               -0.27623396                0.01625289                0.13671856                1.54039698               16.72393117                2.58968832
               8.00854914                4.87222117               14.10881699                0.11725445               -0.29179193               -0.00451995                0.19384897                1.04573966               11.44498925                3.91866307
               9.00627484                4.81172131               14.04694215                0.38370186               -0.07595938                0.01851069                0.06125645                0.31177808                3.06392136                2.17798964
              10.00702995                4.74633833               13.92435093                0.87690646                0.18934025                0.21604534               -0.65840655                0.00759246                0.01870034                0.70282109
              11.01006164                4.68168500               13.80146491                1.00000000                0.30316903                0.41400494               -1.38419759               -0.04562947                0.00815295               -0.75993397
               1.08010133                6.28884482               14.15318252                1.00000000               -0.15226553               -0.25819006                0.86942408               -0.04600203                0.02561501                1.12080686
               2.07857867                6.22265455               14.01822772                0.67741825               -0.04343510               -0.05144396                0.15077972               -0.00845291                0.08988927               -0.51982107
               3.07923262                6.15579527               13.88449664                0.04595431                0.24450837                0.15950435               -0.56351260                0.42563960                8.84232149               -2.12761057
               4.08346884                6.09660703               13.92461390                0.00010000                0.28637925                0.20067924               -0.26734202                1.00923877               18.25322512               -0.47393434
               5.08496021                6.03843810               13.98099498                0.00010000                0.02480558                0.13049934               -0.04827714                1.15801399               19.12747544                0.42585209
               6.08396495                5.98116096               14.04077054                0.00010000               -0.22062998                0.04284471                0.17177331                1.22145635               19.36069390                1.41780141
               7.08054761                5.92526185               14.10393983                0.00010000               -0.46075639               -0.05114222                0.39041502                1.25175995               19.61197872                2.54898155
               8.07474982                5.87152700               14.17064119                0.12696484               -0.46086170               -0.14515884                0.60004667                0.80475666               12.74958216                3.84463935
               9.07133038                5.81123051               14.09813884                0.39923407               -0.18135334               -0.11101004                0.42590896                0.21471757                2.90219417                2.01384550
              10.07112276                5.74794783               13.96838613                0.90167112                0.09688758                0.10879669               -0.33609061                0.00661966                0.02514034                0.58088786
              11.07326813                5.68540442               13.83826560                1.00000000                0.21453720                0.33033542               -1.10173750               -0.04427219                0.01089260               -0.85668583
               1.14480927                7.28660798               14.12403296                1.00000000               -0.08112890               -0.19065569                0.65012610               -0.04436755                0.02816410                1.08961444
               2.14399798                7.22252711               13.98088801                0.65055001                0.03379326                0.02653501               -0.10798009               -0.00425505                0.10927111               -0.54784417
               3.14548513                7.15782496               13.83930665                0.03465487                0.35927336                0.24871583               -0.86173483                0.32198546               10.53126586               -2.14701912
               4.15118344                7.09863002               13.90462986                0.00010000                0.38531891                0.20730985               -0.44758631                0.75499687               21.24306837               -0.61503954
               5.15319151                7.03966717               13.97955296                0.00010000                0.02478704                0.11651976               -0.08099135                0.86040981               21.80447287                0.30887012
               6.15167919                6.98141867               14.05867290                0.00010000               -0.32058384                0.01606295                0.28229518                0.90682191               22.12476846                1.25236638
               7.14677983                6.92437422               14.14257675                0.00010000               -0.65017849               -0.11737091                0.65205027                0.90764233               22.50430825                2.34952853
               8.13867562                6.86931799               14.23164591                0.13626064               -0.63157392               -0.29198224                1.03025935                0.52694218               14.04186627                3.70303183
               9.13414835                6.80950111               14.14829248                0.41371890               -0.28435923               -0.23108251                0.77911049                0.11965069                2.72241618                1.92728966
              10.13298843                6.74851427               14.01149055                0.92436358                0.00573327                0.00687897               -0.02221563                0.00491632                0.03017373                0.52216582
              11.13426302                6.68829171               13.87425038                1.00000000                0.12745891                0.24888345               -0.82616078               -0.04363161                0.01213065               -0.89003607
               1.20737571                8.28503170               14.09450566                1.00000000               -0.00991216               -0.12701247                0.43126828               -0.04246531                0.03431945                1.05445722
               2.20727659                8.22318525               13.94321533                0.62302758                0.10968585                0.10644676               -0.36518846               -0.00020211                0.13476772               -0.58955342
               3.20956943                8.16076958               13.79387968                0.02324805                0.47249867                0.34171977               -1.15675716                0.16931449               12.15242604               -2.10896958
               4.21672657                8.10075323               13.88297241                0.00010000                0.49051608                0.20193323               -0.61994912                0.44012581               24.17106273               -0.67221049
               5.21937975                8.04076849               13.97650030                0.00010000                0.03338891                0.09020727               -0.11466939                0.56865244               24.45287586                0.18433835
               6.21739434                7.98148222               14.07413544                0.00010000               -0.42893087                0.01393090                0.38512769                0.59805355               24.83213389                0.95712998
               7.21080113                7.92291444               14.17833529                0.00010000               -0.86162870               -0.13483297                0.90505808                0.51292515               25.43089432                1.89846583
               8.20016177                7.86568736               14.29092279                0.14538514               -0.81370097               -0.41385732                1.46263088                0.19690789               15.43950189                3.33771155
               9.19452712                7.80660886               14.19789330                0.42758862               -0.38656423               -0.34317639                1.12259023                0.02508172                2.60032803                1.81409359
              10.19243049                7.74808541               14.05425310                0.94565828               -0.08432524               -0.09138936                0.28534142                0.00135926                0.04118132                0.52529382
              11.19284061                7.69038209               13.91004042                1.00000000                0.04101255                0.17100269               -0.55570192               -0.04368466                0.01599986               -0.87771274
               1.26765287                9.28406773               14.06460776                1.00000000                0.06031850               -0.06780865                0.21432561               -0.04085797                0.02274629                0.87330511
               2.26825605                9.22465605               13.90499362                0.59557121                0.18252855                0.18815381               -0.62091173                0.00203933                0.22641524               -0.55361898
               3.27130344                9.16465936               13.74940369                0.01208082                0.58654993                0.43004291               -1.43962237               -0.05195689               13.80316177               -1.61951922
               4.27998705                9.10266868               13.86135501                0.00010000                0.62660635                0.12480750               -0.77050901                0.13013396               26.98855354               -0.45090257
               5.28383557                9.04147132               13.97187970                0.00010000                0.07536293                0.06624473               -0.14600854                0.29403725               26.92507227                0.08926321
               6.28149431                8.98169729               14.08555395                0.00010000               -0.55011837                0.01930202                0.47050422                0.31724544               27.33831082                0.53135115
               7.27283320                8.92167756               14.20774406                0.00010000               -1.12874805               -0.06056494                1.12210451                0.15320543               28.31072513                1.08020641
               8.25891935                8.86104085               14.34479445                0.15475820               -1.02906335               -0.44994903                1.86026143               -0.09958750               17.06592897                2.18560901
               9.25225193                8.80263759               14.24592902                0.44164846               -0.48384828               -0.43771404                1.45112595               -0.07334622                2.75484401                1.29397333
              10.24924238                8.74668648               14.09735754                0.96688871               -0.17279807               -0.18694690                0.59158869               -0.00482697                0.12727903                0.48995538
              11.24879597                8.69171176               13.94598417                1.00000000               -0.04464134                0.09473053               -0.28786225               -0.04556426               -0.00997849               -0.72308147
               1.32538192               10.28367553               14.03139963                1.00000000                0.13438326               -0.03922045               -0.01054583                0.10018482                0.46725670                0.71132970
               2.32672576               10.22694832               13.86800423                0.78927006                0.25678685                0.22922744               -0.86542663                0.13171573                0.92671216               -0.49084850
               3.33051766               10.16937044               13.71375690                0.50262683                0.78957642                0.47110844               -1.67192513               -0.26352528               15.57478767               -1.17939940
               4.34251728               10.10324938               13.84336741                0.43808807                0.78571150                0.05806966               -0.88697051               -0.11082967               29.31868141               -0.22502572
               5.34623189               10.04209339               13.96589936                0.43216917                0.05078642                0.06220680               -0.17507391                0.17057636               28.99508091                0.07537289
               6.34353301                9.98186826               14.09141130                0.45333164               -0.58551021                0.01709711                0.53025809                0.18435766               29.46163466                0.32166797
               7.33452169                9.92170314               14.22637864                0.49911363               -1.31615104                0.00255793                1.27627902               -0.09014564               30.70402017                0.63524912
               8.31720999                9.85668838               14.38095091                0.58059127               -1.35535644               -0.43524712                2.13419510               -0.36336382               18.85811662                1.34341961
               9.30741456                9.79785458               14.28527876                0.72556112               -0.69751122               -0.47830076                1.73302614               -0.10083262                3.73684948                0.85490029
              10.30325977                9.74434647               14.13939208                0.99041324               -0.27678992               -0.23400063                0.89273889                0.12284438                0.77518518                0.43563440
              11.30187876                9.69227670               13.98465095                1.00000000               -0.13810086                0.05649366               -0.00319678                0.10130135                0.33435929               -0.57921180
               0.73918733                0.35775103               15.34544624                1.00000000               -0.54720097               -0.61248981                2.12647861               -0.12242837               -0.84816114                0.89960353
               1.73371532                0.27207740               15.24650964                1.00000000               -0.45049958               -0.45057253                1.60931591               -0.08255548               -0.86104436               -0.03139091
               2.73017734                0.18620294               15.14730066                0.70558991               -0.15375710               -0.31220317                1.08883346                0.06611253               -0.55978957               -0.80924870
               3.73064018                0.10357710               15.05446700                0.52098470                0.31109638               -0.17862373                0.57803805                0.27828009                1.17722482               -0.09844218
               4.73639927                0.03098122               14.99047743                0.44790119                0.58234648               -0.08240403                0.11010196                0.25455724                4.01595228               -0.08594894
               5.74228711               -0.03005627               14.95577713                0.45305230                0.31417955                0.03299830               -0.32896581                0.11316269                5.31617723               -0.00380601
               6.74268286               -0.08998777               14.91907417                0.52916496               -0.03708452                0.18342370               -0.75829910                0.18832140                3.82624978                0.06511726
               7.74154542               -0.15883992               14.85457413                0.68611107                0.04046656                0.33745382               -1.22613255                0.19235460                1.32366002                0.11105993
               8.74349219               -0.23605716               14.76715083                0.95224672                0.36963631                0.49523977               -1.74174395                0.06255561               -0.25974279                0.39499776
               9.74893815               -0.31648377               14.67047501                1.00000000                0.64665269                0.64804922               -2.28634853               -0.07182925               -0.67220733                0.24274900
              10.75642525               -0.39690315               14.57457825                1.00000000                0.74870983                0.80439162               -2.81294772               -0.13210420               -0.62493269               -0.62498461
               0.82363668                1.35162613               15.31181611                1.00000000               -0.49728614               -0.58209723                1.91090756               -0.04307279               -0.04845971                1.15979260
               1.81866382                1.26757168               15.21221961                1.00000000               -0.42740287               -0.41548410                1.39340206               -0.00699293                0.01874719               -0.07393789
               2.81508862                1.18308090               15.11391737                0.26369638               -0.38149882               -0.27209437                0.87764596                0.17269226                1.16053706               -1.19661582
               3.81103384                1.10179086               15.03711852                0.00010000               -0.46635466               -0.15708086                0.44628672                0.68874001                3.37574907               -1.45106466
               4.80576153                1.03015718               14.98297325                0.00010000               -0.35653028                0.27391240                0.03501180                1.37060143                6.06152240                0.42606236
               5.80390323                0.97027371               14.95962067                0.00010000                0.15981855                0.12283843               -0.32591867                1.67377220                7.46498594                0.35455055
               6.80895790                0.91184647               14.93395699                0.00627967                0.63002154               -0.01407181               -0.67323554                1.37864532                5.84064478                0.27265290
               7.81650366                0.84453462               14.87934905                0.23347624                0.69908898                0.34359459               -1.06889266                0.72781891                3.27839015                1.49486533
               8.82293968                0.76889524               14.80343936                0.63818244                0.60695919                0.46355251               -1.51416174                0.23786223                1.50129238                1.16162240
               9.82864285                0.68999672               14.71361547                1.00000000                0.62919500                0.60437048               -2.00352777                0.02352902                0.48982556                0.56834812
              10.83552358                0.61114077               14.61737716                1.00000000                0.68807289                0.76088764               -2.53841115               -0.05141328                0.17521543               -0.66600385
               0.90643479                2.34610908               15.28334134                1.00000000               -0.43140945               -0.52338952                1.71348416               -0.04485829                0.14721706                1.38198687
               1.90212069                2.26376772               15.17704010                0.79169859               -0.35113912               -0.34748027                1.17138461               -0.00963798                0.24969204               -0.30418903
               2.89941200                2.18076105               15.07272800                0.10138109               -0.23909941               -0.18542172                0.65194950                0.17508674                1.56179943               -1.98779075
               3.89733870                2.10043548               14.99264427                0.00010000               -0.20417787                0.13696237                0.21072935                1.27840121                6.41603197               -1.24744530
               4.89532845                2.03645947               14.98544117                0.00010000               -0.16327175                0.44069733                0.02245119                2.30092582                9.61609688                0.55510339
               5.89407327                1.97240050               14.97023385                0.00010000                0.03332055                0.19500946               -0.23727189                2.44641503                9.06684244                0.87119212
               6.89599486                1.90973080               14.95267602                0.00010000                0.24898822               -0.06696654               -0.50497124                2.31486529                8.72868090                1.20090110
               7.89905303                1.84803198               14.93159265                0.09031537                0.33962416                0.14990473               -0.76721210                1.37924459                5.72467345                2.74388114
               8.90278734                1.77321389               14.85492128                0.35168174                0.40550814                0.41026905               -1.18385726                0.30498590                2.19237122                2.98561966
               9.90716320                1.69560364               14.76313097                0.85225890                0.51607691                0.52532503               -1.69786242                0.03863101                0.83662252                1.11566254
              10.91310888                1.61831461               14.65918983                1.00000000                0.59456830                0.67565447               -2.27142934               -0.04359284                0.23450497               -0.59672036
               0.98742224                3.34115834               15.25410806                1.00000000               -0.36031484               -0.46284204                1.50853249               -0.04835173                0.04244223                1.28607301
               1.98381909                3.26062207               15.13810000                0.74158141               -0.27498228               -0.27662873                0.91547499               -0.01362291                0.11297623               -0.50695158
               2.98192259                3.17937247               15.02344629                0.07668564               -0.14578254               -0.09264114                0.33427622                0.35434370                3.70171978               -2.35565448
               3.98090344                3.10453011               14.97920130                0.00010000               -0.10537845                0.35819442                0.18482361                1.27320917                9.52725394                0.08839406
               4.97981503                3.03897113               14.98166478                0.00010000               -0.06716160                0.21855763                0.00782548                1.85192185               11.84768998                0.38923695
               5.97956021                2.97417390               14.98480178                0.00010000               -0.00956499                0.14807640               -0.14582872                1.97127261               11.72610200                1.20651181
               6.97962373                2.91050714               14.98582256                0.00010000                0.05226278                0.06694041               -0.31303243                1.91276462               11.30696851                2.16007356
               7.98060546                2.84753272               14.98145772                0.09497442                0.09220048                0.01128109               -0.51063368                1.33681057                8.53207249                3.28307300
               8.98146774                2.77710062               14.92764372                0.34527682                0.18546439                0.30608860               -0.73219285                0.41356014                3.21376969                3.52877933
               9.98431475                2.70050322               14.81712891                0.80962224                0.38810227                0.43966004               -1.34570735                0.01372262                0.21603313                1.21945891
              10.98922978                2.62465386               14.70314962                1.00000000                0.49150284                0.59479978               -1.98818136               -0.04724081                0.04722069               -0.51300082
               1.06654029                4.33685224               15.22366731                1.00000000               -0.29061857               -0.39580676                1.29336001               -0.04706031                0.02114356                1.20962689
               2.06363410                4.25823515               15.09879535                0.71666566               -0.19747241               -0.20107352                0.66059627               -0.01244777                0.06626874               -0.52892361
               3.06259084                4.17890823               14.97476847                0.06589715               -0.02149385               -0.00488702                0.03350495                0.43800752                5.67465466               -2.28333044
               4.06320423                4.10759937               14.96205401                0.00010000                0.00661240                0.26107260                0.06014309                1.21664146               12.78910347               -0.25865855
               5.06272309                4.04083062               14.98133778                0.00010000               -0.06207579                0.17212116                0.00434758                1.56721805               14.42619693                0.54937932
               6.06196271                3.97536203               15.00262594                0.00010000               -0.09158775                0.09985724               -0.04547291                1.63717983               14.47058521                1.44556758
               7.06089133                3.91106961               15.02401010                0.00010000               -0.13834726                0.04057650               -0.10376889                1.63287540               14.40004220                2.55580272
               8.05919577                3.84825760               15.04492820                0.10510935               -0.14016467                0.05165592               -0.18648015                1.14577803               10.56582264                4.04371616
               9.05808804                3.77933566               14.99041320                0.36162463                0.03443208                0.14912284               -0.32717481                0.37231562                3.42189354                2.72811650
              10.05988441                3.70439684               14.86870673                0.83445938                0.28873713                0.33216249               -1.00619397                0.00732579                0.03578435                0.96885136
              11.06386278                3.63021060               14.74630717                1.00000000                0.39783761                0.51535214               -1.69731716               -0.04722087                0.00498433               -0.63292755
               1.14371523                5.33324221               15.19286117                1.00000000               -0.22010762               -0.32600875                1.07580156               -0.04643227                0.02113392                1.18071507
               2.14151415                5.25660060               15.05935054                0.69209874               -0.11983543               -0.12529735                0.40332693               -0.00999131                0.07362713               -0.54278977
               3.14131852                5.17927473               14.92683192                0.05536121                0.08998590                0.07845670               -0.26392971                0.43047673                7.52338531               -2.24269217
               4.14331387                5.10975156               14.94231316                0.00010000                0.10391040                0.20559904               -0.09017283                1.06510020               16.02541650               -0.43465731
               5.14339673                5.04241355               14.98120838                0.00010000               -0.06245239                0.14821765               -0.01445625                1.27550628               17.23097768                0.51850027
               6.14206482                4.97617105               15.02241059                0.00010000               -0.20055337                0.06782401                0.06247794                1.33728302               17.36891936                1.54212387
               7.13938566                4.91131867               15.06558484                0.00010000               -0.34049274               -0.00174731                0.13080653                1.34959661               17.49857370                2.73387619
               8.13525497                4.84856583               15.11068119                0.11507268               -0.33054267               -0.03104627                0.17704221                0.92644553               12.13176520                4.12996865
               9.13277481                4.78008307               15.04751235                0.37781552               -0.08343206                0.00829444                0.05389748                0.28996135                3.36756161                2.31865547
              10.13358633                4.70714647               14.91768025                0.86041231                0.19415125                0.22015918               -0.67443886                0.00663330                0.02236813                0.75571374
              11.13665783                4.63496090               14.78748562                1.00000000                0.30715057                0.43266498               -1.41013081               -0.04550117                0.00809664               -0.79090079
               1.21889485                6.33033207               15.16180750                1.00000000               -0.14930991               -0.25651845                0.85684718               -0.04534008                0.02450471                1.15537462
               2.21740175                6.25572920               15.01970855                0.66679492               -0.04227174               -0.04853885                0.14495919               -0.00688362                0.09089232               -0.56378633
               3.21804942                6.18047736               14.87888032                0.04459649                0.19828271                0.16350278               -0.56178141                0.36867442                9.35071067               -2.24983950
               4.22136741                6.11171135               14.92198083                0.00010000                0.18821555                0.20419998               -0.26076665                0.86580125               19.23331508               -0.54036267
               5.22181373                6.04379498               14.98055515                0.00010000               -0.07820761                0.13806542               -0.04134126                0.98443733               20.07732593                0.43505865
               6.21980326                5.97671851               15.04250982                0.00010000               -0.31626254                0.04431612                0.17417182                1.02496389               20.31914238                1.49575384
               7.21548848                5.91103466               15.10782141                0.00010000               -0.54214919               -0.06133716                0.38377650                1.04142154               20.57503810                2.69975833
               8.20896027                5.84763667               15.17654743                0.12473133               -0.50909218               -0.16569880                0.57913863                0.67296588               13.53543836                4.08009654
               9.20530663                5.77950155               15.10237698                0.39322164               -0.19105121               -0.11969692                0.42258139                0.19282956                3.20638998                2.13824408
              10.20513925                5.70880002               14.96494881                0.88483953                0.10086306                0.11292966               -0.35020496                0.00531082                0.02724243                0.62325090
              11.20732390                5.63886390               14.82710902                1.00000000                0.21846485                0.34783245               -1.12810397               -0.04440426                0.01045051               -0.89464292
               1.29201417                7.32811184               15.13046572                1.00000000               -0.07829784               -0.18884886                0.63762477               -0.04395369                0.02677748                1.12376479
               2.29123119                7.25562982               14.97978526                0.64078231                0.03478451                0.02917711               -0.11315383               -0.00307428                0.11008310               -0.59090522
               3.29270986                7.18254479               14.83071574                0.03365166                0.30405448                0.25199566               -0.85869408                0.26738282               11.11844513               -2.26670719
               4.29731228                7.11383556               14.90020940                0.00010000                0.26842304                0.22484231               -0.43873667                0.62092323               22.39713181               -0.68226070
               5.29807832                7.04517486               14.97879735                0.00010000               -0.09939303                0.14091008               -0.07242737                0.69066271               22.94091005                0.31250422
               6.29532442                6.97705737               15.06152623                0.00010000               -0.43911964                0.03371067                0.28589980                0.70185680               23.27179130                1.32153789
               7.28929593                6.91009193               15.14907919                0.00010000               -0.75385116               -0.11614438                0.64577424                0.67945752               23.66827588                2.49427639
               8.28024740                6.84525186               15.24185132                0.13413466               -0.69139376               -0.30606053                1.00808014                0.38093164               14.91555948                3.94667827
               9.27546805                6.77768914               15.15609257                0.40790430               -0.29586012               -0.23927048                0.78130152                0.09583822                3.00903338                2.03884227
              10.27433019                6.70940506               15.01121113                0.90779253                0.00869679                0.01005730               -0.03291363                0.00320204                0.03163812                0.55587201
              11.27564199                6.64191755               14.86585573                1.00000000                0.13117937                0.26413466               -0.85158250               -0.04399595                0.01156899               -0.93447863
               1.36297980                8.32655509               15.09875120                1.00000000               -0.00724839               -0.12474424                0.41893784               -0.04230577                0.03308598                1.08932125
               2.36290732                8.25631274               14.93954458                0.61435480                0.11057682                0.10868170               -0.36975222                0.00057668                0.13617550               -0.63095767
               3.36519134                8.18551727               14.78234716                0.02269154                0.41242385                0.34369323               -1.15234780                0.12524700               12.82093647               -2.22017376
               4.37115580                8.11620820               14.87684255                0.00010000                0.36069171                0.23342714               -0.60887901                0.33318951               25.49741465               -0.72433839
               5.37240517                8.04661318               14.97542072                0.00010000               -0.11162346                0.13224192               -0.10416651                0.42086528               25.76985293                0.18680428
               6.36892333                7.97739272               15.07802828                0.00010000               -0.57610176                0.05430977                0.39039531                0.40467481               26.16610448                1.00989046
               7.36088314                7.90871177               15.18737771                0.00010000               -0.99708161               -0.11232457                0.90021098                0.27716667               26.80211201                2.01629712
               8.34898169                7.84151546               15.30546225                0.14347707               -0.89064712               -0.41731979                1.44180067                0.03200444               16.39981801                3.56214509
               9.34307020                7.77471614               15.20916352                0.42220329               -0.40034101               -0.35102631                1.13126338               -0.00362322                2.86407190                1.91221761
              10.34097487                7.70900117               15.05707450                0.92979931               -0.08255976               -0.08974472                0.27911350               -0.00082392                0.04375580                0.55455268
              11.34141900                7.64414659               14.90436138                1.00000000                0.04441264                0.18315800               -0.57929394               -0.04419919                0.01594461               -0.92673672
               1.43165276                9.32561695               15.06668598                1.00000000                0.06277874               -0.06490618                0.20230620               -0.04083868                0.02023442                0.90478277
               2.43228054                9.25780346               14.89876866                0.58806857                0.18332944                0.18990003               -0.62508483                0.00246619                0.23261147               -0.58832731
               3.43531934                9.18941865               14.73504955                0.01198873                0.52998112                0.43042211               -1.43420631               -0.07794320               14.56212250               -1.69837957
               4.44288017                9.11850410               14.85372810                0.00010000                0.49958790                0.16429469               -0.75818946                0.07074817               28.48404481               -0.47547809
               5.44531110                9.04781970               14.97049730                0.00010000               -0.07804211                0.11778961               -0.13389526                0.20193368               28.40933535                0.09117718
               6.44131932                8.97814356               15.09031000                0.00010000               -0.72972917                0.08023960                0.47717895                0.18534178               28.84649108                0.55967248
               7.43071652                8.90784543               15.21896533                0.00010000               -1.32181032                0.00556750                1.11850254               -0.03166167               29.88509035                1.14589722
               8.41488312                8.83690546               15.36332166                0.15307576               -1.14033179               -0.42486182                1.84149500               -0.25920018               18.12365036                2.32961034
               9.40790988                8.77066861               15.26052169                0.43673695               -0.49999271               -0.44395164                1.46645288               -0.11137012                3.01257705                1.36011507
              10.40488326                8.70761017               15.10327189                0.95188050               -0.17213673               -0.18665563                0.59034253               -0.00739443                0.13749250                0.51540125
              11.40446715                8.64558071               14.94299614                1.00000000               -0.04161139                0.10371239               -0.30939794               -0.04591786               -0.01065445               -0.76577219
               1.49779002               10.32525697               15.03123376                1.00000000                0.13649289               -0.03599835               -0.02176897                0.09910340                0.48121245                0.73839842
               2.49915494               10.26011074               14.85933666                0.78584817                0.25709080                0.23072831               -0.86923782                0.13087760                0.96546464               -0.51933013
               3.50293183               10.19412572               14.69708139                0.50270679                0.75073824                0.47070659               -1.66630277               -0.26958380               16.43457006               -1.23151785
               4.51416971               10.11949409               14.83458438                0.43877996                0.69362767                0.09899878               -0.87320961               -0.12888279               30.97431486               -0.24031483
               5.51680439               10.04896897               14.96423438                0.43241899               -0.07826411                0.11492710               -0.16164828                0.12449939               30.63080689                0.07466815
               6.51260443                9.97899751               15.09676874                0.45320198               -0.76581895                0.08539474                0.53739937                0.12121799               31.12467813                0.33577810
               7.50148801                9.90882312               15.23914015                0.49874845               -1.58149557                0.09776869                1.27210498               -0.22181559               32.44461235                0.67071652
               8.48097452                9.83301822               15.40220987                0.57979910               -1.56749584               -0.38872383                2.11396889               -0.54016075               20.02921853                1.43056102
               9.47013809                9.76583711               15.30270354                0.72321599               -0.75298152               -0.48315022                1.75048034               -0.16468793                4.04837754                0.89683275
              10.46591489                9.70526805               15.14833796                0.98311904               -0.27892654               -0.23421141                0.89450616                0.12234904                0.82651497                0.45886902
              11.46455956                9.64622084               14.98451930                1.00000000               -0.13553272                0.06401316               -0.02332354                0.10451983                0.35665088               -0.61392505
               0.83202126                0.40165111               16.36667250                1.00000000               -0.54675928               -0.61038231                2.11979862               -0.12237441               -0.88773135                0.93817364
               1.82655367                0.30712805               16.26257934                1.00000000               -0.45231232               -0.44876573                1.60561075               -0.08230229               -0.90239512               -0.03229631
               2.82297501                0.21236771               16.15818889                0.70368903               -0.16826722               -0.30935290                1.08920724                0.05814985               -0.59792386               -0.84494519
               3.82318832                0.12059721               16.06027709                0.52102579                0.26361100               -0.17492315                0.58303248                0.24889457                1.16127283               -0.09823873
               4.82824723                0.03799660               15.99161229                0.44814386                0.51510769               -0.06950510                0.11538998                0.22646257                4.02738041               -0.08703227
               5.83349047               -0.03393907               15.95246769                0.45293306                0.28354053                0.05208548               -0.33420846                0.09777661                5.34303634               -0.00106905
               6.83391804               -0.10461989               15.91140554                0.52837229               -0.01695058                0.19875154               -0.77618728                0.16545679                3.84589241                0.07026278
               7.83315146               -0.18325785               15.84219447                0.68403403                0.07269006                0.34778259               -1.25019653                0.16983458                1.31008057                0.11782557
               8.83537184               -0.26944909               15.74960756                0.94732346                0.38918643                0.50217811               -1.76707374                0.05206456               -0.30648067                0.41191089
               9.84093519               -0.35852467               15.64748247                1.00000000                0.65676559                0.65487399               -2.31227545               -0.07083175               -0.72251430                0.26095685
              10.84850716               -0.44755012               15.54633073                1.00000000                0.75719635                0.81278854               -2.83663918               -0.13131185               -0.66523858               -0.67120833
               0.92532057                1.39554729               16.33088164                1.00000000               -0.49482288               -0.57987367                1.90363207               -0.04320374               -0.05052151                1.20649095
               1.92037234                1.30264040               16.22612231                1.00000000               -0.42493182               -0.41335991                1.38653049               -0.00698495                0.01756734               -0.07831662
               2.91682193                1.20927418               16.12267714                0.26057777               -0.37547592               -0.26854144                0.87422912                0.16163824                1.20401235               -1.23887486
               3.91286282                1.11884798               16.04159915                0.00010000               -0.45209670               -0.15099585                0.45028733                0.63852793                3.47471101               -1.50226270
               4.90778000                1.03730155               15.98334054                0.00010000               -0.35431678                0.24882383                0.03800206                1.25119476                6.20178365                0.45609365
               5.90577649                0.96658178               15.95631948                0.00010000                0.12260008                0.12089778               -0.33483916                1.52971803                7.64605248                0.40061552
               6.91023200                0.89736763               15.92711442                0.00525751                0.57439625                0.00103484               -0.69567651                1.26279039                6.00983690                0.32193120
               7.91726441                0.82021997               15.86852244                0.23071392                0.66469479                0.34550455               -1.09672694                0.66003549                3.39981419                1.57479782
               8.92352590                0.73557269               15.78816148                0.63074105                0.60064869                0.46795878               -1.54168449                0.21722420                1.57604623                1.23161472
               9.92927739                0.64802407               15.69346376                1.00000000                0.63467942                0.60990720               -2.02697787                0.02187679                0.51956638                0.59787868
              10.93621948                0.56057777               15.59188035                1.00000000                0.69420992                0.77081466               -2.56109820               -0.05158176                0.18142299               -0.71589678
               1.01697096                2.39005364               16.30042288                1.00000000               -0.42838937               -0.52100932                1.70461369               -0.04451356                0.15840453                1.43381141
               2.01268707                2.29886086               16.18871501                0.77973720               -0.34853832               -0.34449067                1.16179252               -0.00949070                0.27220136               -0.32832271
               3.01000020                2.20699688               16.07923060                0.09931713               -0.23777780               -0.17969930                0.64392238                0.16241057                1.63739323               -2.08220354
               4.00793151                2.11757729               15.99477167                0.00010000               -0.22314362                0.12365970                0.21560483                1.15863223                6.65962932               -1.24337285
               5.00553732                2.04297308               15.98568727                0.00010000               -0.19563761                0.39444706                0.02624821                2.08296029                9.95748486                0.60467907
               6.00401876                1.96847888               15.96784349                0.00010000               -0.00008321                0.16940315               -0.24174523                2.22438550                9.37721717                0.95615519
               7.00553566                1.89540081               15.94756163                0.00010000                0.20641760               -0.06778407               -0.51899574                2.12241564                9.04480925                1.30501770
               8.00814711                1.82365224               15.92378632                0.08895284                0.31882841                0.13461913               -0.79466240                1.27231499                5.97797564                2.87467117
               9.01191223                1.73991008               15.84297223                0.34706310                0.41102665                0.39880591               -1.20635746                0.27402533                2.32362780                3.16984423
              10.01636765                1.65367348               15.74604815                0.83737599                0.52279483                0.52720807               -1.71889427                0.03135097                0.88842058                1.17988055
              11.02236812                1.56786618               15.63636668                1.00000000                0.60004790                0.69001817               -2.29327444               -0.04630122                0.25608209               -0.64214760
               1.10681586                3.38512710               16.26913815                1.00000000               -0.35765801               -0.46062084                1.49875338               -0.04706902                0.04219525                1.32939702
               2.10323928                3.29575058               16.14721402                0.73033118               -0.27310751               -0.27337057                0.90745408               -0.01151554                0.11842949               -0.54744226
               3.10135371                3.20568020               16.02676445                0.07503736               -0.15900031               -0.08674485                0.32853284                0.32203567                3.93412797               -2.48759381
               4.10005927                3.12132117               15.98112472                0.00010000               -0.14080467                0.32283196                0.19897849                1.12909849                9.96427779                0.13641182
               5.09853761                3.04519049               15.98177167                0.00010000               -0.11114022                0.19127784                0.01267998                1.65284834               12.28715403                0.43647391
               6.09783647                2.96996984               15.98333989                0.00010000               -0.05153284                0.12165417               -0.14786506                1.77180391               12.18107103                1.29018037
               7.09750696                2.89601194               15.98264702                0.00010000                0.01824848                0.04448834               -0.32371055                1.72522473               11.74975642                2.27817570
               8.09820144                2.82291235               15.97626293                0.09342053                0.07391029               -0.01919918               -0.53056916                1.22311896                8.96083445                3.42166838
               9.09898516                2.74354880               15.92026342                0.34067188                0.18734359                0.28219561               -0.74401889                0.38074856                3.44183686                3.74262722
              10.10194831                2.65856823               15.80358791                0.79569497                0.39614466                0.43895710               -1.36243161                0.01089968                0.23309435                1.29796502
              11.10690806                2.57437813               15.68315852                1.00000000                0.49597479                0.61317960               -2.00980669               -0.04877318                0.04993332               -0.54523616
               1.19478261                4.38084122               16.23654491                1.00000000               -0.28789554               -0.39406023                1.28343930               -0.04593527                0.02102900                1.24628964
               2.19190366                4.29339344               16.10536477                0.70544357               -0.19561469               -0.19817917                0.65320700               -0.00996165                0.06884432               -0.57067765
               3.19087032                4.20526199               15.97508906                0.06426288               -0.04502358               -0.00055098                0.02951978                0.38583449                6.00979966               -2.40604823
               4.19100319                4.12403393               15.96270127                0.00010000               -0.04623517                0.23376506                0.06857657                1.06253694               13.41463750               -0.28310941
               5.18994562                4.04679864               15.98141241                0.00010000               -0.11849010                0.15096634                0.00928032                1.37238486               15.02049218                0.58817351
               6.18863339                3.97091196               16.00217275                0.00010000               -0.14239871                0.07752635               -0.04686672                1.43656111               15.07428852                1.53126448
               7.18709764                3.89629057               16.02293623                0.00010000               -0.17803775                0.01256647               -0.11312401                1.43304418               14.99891898                2.68881714
               8.18507263                3.82326825               16.04298636                0.10322697               -0.16131616                0.01444805               -0.20459255                1.01594563               11.14059842                4.22644862
               9.18387132                3.74555399               15.98709765                0.35634948                0.03418402                0.12909222               -0.33554748                0.34131049                3.70618135                2.89781303
              10.18575631                3.66245262               15.85856673                0.81930093                0.29507703                0.33211477               -1.02123530                0.00657540                0.04294594                1.03341225
              11.18977286                3.58012977               15.72921907                1.00000000                0.40165495                0.53435016               -1.71948281               -0.04704630                0.00593165               -0.66259318
               1.28079270                5.37724589               16.20356299                1.00000000               -0.21734255               -0.32467297                1.06569183               -0.04555438                0.02064379                1.21499874
               2.27861928                5.29178700               16.06334999                0.68109509               -0.11813959               -0.12246725                0.39631011               -0.00783398                0.07571312               -0.58668382
               3.27842991                5.20566918               15.92418531                0.05381718                0.05770426                0.08263356               -0.26693435                0.36568578                7.95002727               -2.36456348
               4.27977336                5.12599647               15.94143942                0.00010000                0.03386835                0.19348019               -0.08577070                0.89988811               16.82989851               -0.48483156
               5.27910728                5.04820982               15.98109020                0.00010000               -0.13488058                0.13758342               -0.01090520                1.07780059               17.99627143                0.54049133
               6.27707575                4.97152037               16.02303755                0.00010000               -0.26478621                0.05242197                0.06077373                1.12508056               18.14179561                1.62770622
               7.27381155                4.89626327               16.06685429                0.00010000               -0.39094101               -0.02639516                0.12060735                1.12970327               18.26883989                2.88173863
               8.26925693                4.82320131               16.11235784                0.11297271               -0.35922724               -0.06547261                0.15558632                0.78488837               12.82711197                4.34238158
               9.26662701                4.74613065               16.04802010                0.37208138               -0.08764445               -0.00694131                0.04823402                0.25973434                3.68262694                2.46483685
              10.26750404                4.66521053               15.91086215                0.84432184                0.19929097                0.22146765               -0.68831522                0.00568668                0.02664630                0.80998252
              11.27061283                4.58506514               15.77326230                1.00000000                0.31087866                0.45058418               -1.43333555               -0.04534623                0.00821689               -0.82502372
               1.36478932                6.37434776               16.17031947                1.00000000               -0.14656214               -0.25531593                0.84658099               -0.04471493                0.02361064                1.18843702
               2.36332370                6.29094410               16.02112691                0.65628736               -0.04073772               -0.04570111                0.13830613               -0.00513800                0.09260532               -0.60820781
               3.36397456                6.20691466               15.87326101                0.04325775                0.15683063                0.16773997               -0.56384852                0.29797092                9.85981895               -2.37140439
               4.36646031                6.12790353               15.91939857                0.00010000                0.10015837                0.20633021               -0.25753637                0.69533757               20.21372540               -0.60510104
               5.36597773                6.04955030               15.98016815                0.00010000               -0.16893837                0.14209350               -0.03834533                0.78212389               21.02533666                0.44738935
               6.36308154                5.97196040               16.04425398                0.00010000               -0.39834835                0.04053004                0.17200861                0.79848954               21.27426357                1.57794562
               7.35801076                5.89576267               16.11161536                0.00010000               -0.60892595               -0.07799155                0.37209955                0.80035509               21.53333512                2.85486942
               8.35090302                5.82195880               16.18222396                0.12254778               -0.54769851               -0.19322885                0.55322726                0.51844932               14.33463335                4.31810483
               9.34705679                5.74541517               16.10659046                0.38730466               -0.19837321               -0.13196163                0.42051212                0.16326877                3.52730202                2.26972356
              10.34693556                5.66688197               15.96138203                0.86832553                0.10499633                0.11477458               -0.36233487                0.00401397                0.03006629                0.66839068
              11.34915672                5.58914145               15.81570352                1.00000000                0.22211622                0.36423210               -1.15173816               -0.04443341                0.01013566               -0.93440751
               1.44670572                7.37213958               16.13678545                1.00000000               -0.07561065               -0.18749459                0.62728388               -0.04359227                0.02559551                1.15663618
               2.44594962                7.29087298               15.97862493                0.63102523                0.03620843                0.03192971               -0.11947466               -0.00175759                0.11164596               -0.63440760
               3.44742989                7.20902398               15.82213277                0.03262187                0.25474248                0.25588191               -0.85990472                0.19828633               11.70638469               -2.38577657
               4.45104447                7.13012308               15.89585513                0.00010000                0.16314962                0.24221153               -0.43462667                0.45843510               23.55130765               -0.74688554
               5.45069289                7.05105169               15.97810441                0.00010000               -0.21056470                0.16271598               -0.06904536                0.49106236               24.07554924                0.31973530
               6.44683317                6.97233097               16.06439090                0.00010000               -0.54363134                0.04679260                0.28381749                0.46648281               24.41612385                1.39544685
               7.43982026                6.89470344               16.15549223                0.00010000               -0.84298767               -0.12042204                0.63335929                0.42022035               24.82814969                2.64459800
               8.42997342                6.81933674               16.25180752                0.13199297               -0.74255223               -0.32494446                0.97957762                0.21286370               15.80784843                4.19581908
               9.42496921                6.74349142               16.16391851                0.40205859               -0.30576926               -0.24955396                0.78385416                0.06543957                3.31724665                2.15881002
              10.42385804                6.66750602               16.01083228                0.89132651                0.01179907                0.01168672               -0.04236729                0.00152701                0.03400356                0.59362246
              11.42520520                6.59234978               15.85721873                1.00000000                0.13471603                0.27827438               -0.87474176               -0.04417306                0.01112324               -0.97965288
               1.52645067                8.37059787               16.10288442                1.00000000               -0.00465271               -0.12293725                0.40858863               -0.04219450                0.03203788                1.12317797
               2.52640414                8.29158269               15.93582028                0.60552696                0.11197602                0.11122254               -0.37583826                0.00147606                0.13844164               -0.67292881
               3.52869019                8.21203230               15.77083272                0.02203823                0.35985781                0.34667792               -1.15283204                0.06608170               13.49042909               -2.33108036
               4.53360130                8.13274777               15.87079483                0.00010000                0.24504461                0.26471063               -0.60370125                0.19740270               26.82389996               -0.77482897
               5.53359108                8.05280462               15.97441697                0.00010000               -0.24209281                0.17147550               -0.10000839                0.24479888               27.08519749                0.19215009
               6.52875944                7.97289626               16.08194334                0.00010000               -0.70908394                0.09096540                0.38886056                0.18362672               27.49837995                1.06695160
               7.51940940                7.89335423               16.19633950                0.00010000               -1.11935603               -0.09351890                0.88811386                0.01333689               28.17107703                2.14011316
               8.50637232                7.81545991               16.31975880                0.14145484               -0.96065504               -0.42256534                1.41325373               -0.15337823               17.38409114                3.79425508
               9.50019630                7.74042409               16.22051857                0.41660137               -0.41322926               -0.35957757                1.13913679               -0.03800849                3.15355446                2.01938958
              10.49810774                7.66711570               16.05983537                0.91371719               -0.08052803               -0.08874852                0.27299923               -0.00286994                0.04750594                0.58846142
              11.49858574                7.59470694               15.89845454                1.00000000                0.04780055                0.19443101               -0.60132746               -0.04441777                0.01601809               -0.97591882
               1.60389218                9.36968083               16.06865388                1.00000000                0.06525270               -0.06249705                0.19207995               -0.04085511                0.01770050                0.93569345
               2.60454471                9.29309743               15.89249193                0.58020259                0.18471356                0.19215167               -0.63114893                0.00299894                0.23966883               -0.62372327
               3.60758646                9.21595754               15.72071956                0.01172128                0.48377420                0.43220505               -1.43436928               -0.12044970               15.32214299               -1.77760344
               4.61422020                9.13541729               15.84619122                0.00010000                0.39269586                0.19913711               -0.75256501               -0.01135234               29.97974345               -0.49968917
               5.61544037                9.05448120               15.96920179                0.00010000               -0.21320467                0.16539819               -0.12904454                0.09027897               29.89218548                0.09444039
               6.60995610                8.97415028               16.09509753                0.00010000               -0.89585153                0.13850419                0.47615322                0.03566170               30.35350922                0.59048038
               7.59752334                8.89283306               16.23011411                0.00010000               -1.50600516                0.07068052                1.10681642               -0.23507265               31.45959380                1.21601254
               8.57983600                8.81088543               16.38162435                0.15117167               -1.24850453               -0.39683672                1.81441292               -0.43372758               19.21094905                2.48055012
               9.57255325                8.73629987               16.27525808                0.43139055               -0.51591069               -0.44982731                1.47952243               -0.15483306                3.29970357                1.43329617
              10.56951778                8.66573105               16.10916439                0.93624125               -0.17094408               -0.18619953                0.58749720               -0.00974513                0.14904758                0.54473921
              11.56913437                8.59623840               15.93979621                1.00000000               -0.03834149                0.11224701               -0.33027948               -0.04609803               -0.01133509               -0.80880899
               1.67880038               10.36934793               16.03096425                1.00000000                0.13870430               -0.03329046               -0.03142889                0.09859907                0.49468156                0.76524675
               2.68018742               10.29542573               15.85061948                0.78218186                0.25804807                0.23282984               -0.87519629                0.13069422                1.00475484               -0.54856007
               3.68396134               10.22067640               15.68043085                0.50267736                0.73315861                0.47188616               -1.66646424               -0.29727284               17.29583431               -1.28453567
               4.69485059               10.13673051               15.82590321                0.43942597                0.63511680                0.13132187               -0.86660699               -0.16515101               32.63052637               -0.25657816
               5.69666367               10.05611259               15.96266639                0.43265732               -0.18648895                0.16313885               -0.15603298                0.06912162               32.26405171                0.07364006
               6.69112081                9.97566634               16.10215929                0.45305631               -0.93454363                0.15160610                0.53629773                0.04923362               32.78485709                0.35019885
               7.67797280                9.89476784               16.25182074                0.49832765               -1.84449201                0.19347756                1.25941629               -0.36221237               34.18417580                0.70748778
               8.65423097                9.80752318               16.42323028                0.57886537               -1.78593875               -0.33622540                2.08539828               -0.72751769               21.23408247                1.52316675
               9.64225402                9.73142754               16.32028837                0.72058996               -0.81283342               -0.48723236                1.76486492               -0.23649580                4.39409692                0.94419278
              10.63797430                9.66339171               16.15728220                0.97538449               -0.28024697               -0.23393350                0.89330992                0.12186873                0.88092983                0.48463614
              11.63664909                9.59695188               15.98418448                1.00000000               -0.13252174                0.07134824               -0.04368401                0.10748816                0.37949551               -0.64924443
               0.92961903                0.44809621               17.38784221                1.00000000               -0.54679919               -0.60906453                2.11461602               -0.12248139               -0.92444122                0.97649673
               1.92415103                0.34434552               17.27862185                1.00000000               -0.45489541               -0.44758546                1.60350757               -0.08157193               -0.94054419               -0.03673327
               2.92052112                0.24032752               17.16908481                0.70157707               -0.18544003               -0.30658218                1.08931608                0.04822498               -0.63317129               -0.88221686
               3.92044223                0.13896820               17.06612765                0.52096794                0.21175779               -0.17171740                0.58655221                0.21507028                1.14456286               -0.09640001
               4.92475627                0.04578407               16.99278523                0.44835944                0.44561805               -0.05799957                0.11773359                0.19458894                4.03155732               -0.08813671
               5.92935459               -0.03778122               16.94909297                0.45279913                0.25588268                0.06914492               -0.34186024                0.08036333                5.35732759                0.00198829
               6.92987393               -0.12000028               16.90355042                0.52752393                0.00952081                0.21292874               -0.79540194                0.13987003                3.85474702                0.07597758
               7.92954501               -0.20913933               16.82957019                0.68179293                0.11003306                0.35780557               -1.27484764                0.14446339                1.29046693                0.12511419
               8.93207459               -0.30492678               16.73180936                0.94206247                0.41098398                0.50896447               -1.79254157                0.04007341               -0.35705142                0.42861569
               9.93776469               -0.40322723               16.62422950                1.00000000                0.66746773                0.66158408               -2.33829385               -0.06992671               -0.77512939                0.28112182
              10.94542394               -0.50142655               16.51784547                1.00000000                0.76592529                0.82134365               -2.86043180               -0.13043916               -0.70652766               -0.71956695
               1.03214490                1.44200557               17.34988875                1.00000000               -0.49252398               -0.57837023                1.89874530               -0.04361080               -0.05348964                1.25216586
               2.02721966                1.33986967               17.23995022                0.99566581               -0.42264351               -0.41179822                1.38113984               -0.00689515                0.01784080               -0.08627852
               3.02369203                1.23726170               17.13140195                0.25717217               -0.36775016               -0.26489256                0.87558496                0.14817231                1.25153013               -1.28477689
               4.01986466                1.13725102               17.04612426                0.00010000               -0.43075796               -0.14628708                0.45597696                0.57873820                3.57423473               -1.55199222
               5.01507687                1.04520408               16.98373329                0.00010000               -0.34071265                0.21689259                0.04073915                1.11546286                6.33232755                0.48680487
               6.01305041                0.96291023               16.95292389                0.00010000                0.09374030                0.11422056               -0.34445158                1.36567948                7.81148866                0.45010437
               7.01695168                0.88212900               16.92004346                0.00415568                0.52012438                0.01494204               -0.71862505                1.13013926                6.16786611                0.37744335
               8.02345289                0.79443873               16.85741451                0.22772135                0.62837981                0.34621160               -1.12487872                0.58453978                3.51793292                1.65692913
               9.02951927                0.70016286               16.77260567                0.62282634                0.59312065                0.47178066               -1.56952922                0.19366824                1.65250080                1.30489096
              10.03531531                0.60338861               16.67307591                1.00000000                0.63997960                0.61521668               -2.05063893                0.01982469                0.55112834                0.62928335
              11.04231887                0.50678689               16.56615520                1.00000000                0.70035606                0.78100136               -2.58404442               -0.05169579                0.18771319               -0.76798823
               1.13301861                2.43652881               17.31743361                1.00000000               -0.42616062               -0.51906579                1.69920410               -0.04345037                0.16630828                1.48319472
               2.12875700                2.33610956               17.20027595                0.76752485               -0.34576985               -0.34230987                1.15120172               -0.00787148                0.29217915               -0.35339765
               3.12610321                2.23502967               17.08560645                0.09712550               -0.23411929               -0.17497851                0.63066987                0.14676592                1.71904919               -2.17681391
               4.12407462                2.13604245               16.99695637                0.00010000               -0.23484424                0.10388632                0.22359464                1.02046887                6.90707753               -1.23540196
               5.12140633                2.05012193               16.98596614                0.00010000               -0.21656798                0.33856940                0.02895136                1.83633977               10.29124836                0.65595189
               6.11974326                1.96450319               16.96539895                0.00010000               -0.02290592                0.13690134               -0.24799244                1.97162570                9.67761867                1.04677830
               7.12094821                1.88029856               16.94229611                0.00010000                0.17293447               -0.07164765               -0.53504915                1.90129287                9.35014917                1.41811954
               8.12320195                1.79778491               16.91569940                0.08749597                0.30249323                0.11636571               -0.82302729                1.14815659                6.22931255                3.01237171
               9.12699807                1.70450883               16.83079413                0.34225030                0.41676062                0.38324380               -1.22947128                0.23762082                2.46025378                3.36381383
              10.13153716                1.60907710               16.72875309                0.82225718                0.52976968                0.52776620               -1.74025562                0.02254390                0.94264647                1.24707397
              11.13759347                1.51419348               16.61332434                1.00000000                0.60563078                0.70549234               -2.31528234               -0.04994460                0.27889315               -0.69006527
               1.23211439                3.43162425               17.28408312                1.00000000               -0.35530199               -0.45878065                1.49131797               -0.04495111                0.04236531                1.37031599
               2.22856137                3.33302347               17.15624908                0.71899527               -0.27099692               -0.27119672                0.90015496               -0.00761467                0.12462360               -0.58750167
               3.22669446                3.23376213               17.03001694                0.07332890               -0.16897977               -0.08316329                0.32281743                0.28262003                4.17647606               -2.61783169
               4.22518178                3.13932875               16.98318087                0.00010000               -0.16757606                0.27900152                0.21171083                0.96561754               10.40554722                0.18401359
               5.22334293                3.05197547               16.98191838                0.00010000               -0.14377460                0.15768212                0.01577965                1.42873168               12.71776087                0.48486888
               6.22230629                2.96564825               16.98184448                0.00010000               -0.08235583                0.08932362               -0.15267873                1.54509981               12.62871405                1.37758151
               7.22169582                2.88069605               16.97934835                0.00010000               -0.00502682                0.01700589               -0.33769362                1.51128396               12.18546434                2.40163568
               8.22220575                2.79676604               16.97084633                0.09183736                0.06418384               -0.05466222               -0.55469308                1.08880287                9.39330250                3.56793784
               9.22297949                2.70782774               16.91276334                0.33601477                0.19378933                0.25132032               -0.75625705                0.34055581                3.67711165                3.96571002
              10.22608154                2.61394393               16.78988028                0.78180030                0.40538622                0.43568672               -1.37912430                0.00768689                0.24999357                1.37933030
              11.23108722                2.52089674               16.66295348                1.00000000                0.50056821                0.63307414               -2.03106605               -0.05055617                0.05245545               -0.58015773
               1.32932115                4.42735320               17.24933610                1.00000000               -0.28543134               -0.39283151                1.27572808               -0.04477183                0.02119312                1.28106637
               2.32646683                4.33068562               17.11185949                0.69425581               -0.19354062               -0.19593431                0.64574280               -0.00710394                0.07231683               -0.61337414
               3.32545034                4.23336640               16.97535886                0.06261915               -0.06466033                0.00246944                0.02359295                0.32360220                6.35118498               -2.52911265
               4.32517363                4.14162248               16.96342554                0.00010000               -0.08944400                0.20144398                0.07533209                0.88671719               14.04395843               -0.31313766
               5.32366146                4.05327557               16.98152339                0.00010000               -0.16244806                0.12460882                0.01133581                1.15241340               15.60997466                0.62730341
               6.32192467                3.96628966               17.00168860                0.00010000               -0.18026800                0.04978447               -0.05196886                1.20967348               15.67260001                1.61954096
               7.32005610                3.88063868               17.02174762                0.00010000               -0.20391761               -0.02108734               -0.12697077                1.20741771               15.59282187                2.82542834
               8.31784631                3.79669166               17.04083635                0.10136368               -0.17123983               -0.02950876               -0.22817577                0.86611041               11.72264747                4.41246505
               9.31663130                3.70953524               16.98370225                0.35112458                0.03877928                0.10296282               -0.34351176                0.30213574                4.00034492                3.07289769
              10.31862190                3.61779084               16.84828203                0.80437675                0.30227188                0.32934459               -1.03542199                0.00576237                0.05030606                1.09949616
              11.32267674                3.52685496               16.71191751                1.00000000                0.40548362                0.55396230               -1.74027354               -0.04685409                0.00695027               -0.69512116
               1.42455410                5.42376762               17.21417500                1.00000000               -0.21480103               -0.32374277                1.05752078               -0.04473208                0.02036750                1.24756463
               2.42240609                5.32910479               17.06727674                0.67017882               -0.11622299               -0.11977620                0.38883905               -0.00553121                0.07853751               -0.63138562
               3.42222964                5.23381152               16.92149323                0.05228305                0.03004336                0.08677089               -0.27267004                0.28883211                8.38017172               -2.48664528
               4.42300696                5.14335763               16.94059774                0.00010000               -0.02528066                0.17855672               -0.08405129                0.71086359               17.63725820               -0.53777312
               5.42172403                5.05446764               16.98099028                0.00010000               -0.19351544                0.12264936               -0.01119533                0.85449572               18.75937429                0.56295657
               6.41913665                4.96664394               17.02362607                0.00010000               -0.31409281                0.03172039                0.05435235                0.88616543               18.91074759                1.71566823
               7.41544217                4.88027430               17.06799698                0.00010000               -0.42526263               -0.05722865                0.10500542                0.88305118               19.03437280                3.03224537
               8.41063139                4.79617587               17.11379291                0.11090526               -0.37595684               -0.10712848                0.12827823                0.62221090               13.53373381                4.55561472
               9.40792303                4.70988700               17.04847703                0.36642919               -0.08771675               -0.02688154                0.04329789                0.22091339                4.01209331                2.61640459
              10.40887706                4.62053082               16.90391394                0.82854488                0.20494254                0.22034350               -0.70082732                0.00473012                0.03149453                0.86587788
              11.41202188                4.53197598               16.75881891                1.00000000                0.31448241                0.46821750               -1.45446132               -0.04513967                0.00848346               -0.86172970
               1.51775218                6.42087834               17.17873912                1.00000000               -0.14398631               -0.25440077                0.83811320               -0.04417262                0.02291924                1.22010463
               2.51631232                6.32829010               17.02247467                0.64584729               -0.03890222               -0.04282433                0.13086766               -0.00329058                0.09507760               -0.65328808
               3.51697414                6.23510182               16.86760335                0.04192069                0.12112281                0.17230129               -0.56918430                0.21406176               10.37102169               -2.49291800
               4.51873477                6.14519362               16.91683010                0.00010000                0.02454601                0.20719800               -0.25819584                0.49932847               21.19617050               -0.66980199
               5.51746506                6.05572855               16.97978825                0.00010000               -0.24467304                0.14265516               -0.04031508                0.55299772               21.97221019                0.46132130
               6.51384131                5.96692407               17.04595000                0.00010000               -0.46399316                0.03164986                0.16405084                0.54439863               22.22619831                1.66296993
               7.50818519                5.87949410               17.11526340                0.00010000               -0.65817359               -0.10072792                0.35403965                0.53125792               22.48666165                3.01303429
               8.50067784                5.79454909               17.18761198                0.12037677               -0.57452913               -0.22712329                0.52080235                0.34250968               15.14989292                4.55764051
               9.49669461                5.70899761               17.11078722                0.38143230               -0.20251617               -0.14748830                0.41884383                0.12569013                3.86791903                2.40755645
              10.49662752                5.62219771               16.95770211                0.85207023                0.10945092                0.11466710               -0.37316449                0.00273453                0.03365352                0.71597144
              11.49888363                5.53621931               16.80407426                1.00000000                0.22561111                0.37987447               -1.17313239               -0.04435640                0.00997686               -0.97585701
               1.60884713                7.41867961               17.14301139                1.00000000               -0.07303280               -0.18640574                0.61862831               -0.04329810                0.02460816                1.18839842
               2.60811680                7.32824830               16.97739577                0.62125530                0.03801153                0.03485338               -0.12688469               -0.00032665                0.11401914               -0.67854610
               3.60960736                7.23725754               16.81351764                0.03155819                0.21249961                0.26035253               -0.86485942                0.11522627               12.29614758               -2.50486430
               4.61236679                7.14750159               16.89151687                0.00010000                0.07230875                0.25909514               -0.43563174                0.26889866               24.70710979               -0.81034360
               5.61105353                7.05732075               16.97741644                0.00010000               -0.30538592                0.18151197               -0.07177742                0.26354533               25.20927509                0.32914434
               6.60625907                6.96727694               17.06720258                0.00010000               -0.63056137                0.05505266                0.27480993                0.20330415               25.55791127                1.47269882
               7.59844230                6.87825975               17.16174637                0.00010000               -0.91404946               -0.13009738                0.61342235                0.13302454               25.98346357                2.79907633
               8.58797808                6.79163340               17.26144287                0.12980931               -0.78270420               -0.34826801                0.94330853                0.02420482               16.72128897                4.44894034
               9.58278822                6.70693723               17.17176965                0.39615818               -0.31340184               -0.26166198                0.78602692                0.02804343                3.65007873                2.28608189
              10.58171005                6.62282417               17.01036378                0.87495035                0.01516615                0.01202863               -0.05109230               -0.00011271                0.03725921                0.63466978
              11.58309154                6.53957347               16.84836089                1.00000000                0.13814975                0.29157152               -0.89595860               -0.04419951                0.01082039               -1.02560096
               1.69774883                8.41715023               17.10692298                1.00000000               -0.00209848               -0.12143114                0.39980366               -0.04212849                0.03115808                1.15619391
               2.69772785                8.32898717               16.93202782                0.59655186                0.11382692                0.11407501               -0.38331971                0.00250418                0.14159568               -0.71565631
               3.70002537                8.24030887               16.75929052                0.02129863                0.31608466                0.35054559               -1.15758962               -0.00780478               14.16180289               -2.44235433
               4.70404954                8.15037552               16.86476853                0.00010000                0.14676192                0.29501733               -0.60461781                0.03379670               28.15194049               -0.82470738
               5.70296061                8.05935879               16.97342055                0.00010000               -0.35405743                0.20691726               -0.10298049                0.04222854               28.39987194                0.19927341
               6.69696839                7.96802512               17.08580549                0.00010000               -0.82356957                0.12301440                0.37936186               -0.06242608               28.82904381                1.12718271
               7.68648922                7.87689216               17.20513999                0.00010000               -1.22419706               -0.07876491                0.86738987               -0.27510586               29.53697219                2.26867249
               8.67248445                7.78758373               17.33372733                0.13931684               -1.02122529               -0.42942099                1.37567586               -0.35738689               18.39449918                4.03269197
               9.66606471                7.70376437               17.23194625                0.41079534               -0.42477155               -0.36862498                1.14559091               -0.07848831                3.47153648                2.13423190
              10.66398902                7.62243828               17.06253449                0.89745934               -0.07818425               -0.08830229                0.26669380               -0.00487939                0.05220039                0.62603644
              11.66450103                7.54205074               16.89233483                1.00000000                0.05120067                0.20505591               -0.62200108               -0.04448975                0.01621405               -1.02540204
               1.78433067                9.41625098               17.07052757                1.00000000                0.06775664               -0.06045362                0.18328969               -0.04089994                0.01513365                0.96617288
               2.78500824                9.33052980               16.88614568                0.57203552                0.18661188                0.19486375               -0.63888803                0.00365338                0.24757964               -0.65993213
               3.78806291                9.24426845               16.70636216                0.01130763                0.44922816                0.43517793               -1.43930365               -0.17942296               16.08412547               -1.85761626
               4.79399280                9.15340193               16.83867680                0.00010000                0.30927975                0.22815100               -0.75365499               -0.11571056               31.47710184               -0.52407890
               5.79424850                9.06145909               16.96791641                0.00010000               -0.32578056                0.20768934               -0.13208550               -0.03979859               31.37458422                0.09846147
               6.78747719                8.96973723               17.09983306                0.00010000               -1.04334632                0.19264267                0.46637552               -0.12979094               31.85945189                0.62315783
               7.77338158                8.87668445               17.24110166                0.00010000               -1.67595289                0.13337316                1.08572669               -0.45404696               33.03327994                1.28982403
               8.75395813                8.78304498               17.39960992                0.14907201               -1.35088353               -0.36570228                1.77753661               -0.62078170               20.32926485                2.63741087
               9.74636391                8.69956473               17.29011214                0.42567623               -0.53160240               -0.45519953                1.49001984               -0.20417334                3.61819806                1.51237262
              10.74332608                8.62105812               17.11502183                0.92011797               -0.16935431               -0.18565598                0.58349133               -0.01208953                0.16156866                0.57700407
              11.74297682                8.54367459               16.93639055                1.00000000               -0.03492636                0.12043330               -0.35052648               -0.04615881               -0.01202453               -0.85229841
               1.86837321               10.41594115               17.03060518                1.00000000                0.14102421               -0.03098306               -0.03984281                0.09858246                0.50778937                0.79198460
               2.86978345               10.33288444               16.84183273                0.77832080                0.25957863                0.23546445               -0.88303675                0.13108481                1.04476111               -0.57859836
               3.87356478               10.24901243               16.66375211                0.50255989                0.73806234                0.47439756               -1.67152574               -0.34710813               18.15956843               -1.33862443
               4.88454469               10.15493854               16.81725224                0.44003129                0.61322840                0.15366073               -0.86710013               -0.21980301               34.28861622               -0.27391935
               5.88582935               10.06351258               16.96111372                0.43288466               -0.26987386                0.20534906               -0.15876913                0.00505593               33.89576087                0.07212985
               6.87914722                9.97187797               17.10749469                0.45290015               -1.08644109                0.21407472                0.52600530               -0.03064533               34.44240216                0.36476119
               7.86410052                9.87955962               17.26432847                0.49786039               -2.09793405                0.28751701                1.23701355               -0.50851967               35.92200797                0.74539073
               8.83718854                9.78026969               17.44391784                0.57781289               -2.00662080               -0.27752971                2.04691599               -0.92192156               22.47372391                1.62045527
               9.82396811                9.69466038               17.33800084                0.71773414               -0.87755817               -0.49043531                1.77619260               -0.31680608                4.77477985                0.99573277
              10.81963737                9.61872516               17.16620416                0.96732416               -0.28115967               -0.23329616                0.89037275                0.12108047                0.93774892                0.51252170
              11.81834492                9.54445941               16.98364562                1.00000000               -0.12924577                0.07848194               -0.06390967                0.11023448                0.40298506               -0.68531511
               1.03197316                0.49708797               18.40896482                1.00000000               -0.54729692               -0.60887588                2.11084988               -0.11966346               -0.96049485                1.01526975
               2.02650019                0.38373665               18.29464949                1.00000000               -0.45836853               -0.44759202                1.60209977               -0.07836767               -0.97935926               -0.04523913
               3.02280579                0.27008908               18.17997521                0.69928333               -0.20605186               -0.30320750                1.08880515                0.03423697               -0.66862929               -0.91760477
               4.02237915                0.15867598               18.07200813                0.52081908                0.15536364               -0.16965704                0.58987239                0.17613519                1.12736177               -0.09530422
               5.02591306                0.05433774               17.99396696                0.44854757                0.37463416               -0.04809981                0.11766078                0.15952958                4.02934163               -0.08942582
               6.02987184               -0.04156115               17.94563049                0.45265531                0.23113457                0.08390379               -0.35140018                0.06121802                5.36106248                0.00518816
               7.03053575               -0.13608642               17.89549750                0.52662709                0.04150158                0.22572226               -0.81551548                0.11214212                3.85444224                0.08215717
               8.03070187               -0.23644420               17.81669752                0.67941114                0.15178801                0.36735494               -1.29966747                0.11675007                1.26586182                0.13286354
               9.03357151               -0.34246940               17.71375673                0.93651001                0.43473105                0.51551351               -1.81780272                0.02675770               -0.41085628                0.44491911
              10.03939649               -0.45059505               17.60071659                1.00000000                0.67865714                0.66812023               -2.36414632               -0.06918165               -0.82970883                0.30332942
              11.04714466               -0.55856091               17.48912210                1.00000000                0.77481670                0.83000422               -2.88419394               -0.12953343               -0.74849389               -0.76976851
               1.14412784                1.49099921               18.36885655                1.00000000               -0.49118849               -0.57824036                1.89475491               -0.04188314               -0.05607646                1.29811941
               2.13921596                1.37926073               18.25374511                0.98202250               -0.42246739               -0.41213040                1.38267544               -0.00422883                0.02259309               -0.10099584
               3.13567849                1.26705701               18.14018884                0.25351336               -0.35998905               -0.26217329                0.88749372                0.13068236                1.30339934               -1.34404409
               4.13201618                1.15697941               18.05071869                0.00010000               -0.40257845               -0.14316701                0.46297762                0.50669776                3.67061781               -1.60235247
               5.12762692                1.05385674               17.98415533                0.00010000               -0.31600405                0.17846442                0.04382936                0.96525628                6.45209543                0.51567092
               6.12569609                0.95927788               17.94943045                0.00010000                0.07358873                0.10275048               -0.35441616                1.18416962                7.96117216                0.50145637
               7.12909870                0.86617081               17.91274192                0.00298110                0.46823843                0.02723616               -0.74164851                0.98269486                6.31491422                0.43791341
               8.13506086                0.76722935               17.84602486                0.22451598                0.59079082                0.34560256               -1.15287366                0.50241981                3.63285909                1.74080159
               9.14091452                0.66268573               17.75677089                0.61449307                0.58447803                0.47490451               -1.59731120                0.16744540                1.73074613                1.38120854
              10.14675042                0.55608615               17.65245098                1.00000000                0.64503290                0.62028194               -2.07429238                0.01736409                0.58459378                0.66263492
              11.15381517                0.44973914               17.54019946                1.00000000                0.70647499                0.79137452               -2.60716944               -0.05175975                0.19410145               -0.82187444
               1.25461245                2.48552316               18.33440696                1.00000000               -0.42546368               -0.51841372                1.69518261               -0.04274126                0.17030552                1.53062063
               2.25035782                2.37549404               18.21173905                0.75507619               -0.34558481               -0.34218631                1.14639644               -0.00477852                0.30990783               -0.38314776
               3.24770076                2.26484562               18.09184399                0.09481698               -0.23222217               -0.17429304                0.62582198                0.12957700                1.81230769               -2.28577157
               4.24571337                2.15581264               17.99924356                0.00010000               -0.23905215                0.07764302                0.23373195                0.86570083                7.15995908               -1.22724405
               5.24291971                2.05790703               17.98626630                0.00010000               -0.22361042                0.27369384                0.03045304                1.56417595               10.61556328                0.70615020
               6.24124116                1.96049386               17.96288364                0.00010000               -0.03407623                0.09769666               -0.25600562                1.69179829                9.96816326                1.14069634
               7.24223819                1.86445831               17.93686064                0.00010000                0.14970883               -0.07888300               -0.55290620                1.65448411                9.64532022                1.53803027
               8.24423534                1.77046785               17.90732578                0.08593281                0.29127152                0.09524077               -0.85182492                1.00810071                6.47924909                3.15481539
               9.24806362                1.66702869               17.81838280                0.33723696                0.42275129                0.36345758               -1.25285485                0.19608372                2.60231204                3.56734402
              10.25269037                1.56181058               17.71124304                0.80692426                0.53699329                0.52698756               -1.76183726                0.01227553                0.99932211                1.31748109
              11.25880348                1.45726658               17.59006103                1.00000000                0.61131188                0.72213323               -2.33747040               -0.05462082                0.30293880               -0.73976669
               1.36333125                3.48063093               18.29896450                1.00000000               -0.35333200               -0.45762467                1.48573710               -0.04403146                0.04379411                1.40820731
               2.35979793                3.37241700               18.16521712                0.70754777               -0.26899074               -0.26978712                0.89360153               -0.00451881                0.13309546               -0.62852758
               3.35795144                3.26357115               18.03322080                0.07155457               -0.17645761               -0.08210845                0.31712342                0.23712405                4.42866369               -2.74909808
               4.35626878                3.15853227               17.98535894                0.00010000               -0.18611039                0.22708336                0.22397453                0.78819677               10.85022020                0.22685228
               5.35422923                3.05933062               17.98208727                0.00010000               -0.16439987                0.11828882                0.01675556                1.18309414               13.13958160                0.53268601
               6.35298078                2.96123182               17.98028632                0.00010000               -0.10074190                0.05136694               -0.16053428                1.29412603               13.06882615                1.46696486
               7.35221439                2.86459315               17.97589314                0.00010000               -0.01641410               -0.01539007               -0.35502900                1.27352443               12.61371848                2.52866585
               8.35265250                2.76913416               17.96516907                0.09020012                0.06395316               -0.09484368               -0.58243414                0.93486705                9.83061066                3.71932927
               9.35349345                2.66995488               17.90513828                0.33126243                0.20527687                0.21347855               -0.76907224                0.29303319                3.92117072                4.19822909
              10.35675804                2.56662590               17.77600542                0.76788081                0.41586522                0.42991463               -1.39593057                0.00418606                0.26677548                1.46414474
              11.36181076                2.46418180               17.64253720                1.00000000                0.50527212                0.65476681               -2.05212319               -0.05253967                0.05476145               -0.61671562
               1.47015968                4.47637067               18.26205947                1.00000000               -0.28324547               -0.39183855                1.26935755               -0.04397029                0.02158494                1.31399413
               2.46732723                4.37009830               18.11827962                0.68305807               -0.19158558               -0.19364492                0.63840096               -0.00466751                0.07668426               -0.65771807
               3.46632797                4.26320345               17.97556092                0.06095013               -0.08046969                0.00603199                0.01630053                0.25084573                6.69963426               -2.65493081
               4.46571783                4.16035431               17.96420791                0.00010000               -0.12229606                0.16520918                0.07978058                0.69110292               14.67767525               -0.35031105
               5.46388205                4.06027281               17.98163913                0.00010000               -0.19283389                0.09367360                0.01002117                0.91020498               16.19454443                0.66505769
               6.46186116                3.96152119               18.00113337                0.00010000               -0.20378579                0.01702635               -0.06130365                0.95904597               16.26527876                1.70890838
               7.45980633                3.86415051               18.02039681                0.00010000               -0.21451051               -0.06003743               -0.14568243                0.95837768               16.18106187                2.96413790
               8.45757095                3.76857097               18.03842285                0.09948519               -0.16868943               -0.07980880               -0.25724817                0.69734074               12.31394115                4.60051930
               9.45643254                3.67129826               17.98022741                0.34588940                0.04881119                0.07094460               -0.35169151                0.25461488                4.30691563                3.25367979
              10.45854717                3.57040888               17.83785829                0.78959845                0.31041717                0.32410485               -1.04923922                0.00488398                0.05783112                1.16772870
              11.46264089                3.47036192               17.69441360                1.00000000                0.40937188                0.57459989               -1.76014194               -0.04660522                0.00798679               -0.72946146
               1.57499658                5.47279416               18.22471340                1.00000000               -0.21247765               -0.32286022                1.05065248               -0.04416005                0.02028255                1.27865936
               2.57287180                5.36854411               18.07112677                0.65929485               -0.11421170               -0.11694947                0.38097993               -0.00342934                0.08209915               -0.67711360
               3.57271234                5.26369179               17.91873191                0.05074226                0.00748388                0.09142203               -0.28054805                0.20019759                8.81453715               -2.60974028
               4.57302148                5.16183645               17.93975839                0.00010000               -0.07229512                0.16170315               -0.08550298                0.49966484               18.44818922               -0.59490961
               5.57126644                5.06120409               17.98086629                0.00010000               -0.23687394                0.10388811               -0.01597825                0.60779398               19.52028525                0.58441454
               6.56828400                4.96157234               18.02412460                0.00010000               -0.34671381                0.00610497                0.04250954                0.62287532               19.67550869                1.80453271
               7.56433216                4.86339240               18.06895440                0.00010000               -0.44162180               -0.09382691                0.08329924                0.61206620               19.79458661                3.18404881
               8.55945156                4.76753799               18.11492340                0.10883593               -0.37921582               -0.15546601                0.09441162                0.43937470               14.25411974                4.76875197
               9.55674785                4.67137378               18.04888606                0.36080135               -0.08297551               -0.05122936                0.03832628                0.17312510                4.35890388                2.77318845
              10.55779205                4.57310800               17.89684561                0.81298616                0.21123592                0.21713417               -0.71262433                0.00372214                0.03688452                0.92363433
              11.56097257                4.47567380               17.74417307                1.00000000                0.31805132                0.48602029               -1.47409690               -0.04486558                0.00886087               -0.90036473
               1.67777659                6.46991346               18.18708173                1.00000000               -0.14155770               -0.25352367                0.83092009               -0.04378696                0.02239657                1.25070272
               2.67636102                6.36775931               18.02374426                0.63542669               -0.03685108               -0.03975977                0.12270686               -0.00148110                0.09829069               -0.69918222
               3.67703957                6.26503189               17.86187732                0.04057106                0.09189033                0.17738682               -0.57725241                0.11742310               10.88491074               -2.61503607
               4.67819882                6.16358837               17.91423465                0.00010000               -0.03687674                0.20706601               -0.26303043                0.27925337               22.18126673               -0.73584579
               5.67630204                6.06235057               17.97936185                0.00010000               -0.30342350                0.13990889               -0.04785781                0.29905817               22.91802065                0.47541463
               6.67213035                5.96164329               18.04753499                0.00010000               -0.51100110                0.01785531                0.14951494                0.26504361               23.17467316                1.74935422
               7.66608202                5.86227397               18.11869616                0.00010000               -0.68766456               -0.12920084                0.32870292                0.23677162               23.43444303                3.17282044
               8.65837706                5.76546165               18.19264001                0.11818701               -0.58784903               -0.26688952                0.48082595                0.14620287               15.98391136                4.79747537
               9.65432504                5.67027367               18.11496734                0.37555931               -0.20277372               -0.16598779                0.41688649                0.07959693                4.23137559                2.55106204
              10.65432159                5.57475156               17.95391874                0.83600534                0.11434683                0.11295243               -0.38330356                0.00142921                0.03800602                0.76573948
              11.65661197                5.48008233               17.79224087                1.00000000                0.22903835                0.39516933               -1.19283341               -0.04418275                0.00996708               -1.01878272
               1.77842914                7.46772369               18.14915802                1.00000000               -0.07053864               -0.18539484                0.61121356               -0.04310035                0.02379297                1.21934371
               2.77772375                7.36774891               17.97608724                0.61144212                0.04013026                0.03801702               -0.13530227                0.00116633                0.11721369               -0.72344550
               3.77923174                7.26723952               17.80483558                0.03045414                0.17820557                0.26544011               -0.87303573                0.01874154               12.88812683               -2.62453823
               4.78128786                7.16597777               17.88714249                0.00010000               -0.00195323                0.27526590               -0.44184445                0.05370006               25.86499439               -0.87385022
               5.77919268                7.06400227               17.97666886                0.00010000               -0.38131972                0.19697771               -0.08113023                0.01005983               26.34222526                0.33944222
               6.77366147                6.96192945               18.06988710                0.00010000               -0.69717217                0.05830645                0.25811323               -0.08516781               26.69678637                1.55191725
               7.76524924                6.86080838               18.16776068                0.00010000               -0.96427756               -0.14507894                0.58502659               -0.17921288               27.13340054                2.95623207
               8.75437592                6.76220020               18.27067369                0.12756822               -0.80996785               -0.37574776                0.89827352               -0.18376923               17.65853915                4.70455903
               9.74904988                6.66805402               18.17963905                0.39017950               -0.31819689               -0.27537163                0.78730883               -0.01691559                4.01078192                2.41963033
              10.74801198                6.57536704               18.00981043                0.85863483                0.01887495                0.01134112               -0.05952044               -0.00176280                0.04138671                0.67839476
              11.74942738                6.48357719               17.83929956                1.00000000                0.14153979                0.30434559               -0.91564899               -0.04411798                0.01066224               -1.07244677
               1.87686415                8.46620556               18.11088049                1.00000000                0.00043664               -0.12008039                0.39220135               -0.04211640                0.03042519                1.18861243
               2.87686851                8.36851965               17.92815389                0.58743334                0.11606971                0.11724803               -0.39206427                0.00365436                0.14564279               -0.75924701
               3.87918554                8.27034069               17.74768093                0.02047792                0.28207832                0.35520516               -1.16602513               -0.09599279               14.83533448               -2.55450553
               4.88251008                8.16909369               17.85870247                0.00010000                0.06830094                0.32371099               -0.61157477               -0.15652241               29.48190085               -0.87480582
               5.88055156                8.06629012               17.97235736                0.00010000               -0.44445966                0.23774942               -0.11346437               -0.18505773               29.71401384                0.20721504
               6.87362089                7.96280942               18.08953058                0.00010000               -0.91622720                0.14973910                0.36120664               -0.33096564               30.15757825                1.18950363
               7.86222701                7.85937239               18.21368730                0.00010000               -1.30824220               -0.06836608                0.83715420               -0.58499396               30.89865947                2.40071535
               8.84745604                7.75794670               18.34727232                0.13706505               -1.07035703               -0.43785300                1.32811165               -0.57856272               19.43340548                4.27607581
               9.84081987                7.66476624               18.24343039                0.40479843               -0.43464370               -0.37806428                1.15037276               -0.12564455                3.82121083                2.25554828
              10.83876317                7.57497838               18.06516925                0.88106221               -0.07552709               -0.08827921                0.26007973               -0.00691171                0.05777359                0.66650959
              11.83930933                7.48616924               17.88601452                1.00000000                0.05461651                0.21522269               -0.64155489               -0.04446170                0.01651820               -1.07550138
               1.97295864                9.46532208               18.07231967                1.00000000                0.07030771               -0.05865820                0.17560202               -0.04097528                0.01252717                0.99639568
               2.97366172                9.37009387               17.87971417                0.56361087                0.18896062                0.19800038               -0.64811513                0.00443741                0.25635095               -0.69701788
               3.97673785                9.27434362               17.69193349                0.01077045                0.42731337                0.43916656               -1.44829254               -0.25471112               16.84836597               -1.93869855
               4.98220798                9.17245199               17.83111812                0.00010000                0.25189698                0.25037682               -0.76128429               -0.24175738               32.97646759               -0.54905111
               5.98177579                9.06875726               17.96656008                0.00010000               -0.41240472                0.24352193               -0.14329030               -0.18714400               32.85661664                0.10275437
               6.97395989                8.96492423               18.10442504                0.00010000               -1.16818546                0.24144390                0.44723461               -0.30914884               33.36374290                0.65713707
               7.95841208                8.85944106               18.25182865                0.00010000               -1.82745364                0.19248221                1.05439633               -0.68591487               34.60479071                1.36657504
               8.93741082                8.75344314               18.41717508                0.14680021               -1.44533886               -0.33151247                1.72995568               -0.81856413               21.48049333                2.79922561
               9.92950530                8.66049273               18.30505847                0.41965223               -0.54700351               -0.46007157                1.49806705               -0.25991215                3.97099242                1.59635393
              10.92647075                8.57360146               18.12083422                0.90363570               -0.16744353               -0.18504420                0.57857856               -0.01448832                0.17497383                0.61162205
              11.92615643                8.48788164               17.93278568                1.00000000               -0.03143123                0.12831011               -0.37008923               -0.04615616               -0.01272790               -0.89650731
               2.06650106               10.46503240               18.03016740                1.00000000                0.14346556               -0.02896803               -0.04732390                0.09896801                0.52065528                0.81873791
               3.06793572               10.37247966               17.83295874                0.77430091                0.26160664                0.23857879               -0.89255462                0.13198105                1.08567712               -0.60947415
               4.07173319               10.27912402               17.64700033                0.50237007                0.76627907                0.47803955               -1.68074302               -0.41938740               19.02614230               -1.39386628
               5.08326130               10.17410123               17.80856121                0.44060066                0.63016230                0.16492309               -0.87447334               -0.29284150               35.94877175               -0.29236503
               6.08433644               10.07116056               17.95949101                0.43310558               -0.32535965                0.24033031               -0.17008444               -0.06708127               35.52602519                0.07004069
               7.07675411                9.96763830               18.11267939                0.45273579               -1.21733125                0.27140684                0.50596042               -0.11750470               36.09687282                0.37932903
               8.05998981                9.86322203               18.27656101                0.49735431               -2.33605100                0.37809736                1.20407641               -0.65831927               37.65701966                0.78423061
               9.03003309                9.75131645               18.46416860                0.57665874               -2.22632546               -0.21266859                1.99768553               -1.12063448               23.74970354                1.72165742
              10.01546331                9.65556481               18.35581222                0.71469302               -0.94742948               -0.49279273                1.78480729               -0.40614740                5.19283429                1.05067179
              11.01108450                9.57127750               18.17508966                0.95902374               -0.28187265               -0.23239618                0.88622233                0.11990666                0.99674433                0.54214737
              12.00982585                9.48873544               17.98290629                1.00000000               -0.12586429                0.08538016               -0.08363824                0.11273606                0.42709425               -0.72226243
               1.13903978                0.54861815               19.43005921                1.00000000               -0.54863260               -0.60923357                2.10887451               -0.11621912               -0.99923828                1.05178322
               2.13355346                0.42524950               19.31066385                1.00000000               -0.46249469               -0.44893041                1.60248814               -0.07492272               -1.02115587               -0.05044475
               3.12978989                0.30154815               19.19086091                0.69682737               -0.22778733               -0.30361253                1.09091020                0.01922965               -0.70536002               -0.94306256
               4.12899771                0.17964099               19.07792510                0.52058925                0.09654292               -0.16724547                0.59360308                0.13481554                1.10863793               -0.09789069
               5.13172075                0.06361883               18.99513845                0.44871204                0.30237986               -0.04006681                0.11653619                0.12270885                4.02057274               -0.09081195
               6.13504531               -0.04527738               18.94206496                0.45250262                0.20874937                0.09635787               -0.36213314                0.04095366                5.35563544                0.00832594
               7.13589574               -0.15284599               18.88724011                0.52568776                0.07788534                0.23701138               -0.83606774                0.08301337                3.84638318                0.08869268
               8.13660302               -0.26513673               18.80357685                0.67690079                0.19713293                0.37632389               -1.32431049                0.08727148                1.23731531                0.14098729
               9.13983840               -0.38205673               18.69545330                0.93070697                0.46010646                0.52176919               -1.84257952                0.01233284               -0.46725454                0.46063119
              10.14580515               -0.50062943               18.57694657                1.00000000                0.69023277                0.67442948               -2.38960159               -0.06864884               -0.88586304                0.32764315
              11.15364305               -0.61897665               18.46016159                1.00000000                0.78379053                0.83871132               -2.90777805               -0.12863178               -0.79080181               -0.82151963
               1.26124624                1.54252581               19.38778385                1.00000000               -0.49070157               -0.57924423                1.89226292               -0.04052397               -0.05141706                1.34258807
               2.25633923                1.42076019               19.26760373                0.96794931               -0.42299024               -0.41374514                1.38773595               -0.00245588                0.03541326               -0.11857835
               3.25278644                1.29851203               19.14915183                0.24963155               -0.35143498               -0.26329389                0.90117605                0.11316511                1.35529006               -1.40854753
               4.24931053                1.17796854               19.05538381                0.00010000               -0.36897079               -0.13918336                0.47035075                0.42799576                3.75968450               -1.65653822
               5.24540702                1.06321816               18.98460988                0.00010000               -0.28116376                0.13470805                0.04629060                0.80372137                6.56130298                0.54121532
               6.24368725                0.95568620               18.94583556                0.00010000                0.06242619                0.08693111               -0.36491809                0.98864161                8.09531950                0.55326255
               7.24665555                0.84952413               18.90521049                0.00173610                0.41969241                0.03769641               -0.76459752                0.82285217                6.45153171                0.50207860
               8.25208110                0.73862650               18.83435704                0.22111877                0.55262630                0.34368704               -1.18042832                0.41492947                3.74485553                1.82592757
               9.25770807                0.62316096               18.74065944                0.60579173                0.57487564                0.47725290               -1.62475002                0.13885081                1.81088112                1.46029672
              10.26357862                0.50611486               18.63159006                1.00000000                0.64979352                0.62508606               -2.09775128                0.01448659                0.62002750                0.69795352
              11.27070394                0.38941047               18.51401181                1.00000000                0.71253290                0.80185255               -2.63037046               -0.05177903                0.20059397               -0.87717851
               1.38176054                2.53703326               19.35133726                1.00000000               -0.42424187               -0.51949613                1.69177899               -0.04392697                0.17756880                1.57743530
               2.37751813                2.41697460               19.22320388                0.74240950               -0.34578479               -0.34239250                1.14620135               -0.00616160                0.33138307               -0.42104203
               3.37484485                2.29628228               19.09812289                0.09239854               -0.23333160               -0.17243961                0.63007026                0.11111016                1.91203391               -2.41136872
               4.37285149                2.17685733               19.00163101                0.00010000               -0.23836665                0.04664548                0.24462501                0.70199522                7.41382822               -1.22195578
               5.37007752                2.06631299               18.98657520                0.00010000               -0.21696589                0.20190963                0.03028541                1.27020389               10.93108419                0.75325139
               6.36851218                1.95646124               18.96027884                0.00010000               -0.03325206                0.05258109               -0.26598849                1.38923137               10.24917736                1.23576587
               7.36941247                1.84790794               18.93123798                0.00010000                0.13762971               -0.08954639               -0.57249311                1.38538267                9.93127673                1.66255805
               8.37126477                1.74173701               18.89866290                0.08425976                0.28572905                0.07145264               -0.88074284                0.85360564                6.72842320                3.29983304
               9.37512706                1.62748833               18.80573703                0.33202792                0.42903010                0.33933738               -1.27624883                0.14968806                2.74980526                3.78000237
              10.37984537                1.51187229               18.69351634                0.79140614                0.54446002                0.52483543               -1.78353314                0.00057926                1.05839258                1.39120167
              11.38601626                1.39706041               18.56657493                1.00000000                0.61708837                0.73996907               -2.35982080               -0.06044091                0.32818087               -0.79061196
               1.50048504                3.53213589               19.31379787                1.00000000               -0.35180590               -0.45745412                1.48116317               -0.04475515                0.04450461                1.44511211
               2.49696699                3.41391234               19.17412111                0.69596363               -0.26795659               -0.26764907                0.88788745               -0.00458571                0.14169508               -0.67405528
               3.49512591                3.29506324               19.03635941                0.06970604               -0.18236333               -0.07628005                0.31090893                0.18294954                4.69087309               -2.88784652
               4.49331972                3.17890145               18.98766036                0.00010000               -0.19593638                0.16797417                0.23513153                0.59952753               11.29903145                0.26348538
               5.49120719                3.06725635               18.98225349                0.00010000               -0.17213939                0.07423515                0.01507744                0.91928713               13.55201784                0.57847452
               6.48987693                2.95673782               18.97863379                0.00010000               -0.10598739                0.00841536               -0.17167712                1.02186136               13.50152413                1.55668650
               7.48908744                2.84773320               18.97224777                0.00010000               -0.01520514               -0.05238805               -0.37569975                1.01465571               13.03451789                2.65734643
               8.48957283                2.74005556               18.95919765                0.08848897                0.07395588               -0.13946473               -0.61332559                0.76221388               10.27386835                3.87312978
               9.49056655                2.62994771               18.89738189                0.32638750                0.22226476                0.16863623               -0.78255391                0.23815612                4.17528614                4.43997710
              10.49401812                2.51661157               18.76196167                0.75390068                0.42761670                0.42164696               -1.41292211                0.00045492                0.28351188                1.55276401
              11.49911889                2.40420985               18.62191102                1.00000000                0.51007653                0.67847296               -2.07306569               -0.05469212                0.05684105               -0.65399421
               1.61731254                4.52788418               19.27472325                1.00000000               -0.28134696               -0.39086707                1.26369970               -0.04385845                0.02217374                1.34590535
               2.61449907                4.41162161               19.12462751                0.67180134               -0.18989002               -0.19072333                0.63119346               -0.00324657                0.08164067               -0.70356360
               3.61351474                4.29475668               18.97568487                0.05923819               -0.09250699                0.01185370                0.00796711                0.16790224                7.05460163               -2.78317232
               4.61264893                4.18021681               18.96502115                0.00010000               -0.14439252                0.12656226                0.08134808                0.47788301               15.31567814               -0.39612659
               5.61062689                4.06779769               18.98172381                0.00010000               -0.20881840                0.05884293                0.00488839                0.64845414               16.77416582                0.70009151
               6.60847256                3.95662955               19.00046253                0.00010000               -0.21195164               -0.02024242               -0.07520719                0.68721366               16.85207382                1.79785260
               7.60638785                3.84686018               19.01883397                0.00010000               -0.20890105               -0.10386318               -0.16938454                0.68829099               16.76314029                3.10324146
               8.60429454                3.73894771               19.03569139                0.09756198               -0.15268429               -0.13609054               -0.29164857                0.51050852               12.91626686                4.78881903
               9.60333417                3.63086105               18.97666842                0.34059874                0.06488971                0.03315645               -0.36051354                0.19849335                4.62815159                3.44019144
              10.60559233                3.52030523               18.82729724                0.77489083                0.31958438                0.31657493               -1.06302572                0.00392140                0.06554779                1.23852016
              11.60972585                3.41062986               18.67671468                1.00000000                0.41335222                0.59657858               -1.77941475               -0.04627191                0.00901358               -0.76472014
               1.73213301                5.52431855               19.23518805                1.00000000               -0.21034517               -0.32182034                1.04458370               -0.04394164                0.02028469                1.30912078
               2.73002956                5.41009788               19.07489634                0.64839737               -0.11221253               -0.11378120                0.37279434               -0.00173837                0.08623132               -0.72400664
               3.72988876                5.29530031               18.91588227                0.04917967               -0.00966003                0.09703789               -0.29011034                0.10010198                9.25297997               -2.73448466
               4.72983636                5.18143269               18.93888768                0.00010000               -0.10626174                0.14378962               -0.09046204                0.26797786               19.26244463               -0.65706445
               5.72776353                5.06843321               18.98067071                0.00010000               -0.26388214                0.08182929               -0.02566034                0.33992617               20.27870743                0.60357638
               6.72455872                4.95633297               19.02447626                0.00010000               -0.36142161               -0.02404502                0.02485220                0.33753156               20.43566144                1.89282719
               7.72053510                4.84565594               19.06966297                0.00010000               -0.43882957               -0.13579764                0.05515772                0.31909786               20.54879234                3.33560151
               8.71578213                4.73733375               19.11568115                0.10673459               -0.36780936               -0.20996983                0.05364864                0.23726260               14.99060713                4.98041544
               9.71317891                4.63061084               19.04924355                0.35514745               -0.07271930               -0.07975989                0.03275487                0.11592739                4.72591764                2.93496627
              10.71432774                4.52294307               18.88966145                0.79757098                0.21826329                0.21212213               -0.72419274                0.00261780                0.04280352                0.98340081
              11.71754417                4.41614142               18.72933697                1.00000000                0.32164333                0.50436508               -1.49270850               -0.04452213                0.00930847               -0.94034437
               1.84487505                6.52144778               19.19535752                1.00000000               -0.13925100               -0.25254153                0.82458717               -0.04360154                0.02200614                1.28079981
               2.84348254                6.40934599               19.02492881                0.62498923               -0.03465444               -0.03640572                0.11389681                0.00018062                0.10217956               -0.74594527
               3.84418196                6.29669743               18.85605830                0.03919362                0.06965215                0.18314302               -0.58756346                0.00862443               11.40140325               -2.73828405
               4.84487558                6.18309260               18.91156949                0.00010000               -0.08284152                0.20620343               -0.27215198                0.03669410               23.16869899               -0.80428416
               5.84252513                6.06943428               18.97883109                0.00010000               -0.34375571                0.13404312               -0.06127889                0.02229761               23.86236079                0.48842629
               6.83800047                5.95614865               19.04894029                0.00010000               -0.53780469               -0.00066380                0.12798814               -0.03728950               24.11909521                1.83567747
               7.83176904                5.84414423               19.12183746                0.00010000               -0.69577902               -0.16313459                0.29560708               -0.08058507               24.37584624                3.33270103
               8.82408489                5.73474832               19.19722850                0.11595810               -0.58628209               -0.31207360                0.43264744               -0.06950030               16.83928019                5.03619388
               9.82004339                5.62926586               19.11912495                0.36964768               -0.19853900               -0.18720245                0.41412790                0.02437786                4.62088403                2.69964620
              10.82011411                5.52454767               18.95003604                0.82006426                0.11976560                0.10992423               -0.39322793                0.00004211                0.04311632                0.81749096
              11.82243871                5.42071717               18.78021759                1.00000000                0.23245991                0.41047344               -1.21132030               -0.04393233                0.01007921               -1.06298502
               1.95546455                7.51926772               19.15523566                1.00000000               -0.06810378               -0.18434770                0.60467808               -0.04302070                0.02311824                1.24989513
               2.95478352                7.40936976               18.97468972                0.60156381                0.04250426                0.04146547               -0.14462637                0.00265913                0.12119264               -0.76916090
               3.95631464                7.29896317               18.79605693                0.02930694                0.15249401                0.27117078               -0.88392500               -0.09057424               13.48217622               -2.74527533
               4.95783340                7.18555676               18.88267998                0.00010000               -0.05806036                0.29055867               -0.45319537               -0.18567758               27.02458698               -0.93836910
               5.95515343                7.07111408               18.97579384                0.00010000               -0.43652081                0.20887952               -0.09729002               -0.26747059               27.47395025                0.34951769
               6.94910298                6.95631970               19.07236484                0.00010000               -0.74148520                0.05643007                0.23334702               -0.39656389               27.83196742                1.63181748
               7.94032373                6.84239324               19.17344690                0.00010000               -0.99162434               -0.16528660                0.54764175               -0.51378934               28.27688127                3.11463679
               8.92927049                6.73109227               19.27940834                0.12525734               -0.82283079               -0.40722308                0.84375177               -0.41009315               18.62225950                4.96110963
               9.92386711                6.62686679               19.18751583                0.38410704               -0.31966106               -0.29049713                0.78737372               -0.07010578                4.40281427                2.55858897
              10.92287727                6.52514155               19.00917337                0.84235574                0.02297100                0.00985072               -0.06797321               -0.00348220                0.04638111                0.72431127
              11.92432653                6.42435089               18.83004791                1.00000000                0.14492600                0.31687164               -0.93418803               -0.04395884                0.01062947               -1.12030974
               2.06381055                8.51776082               19.11476700                1.00000000                0.00297221               -0.11878641                0.38546095               -0.04216844                0.02981496                1.22075131
               3.06384027                8.41017530               18.92418653                0.57817224                0.11864646                0.12074129               -0.40193199                0.00489767                0.15055653               -0.80373883
               4.06618348                8.30212085               18.73597002                0.01958328                0.25854281                0.36059532               -1.17757744               -0.19799452               15.51081913               -2.66792141
               5.06901112                8.18890377               18.85253703                0.00010000                0.01146533                0.35027061               -0.62434563               -0.37234090               30.81332401               -0.92576629
               6.06641278                8.07361187               18.97115127                0.00010000               -0.51105522                0.26332288               -0.13153505               -0.43530189               31.02711662                0.21517248
               7.05879002                7.95727725               19.09302962                0.00010000               -0.98460562                0.17057290                0.33407432               -0.61964341               31.48302483                1.25293591
               8.04672067                7.84083850               19.22188307                0.00010000               -1.36902714               -0.06255030                0.79690246               -0.91348862               32.25472692                2.53508296
               9.03140948                7.72660385               19.36028956                0.13469923               -1.10643347               -0.44795328                1.26985246               -0.81574531               20.50348765                4.52305874
              10.02459200                7.62345591               19.25495371                0.39862360               -0.44245573               -0.38784082                1.15340317               -0.18008347                4.20623104                2.38236464
              11.02256036                7.52474468               19.06773608                0.86455274               -0.07255731               -0.08856999                0.25306889               -0.00901142                0.06421304                0.70928562
              12.02314085                7.42705460               18.87950373                1.00000000                0.05804912                0.22508928               -0.66017533               -0.04436756                0.01691907               -1.12648134
               2.16979223                9.51689199               19.07403961                1.00000000                0.07292125               -0.05701796                0.16872284               -0.04108618                0.00987420                1.02657301
               3.17052144                9.41178459               18.87318338                0.55496420                0.19170215                0.20152568               -0.65865376                0.00534365                0.26598229               -0.73499997
               4.17362627                9.30617508               18.67739631                0.01012823                0.41870573                0.44402824               -1.46070085               -0.34603689               17.61470256               -2.02105569
               5.17889556                9.19256217               18.82345111                0.00010000                0.22238228                0.26506430               -0.77512901               -0.38881068               34.47736545               -0.57488832
               6.17807392                9.07638053               18.96505061                0.00010000               -0.47060353                0.27198392               -0.16265052               -0.35060663               34.33769252                0.10693204
               7.16948349                8.95973115               19.10877776                0.00010000               -1.26732829                0.28392991                0.41846751               -0.50068233               34.86533621                0.69191678
               8.15272735                8.84114224               19.26218959                0.00010000               -1.95726579                0.24705008                1.01234316               -0.92834542               36.17254907                1.44556791
               9.13033817                8.72213321               19.43420904                0.14437542               -1.53013696               -0.29440346                1.67098874               -1.02551724               22.66715272                2.96517445
              10.12212461                8.61910997               19.32007348                0.41336442               -0.56199065               -0.46447973                1.50384981               -0.32256584                4.36165498                1.68447612
              11.11909836                8.52337015               19.12659340                0.88688626               -0.16526324               -0.18437248                0.57291707               -0.01697331                0.18925691                0.64812513
              12.11881935                8.42885267               18.92898877                1.00000000               -0.02790087                0.13591727               -0.38892444               -0.04611328               -0.01343664               -0.94160863
               2.27320363               10.51662046               19.02965871                1.00000000                0.14604276               -0.02715284               -0.05415755                0.09967488                0.53338511                0.84564698
               3.27466406               10.41420581               18.82398164                0.77015035                0.26407625                0.24212242               -0.90356548                0.13330892                1.12766659               -0.64119763
               4.27848515               10.31100141               18.63013725                0.50212078                0.81827000                0.48263364               -1.69347479               -0.51414954               19.89546683               -1.45033101
               5.29102946               10.19420506               18.79976278                0.44113846                0.68732581                0.16428874               -0.88837768               -0.38410334               37.61036765               -0.31188576
               6.29223167               10.07905155               18.95771203                0.43331886               -0.35073933                0.26710156               -0.18994580               -0.14668551               37.15425933                0.06732364
               7.28401467                9.96295585               19.11761390                0.45256606               -1.32399811                0.32246945                0.47591761               -0.21048426               37.74735385                0.39379378
               8.26575171                9.84577950               19.28841000                0.49681513               -2.55416358                0.46372595                1.16012519               -0.80956776               39.38788177                0.82380976
               9.23293140                9.72071578               19.48387155                0.57541899               -2.44239831               -0.14174247                1.93698718               -1.32133625               25.06435301                1.82619181
              10.21690374                9.61416632               19.37369698                0.71150000               -1.02266008               -0.49436557                1.79103057               -0.50501479                5.65153033                1.10845397
              11.21247820                9.52105723               19.18392860                0.95055263               -0.28250985               -0.23129191                0.88120523                0.11831520                1.05780156                0.57320281
              12.21125354                9.42977294               18.98197286                1.00000000               -0.12246521                0.09202696               -0.10265183                0.11499067                0.45181169               -0.76013437
               1.25077912                0.60267435               20.45114231                1.00000000               -0.55037478               -0.61014335                2.10881846               -0.11457430               -1.03774693                1.08788942
               2.24527538                0.46884799               20.32669925                1.00000000               -0.46708925               -0.44988566                1.60489472               -0.07333113               -1.06275994               -0.05567526
               3.24143734                0.33464599               20.20179341                0.69422917               -0.25005012               -0.30219136                1.09517766                0.00432397               -0.74356933               -0.96597774
               4.24027437                0.20180073               20.08388019                0.52028193                0.03736561               -0.16579979                0.59735861                0.09437564                1.08520607               -0.10074138
               5.24218465                0.07357863               19.99629769                0.44885470                0.23042530               -0.03343333                0.11507506                0.08482977                4.00446701               -0.09294719
               6.24488288               -0.04893584               19.93838782                0.45234227                0.18834406                0.10651016               -0.37355025                0.02030225                5.34126691                0.01136153
               7.24595153               -0.17025332               19.87877614                0.52470936                0.11760525                0.24678256               -0.85673475                0.05318265                3.83157466                0.09544799
               8.24723498               -0.29518484               19.79021131                0.67427596                0.24525825                0.38466810               -1.34855951                0.05661622                1.20575482                0.14939609
               9.25085670               -0.42366906               19.67690514                0.92468681                0.48679763                0.52769975               -1.86666444               -0.00297463               -0.52557825                0.47556801
              10.25697094               -0.55332917               19.55292456                1.00000000                0.70209402                0.68046182               -2.41444661               -0.06836607               -0.94317738                0.35410120
              11.26489858               -0.68269173               19.43096653                1.00000000                0.79276405                0.84739565               -2.93100827               -0.12775762               -0.83311368               -0.87451961
               1.38345974                1.59657292               20.40670181                1.00000000               -0.49034983               -0.58082510                1.89198915               -0.03980478               -0.04451509                1.38588585
               2.37855625                1.46434913               20.28149983                0.95349084               -0.42277672               -0.41460854                1.39069249               -0.00121818                0.05159181               -0.13836720
               3.37500421                1.33162408               20.15821236                0.24555267               -0.34022171               -0.26176680                0.90901521                0.09352795                1.40777699               -1.47350665
               4.37175181                1.20014273               20.06012570                0.00010000               -0.33014873               -0.13518776                0.47661701                0.34417345                3.84443300               -1.71118514
               5.36840123                1.07324430               19.98508114                0.00010000               -0.23749672                0.08749072                0.04691197                0.63477241                6.66020545                0.56334116
               6.36700188                0.95212926               19.94213208                0.00010000                0.06033127                0.06733927               -0.37641740                0.78246281                8.21536601                0.60482834
               7.36960786                0.83221451               19.89744997                0.00043161                0.37535718                0.04627532               -0.78753572                0.65303501                6.57872369                0.56883911
               8.37450902                0.70866184               19.82241629                0.21754084                0.51456278                0.34043688               -1.20743802                0.32315974                3.85439516                1.91191087
               9.37989912                0.58160793               19.72427589                0.59676325                0.56447947                0.47876736               -1.65166765                0.10815990                1.89306155                1.54189783
              10.38579861                0.45347545               19.61049596                1.00000000                0.65422224                0.62960913               -2.12085272                0.01118379                0.65748738                0.73522601
              11.39298356                0.32578223               19.48759205                1.00000000                0.71849506                0.81234313               -2.65351050               -0.05175466                0.20718548               -0.93353657
               1.51443060                2.59105785               20.36824254                1.00000000               -0.42307461               -0.52128643                1.68986353               -0.04444775                0.18488159                1.62284569
               2.51019985                2.46055582               20.23466308                0.72953253               -0.34581497               -0.34184359                1.14505741               -0.00665772                0.35412678               -0.46331585
               3.50751430                2.32941066               20.10444540                0.08988300               -0.23311146               -0.16859268                0.63302493                0.08832945                2.01647926               -2.54233614
               4.50553762                2.19909697               20.00413606                0.00010000               -0.23103647                0.01345507                0.25504826                0.52606520                7.66706913               -1.22018420
               5.50289357                2.07532845               19.98687201                0.00010000               -0.19878494                0.12535993                0.02805101                0.96044458               11.23653956                0.79694403
               6.50156193                1.95241094               19.95756387                0.00010000               -0.02069580                0.00262954               -0.27820079                1.06794269               10.52133283                1.33057876
               7.50247965                1.83067219               19.92541078                0.00010000                0.13714143               -0.10352092               -0.59381374                1.09729901               10.20927411                1.78979626
               8.50430475                1.71162390               19.88971092                0.08247534                0.28633160                0.04532168               -0.90967932                0.68604081                6.97774129                3.44553459
               9.50820629                1.58590628               19.79285782                0.32663086                0.43577829                0.31075511               -1.29949517                0.09875806                2.90269272                4.00123320
              10.51302032                1.45926301               19.67557237                0.77572871                0.55218191                0.52124161               -1.80524868               -0.01253056                1.11974749                1.46825537
              11.51924993                1.33355513               19.54286461                1.00000000                0.62296051                0.75899717               -2.38227129               -0.06752212                0.35455016               -0.84199762
               1.64357485                3.58614719               20.32858777                1.00000000               -0.35045656               -0.45796328                1.47724746               -0.04529161                0.04463147                1.48151490
               2.64007029                3.45751226               20.18297487                0.68423845               -0.26726039               -0.26520103                0.88294929               -0.00482035                0.14977731               -0.72284324
               3.63822964                3.32825223               20.03943898                0.06778390               -0.18574798               -0.06967575                0.30514706                0.12058157                4.96151220               -3.03277396
               4.63635533                3.20041183               19.99006157                0.00010000               -0.19667437                0.10537406                0.24332645                0.39770537               11.75131342                0.29246702
               5.63429616                3.07575150               19.98238881                0.00010000               -0.16691697                0.02644839                0.01030743                0.64002179               13.95518516                0.62127552
               6.63301699                2.95218185               19.97685278                0.00010000               -0.09776332               -0.03875817               -0.18628257                0.73115710               13.92695657                1.64535519
               7.63234089                2.83014409               19.96837915                0.00010000               -0.00106223               -0.09360260               -0.39963580                0.73735239               13.44816899                2.78590096
               8.63299574                2.70956827               19.95290256                0.08669091                0.09471354               -0.18800177               -0.64691927                0.57180108               10.72415824                4.02667443
               9.63423516                2.58782304               19.88948720                0.32137201                0.24517032                0.11670714               -0.79675381                0.17577220                4.44050329                4.69046234
              10.63789915                2.46390028               19.74774698                0.73984199                0.44068572                0.41082403               -1.43011707               -0.00346574                0.30029327                1.64535404
              11.64304887                2.34096217               19.60107589                1.00000000                0.51497262                0.70432170               -2.09389184               -0.05699261                0.05870112               -0.69121280
               1.77079462                4.58189859               20.28733346                1.00000000               -0.27962129               -0.39024446                1.25869315               -0.04413639                0.02258983                1.37784411
               2.76799841                4.45525180               20.13090349                0.66046057               -0.18841323               -0.18747946                0.62403780               -0.00247601                0.08659871               -0.75124860
               3.76702636                4.32801714               19.97572026                0.05747597               -0.10029758                0.01882190               -0.00120598                0.07518052                7.41499792               -2.91429242
               4.76599246                4.20120446               19.96583487                0.00010000               -0.15511860                0.08674982                0.07962069                0.24834355               15.95726969               -0.45078648
               5.76392399                4.07585741               19.98173690                0.00010000               -0.20999933                0.02084214               -0.00444389                0.36935919               17.34871968                0.73133670
               6.76179247                3.95163578               19.99962922                0.00010000               -0.20418532               -0.06153628               -0.09382461                0.39653555               17.43283718                1.88497576
               7.75984028                3.82880014               20.01700912                0.00010000               -0.18653221               -0.15215753               -0.19801925                0.39951562               17.33874789                3.24099147
               8.75806183                3.70786386               20.03258988                0.09557462               -0.12252792               -0.19795422               -0.33097766                0.30638337               13.53132190                4.97534516
               9.75738972                3.58824043               19.97301714                0.33521857                0.08750204               -0.01032308               -0.37027449                0.13331818                4.96602667                3.63227198
              10.75981187                3.46747949               19.81659778                0.76020289                0.32982835                0.30684653               -1.07698836                0.00283498                0.07350322                1.31208015
              11.76398629                3.34764157               19.65882531                1.00000000                0.41744200                0.62009135               -1.79827113               -0.04585093                0.01000735               -0.80017799
               1.89598570                5.57834230               20.24560508                1.00000000               -0.20834867               -0.32083698                1.03911426               -0.04398721                0.02031872                1.33972030
               2.89390221                5.45376267               20.07858266                0.63744488               -0.11025495               -0.11023883                0.36432274               -0.00041112                0.09074783               -0.77207927
               3.89378060                5.32862866               19.91292971                0.04757715               -0.02101421                0.10372034               -0.30105061               -0.01076218                9.69478228               -2.86124684
               4.89348193                5.20214683               19.93794915                0.00010000               -0.12642912                0.12529683               -0.09916793                0.01736163               20.07918203               -0.72477791
               5.89125201                5.07616834               19.98035309                0.00010000               -0.27384756                0.05692787               -0.04043939                0.05293789               21.03416698                0.61941930
               6.88800497                4.95095113               20.02462164                0.00010000               -0.35744456               -0.05837599                0.00125312                0.03230083               21.19073458                1.97916605
               7.88410312                4.82710094               20.07005755                0.00010000               -0.41609267               -0.18280415                0.02053348                0.00642599               21.29628597                3.48525648
               8.87968312                4.70560919               20.11599638                0.10457973               -0.34086158               -0.27027616                0.00606219                0.01644914               15.74543256                5.18894276
               9.87728589                4.58761657               20.04954116                0.34943197               -0.05642067               -0.11230544                0.02618248                0.04867330                5.11584425                3.10146555
              10.87855471                4.47003721               19.88236175                0.78222837                0.22609073                0.20549854               -0.73587084                0.00134127                0.04926322                1.04524042
              11.88180771                4.35336400               19.71431890                1.00000000                0.32529991                0.52350576               -1.51062319               -0.04411253                0.00979850               -0.98118846
               2.01907414                6.57548185               20.20357347                1.00000000               -0.13703105               -0.25150956                0.81887945               -0.04359774                0.02169651                1.31099651
               3.01770383                6.45304702               20.02602220                0.61449681               -0.03235894               -0.03273516                0.10451107                0.00169180                0.10664696               -0.79362293
               4.01842696                6.33009155               19.85012605                0.03777993                0.05480946                0.18968179               -0.59974774               -0.11161075               11.91996338               -2.86312916
               5.01880002                6.20371039               19.90879161                0.00010000               -0.11242549                0.20480097               -0.28557292               -0.22674043               24.15757380               -0.87586848
               6.01617845                6.07699597               19.97813627                0.00010000               -0.36470635                0.12520540               -0.08065618               -0.27536611               24.80451021                0.49933379
               7.01150589                5.95046826               20.05009475                0.00010000               -0.54338550               -0.02373283                0.09936721               -0.36045693               25.05868259                1.92061028
               8.00531074                5.82514405               20.12460830                0.00010000               -0.68153565               -0.20227175                0.25459479               -0.41848431               25.30985455                3.49110399
               8.99787518                5.70245834               20.20129296                0.11366842               -0.56877863               -0.36239319                0.37600264               -0.30403377               17.71862364                5.27224385
               9.99393517                5.58599432               20.12324990                0.36366152               -0.18919522               -0.21097681                0.41022658               -0.04068154                5.03970042                2.85282621
              10.99409127                5.47158946               19.94605418                0.80419513                0.12576488                0.10580122               -0.40327463               -0.00149111                0.04898947                0.87104461
              11.99645047                5.35811168               19.76801446                1.00000000                0.23591921                0.42604245               -1.22895488               -0.04361915                0.01028519               -1.10830794
               2.13998339                7.57331211               20.16125158                1.00000000               -0.06570452               -0.18326026                0.59877770               -0.04305189                0.02255360                1.28049277
               3.13932634                7.45310797               19.97319471                0.59159765                0.04508119                0.04520966               -0.15474978                0.00414936                0.12590777               -0.81570323
               4.14088501                7.33242230               19.78715708                0.02810838                0.13581755                0.27756640               -0.89708845               -0.21203285               14.07775037               -2.86744778
               5.14204269                7.20624285               19.87807858                0.00010000               -0.09490942                0.30484191               -0.46950974               -0.44772789               28.18489892               -1.00462492
               6.13898682                7.07867245               19.97472306                0.00010000               -0.46974710                0.21704161               -0.12020693               -0.56717654               28.60359417                0.35845836
               7.13264775                6.95047647               20.07455404                0.00010000               -0.76217308                0.04934824                0.20043814               -0.72866287               28.96239236                1.71122657
               8.12374336                6.82305550               20.17871352                0.00010000               -0.99477850               -0.19063452                0.50105301               -0.86821333               29.41256562                3.27286094
               9.11275218                6.69836132               20.28754872                0.12286639               -0.82011137               -0.44255793                0.77928425               -0.65392431               19.61530237                5.21711227
              10.10734113                6.58339704               20.19538653                0.37792321               -0.31723309               -0.30692197                0.78603010               -0.13226416                4.82986014                2.70229628
              11.10640752                6.47215323               20.00845097                0.82608273                0.02748750                0.00773006               -0.07668124               -0.00530312                0.05224993                0.77203742
              12.10789088                6.36188485               19.82061580                1.00000000                0.14833646                0.32935365               -0.95186544               -0.04374173                0.01070362               -1.16928369
               2.25862138                8.57181664               20.11858971                1.00000000                0.00552443               -0.11751360                0.37934094               -0.04228241                0.02930362                1.25293994
               3.25867663                8.45395122               19.92011525                0.56876960                0.12150203                0.12453968               -0.41277824                0.00622786                0.15629917               -0.84912198
               4.26105142                8.33564288               19.72412938                0.01861857                0.24593424                0.36664917               -1.19173090               -0.31324126               16.18770247               -2.78287062
               5.26359531                8.20980723               19.84621556                0.00010000               -0.02250621                0.37428165               -0.64258688               -0.61238843               32.14515950               -0.97803818
               6.26060130                8.08133680               19.96972666                0.00010000               -0.55228680                0.28313407               -0.15704082               -0.70679156               32.33819632                0.22249761
               7.25254958                7.95145523               20.09621207                0.00010000               -1.02698400                0.18509102                0.29793214               -0.92627806               32.80408422                1.31661317
               8.24006162                7.82133136               20.22962535                0.00010000               -1.40472092               -0.06150076                0.74637471               -1.25798138               33.60354372                2.67065038
               9.22445516                7.69360718               20.37266937                0.13222309               -1.12818226               -0.45983453                1.20046256               -1.06788456               21.60770589                4.77240424
              10.21749797                7.57985588               20.26649845                0.39228063               -0.44788775               -0.39790284                1.15467788               -0.24251051                4.63057419                2.51392868
              11.21549740                7.47174406               20.07023063                0.84795110               -0.06927837               -0.08908966                0.24560211               -0.01120225                0.07153771                0.75390420
              12.21611241                7.36469876               19.87281101                1.00000000                0.06150040                0.23477479               -0.67801814               -0.04422677                0.01741188               -1.17853703
               2.37486859                9.57096184               20.07569413                1.00000000                0.07560745               -0.05547407                0.16241116               -0.04123214                0.00716835                1.05691484
               3.37562466                9.45559876               19.86654109                0.54612089                0.19477909                0.20539847               -0.67032497                0.00636621                0.27646302               -0.77386121
               4.37876417                9.33975528               19.66271947                0.00939397                0.42381670                0.44963270               -1.47593662               -0.45301553               18.38262402               -2.10479099
               5.38410100                9.21372848               19.81561554                0.00010000                0.22194125                0.27164727               -0.79475699               -0.55608014               35.97870488               -0.60176946
               6.38320300                9.08433513               19.96330707                0.00010000               -0.49866843                0.29236859               -0.18994223               -0.52904950               35.81671489                0.11069850
               7.37412763                8.95417829               20.11279439                0.00010000               -1.33856072                0.31933277                0.38007358               -0.70279995               36.36281820                0.72706764
               8.35643178                8.82182549               20.27207551                0.00010000               -2.06288267                0.29630206                0.95931046               -1.17927358               37.73475181                1.52615889
               9.33286998                8.68916463               20.45059485                0.14181238               -1.60388722               -0.25459599                1.60003087               -1.24042508               23.89217356                3.13446499
              10.32435404                8.57543898               20.33513547                0.40685046               -0.57646894               -0.46844960                1.50756236               -0.39271529                4.79425774                1.77614714
              11.32134060                8.47037144               20.13229256                0.86994087               -0.16285355               -0.18364546                0.56662816               -0.01956949                0.20444263                0.68615593
              12.32109697                8.36658034               19.92500719                1.00000000               -0.02436306                0.14329103               -0.40703499               -0.04605142               -0.01414660               -0.98771902
               2.48852289               10.57070716               20.02908425                1.00000000                0.14876166               -0.02546794               -0.06058138                0.10063263                0.54606533                0.87284216
               3.49001051               10.45805919               19.81488743                0.76588970                0.26692516                0.24604217               -0.91587659                0.13500282                1.17086404               -0.67375711
               4.49386139               10.34463553               19.61313084                0.50182069                0.89416779                0.48802477               -1.70912191               -0.63122824               20.76707450               -1.50801937
               5.50789386               10.21524018               19.79079366                0.44164883                0.78545538                0.15116940               -0.90835855               -0.49328132               39.27215963               -0.33241638
               6.50957050               10.08718417               19.95569209                0.43352971               -0.34453235                0.28490463               -0.21811050               -0.23316426               38.77936768                0.06396241
               7.50100322                9.95784188               20.12219775                0.45239092               -1.40403488                0.36635918                0.43588420               -0.30877987               39.39254805                0.40806889
               8.48148980                9.82725741               20.29976352                0.49624802               -2.74850263                0.54319159                1.10489901               -0.96052902               41.11299988                0.86395773
               9.44603316                9.68851526               20.50290835                0.57410402               -2.65264719               -0.06493748                1.86410518               -1.52220727               26.42054672                1.93348329
              10.42843686                9.57048689               20.39163283                0.70817794               -1.10342559               -0.49520955                1.79516493               -0.61392298                6.15483484                1.16865628
              11.42396465                9.46807116               20.19271376                0.94195619               -0.28316423               -0.23002861                0.87557158                0.11628989                1.12086777                0.60544260
              12.42277358                9.36756458               19.98085325                1.00000000               -0.11910762                0.09842336               -0.12084411                0.11700292                0.47711454               -0.79894616
               1.36717096                0.65925694               21.47223558                1.00000000               -0.55238004               -0.61136441                2.11044814               -0.11331672               -1.07569242                1.12377270
               2.36164716                0.51453484               21.34276174                1.00000000               -0.47166961               -0.45058103                1.60741675               -0.07197714               -1.10388965               -0.06115261
               3.35773757                0.36939070               21.21276446                0.69150164               -0.27247996               -0.30007878                1.09817742               -0.01213079               -0.78182969               -0.98643359
               4.35619756                0.22513514               21.08987227                0.51991105               -0.02175537               -0.16461777                0.60013416                0.05339996                1.05838185               -0.10354574
               5.35730246                0.08419298               20.99743995                0.44897976                0.15973173               -0.02823163                0.11265869                0.04653904                3.98066251               -0.09525050
               6.35939219               -0.05253867               20.93459396                0.45217425                0.17006422                0.11453890               -0.38566451               -0.00052827                5.31812877                0.01419683
               7.36070374               -0.18828468               20.87010542                0.52369454                0.15984629                0.25509543               -0.87748090                0.02320152                3.81074510                0.10231337
               8.36258912               -0.32655878               20.77660566                0.67154770                0.29549217                0.39238904               -1.37235115                0.02528669                1.17201615                0.15799738
               9.36661359               -0.46728688               20.65812001                0.91846934                0.51455415                0.53331130               -1.88996896               -0.01896629               -0.58517105                0.48954946
              10.37288020               -0.60869021               20.52865764                1.00000000                0.71416178                0.68617785               -2.43852141               -0.06835907               -1.00123544                0.38273379
              11.38089682               -0.74971807               20.40154143                1.00000000                0.80166202                0.85597280               -2.95367856               -0.12692075               -0.87509564               -0.92844993
               1.51075989                1.65314330               21.42562363                1.00000000               -0.48993860               -0.58263627                1.89271843               -0.03911953               -0.03603288                1.42857538
               2.50586051                1.51002903               21.29541758                0.93867709               -0.42218944               -0.41507992                1.39253306               -0.00013715                0.07042623               -0.16018642
               3.50231611                1.36638991               21.16733213                0.24129643               -0.32650474               -0.25908800                0.91404302                0.07119077                1.46101845               -1.53991960
               4.49933041                1.22348896               21.06491616                0.00010000               -0.28556762               -0.13086809                0.48017001                0.25447355                3.92554663               -1.76381259
               5.49660475                1.08391067               20.98554812                0.00010000               -0.18523355                0.03756068                0.04525456                0.45978999                6.75022880                0.58333673
               6.49562574                0.94860672               20.93830722                0.00010000                0.06705291                0.04453982               -0.38928079                0.56817350                8.32308717                0.65596022
               7.49794581                0.81426627               20.88945977                0.00010000                0.33586704                0.05296863               -0.81062977                0.47527785                6.69789358                0.63734182
               8.50234308                0.67736511               20.81020828                0.21380265                0.47719147                0.33601075               -1.23392506                0.22816984                3.96209688                1.99835620
               9.50748964                0.53804623               20.70762609                0.58744324                0.55345609                0.47942830               -1.67799673                0.07561623                1.97749136                1.62576554
              10.51341221                0.39817156               20.58917301                1.00000000                0.65829144                0.63382939               -2.14346406                0.00743787                0.69703527                0.77442283
              11.52065547                0.25884166               20.46094160                1.00000000                0.72432643                0.82273434               -2.67640374               -0.05169271                0.21386358               -0.99058698
               1.65261711                2.64760422               21.38513453                1.00000000               -0.42193043               -0.52340156                1.68887705               -0.04491889                0.19203925                1.66707431
               2.64839780                2.50623324               21.24610502                0.71646739               -0.34578316               -0.34069834                1.14289690               -0.00722350                0.37857612               -0.50930036
               3.64570144                2.36420894               21.11078338                0.08727457               -0.23157668               -0.16285082                0.63345248                0.06189465                2.12647771               -2.68052233
               4.64376627                2.22251778               21.00673198                0.00010000               -0.21604718               -0.02184908                0.26269240                0.34005007                7.91803049               -1.21878782
               5.64138050                2.08494420               20.98713622                0.00010000               -0.16831062                0.04531536                0.02331842                0.63746375               11.53192937                0.83724630
               6.64040006                1.94835213               20.95471482                0.00010000                0.00352024               -0.05135746               -0.29282612                0.73152393               10.78512326                1.42438761
               7.64145091                1.81277469               20.91936171                0.00010000                0.14862478               -0.12066967               -0.61686596                0.79322678               10.48065492                1.91817933
               8.64337255                1.68016144               20.88046932                0.08058528                0.29342762                0.01724883               -0.93862145                0.50659272                7.22804118                3.59021894
               9.64731946                1.54230169               20.77974713                0.32105438                0.44304900                0.27757030               -1.32250753                0.04337464                3.06099639                4.23043549
              10.65223353                1.40398637               20.65741137                0.75991922                0.56016606                0.51608391               -1.82688081               -0.02709862                1.18324727                1.54861739
              11.65852278                1.26673662               20.51892950                1.00000000                0.62892464                0.77916193               -2.40468397               -0.07599438                0.38194545               -0.89333738
               1.79260347                3.64267527               21.34334281                1.00000000               -0.34921524               -0.45902296                1.47417008               -0.04566245                0.04437539                1.51722960
               2.78911132                3.50321506               21.19178010                0.67235929               -0.26670063               -0.26221925                0.87789954               -0.00479696                0.15783098               -0.77443947
               3.78726946                3.36313289               21.04246235                0.06578033               -0.18575825               -0.06144170                0.29884353                0.05093964                5.23906715               -3.18405229
               4.78539615                3.22305198               20.99252689                0.00010000               -0.18748893                0.03978589                0.24765810                0.18477502               12.20563639                0.31416367
               5.78351968                3.08481697               20.98245964                0.00010000               -0.14852128               -0.02420202                0.00203238                0.34770065               14.34948388                0.66025234
               6.78242573                2.94757957               20.97490814                0.00010000               -0.07593219               -0.08959629               -0.20439011                0.42464617               14.34539317                1.73184981
               7.78200104                2.81185288               20.96425505                0.00010000                0.02611066               -0.13865409               -0.42668293                0.44408851               13.85517811                2.91271618
               8.78294794                2.67771009               20.94625927                0.08480111                0.12655804               -0.24003209               -0.68271355                0.36425816               11.18240436                4.17750587
               9.78453220                2.54359764               20.88144682                0.31620831                0.27436801                0.05754248               -0.81170074                0.10552462                4.71757389                4.94902133
              10.78843530                2.40849324               20.73335933                0.72568491                0.45514491                0.39728417               -1.44749321               -0.00760232                0.31721120                1.74197222
              11.79363510                2.27442490               20.58003318                1.00000000                0.51997937                0.73233375               -2.11451237               -0.05942639                0.06035658               -0.72767702
               1.93062427                4.63842376               21.29989711                1.00000000               -0.27800323               -0.39011602                1.25441704               -0.04445269                0.02281691                1.40994650
               2.92784424                4.50098885               21.13710827                0.64901059               -0.18704775               -0.18387361                0.61680849               -0.00175436                0.09146991               -0.80081846
               3.92688332                4.36298010               20.97566075                0.05565457               -0.10332756                0.02683469               -0.01117603               -0.02634508                7.77966324               -3.04903322
               4.92577769                4.22331350               20.96661357                0.00010000               -0.15381956                0.04642060                0.07411138                0.00402607               16.60121892               -0.51427531
               5.92380693                4.08446016               20.98163493                0.00010000               -0.19603054               -0.01973746               -0.01817790                0.07507008               17.91812122                0.75800035
               6.92185708                3.94656020               20.99858604                0.00010000               -0.18023841               -0.10644034               -0.11710799                0.08923337               18.00751078                1.96900960
               7.92020216                3.81000161               21.01487358                0.00010000               -0.14720608               -0.20454950               -0.23133871                0.09428180               17.90775940                3.37565658
               8.91891296                3.67536080               21.02907184                0.09351307               -0.07776798               -0.26502842               -0.37463568                0.08550785               14.16041057                5.15784389
               9.91864680                3.54345254               20.96926293                0.32972862                0.11706369               -0.05951222               -0.38114772                0.05847407                5.32211259                3.82957293
              10.92125423                3.41193206               20.80575747                0.74549129                0.34120731                0.29491168               -1.09123615                0.00153582                0.08178961                1.38846274
              11.92547094                3.28138329               20.64074925                1.00000000                0.42167146                0.64517994               -1.81676783               -0.04533902                0.01096896               -0.83531046
               2.06658422                5.63487295               21.25597034                1.00000000               -0.20643367               -0.32012793                1.03425075               -0.04417294                0.02030688                1.37079883
               3.06451989                5.49953759               21.08218279                0.62640789               -0.10831547               -0.10636878                0.35553518                0.00076486                0.09549819               -0.82144304
               4.06441791                5.36366959               20.90986126                0.04592340               -0.02616331                0.11136882               -0.31328153               -0.13143497               10.13902659               -2.99050080
               5.06399662                5.22398039               20.93690433                0.00010000               -0.13217685                0.10661502               -0.11184005               -0.25041050               20.89726186               -0.79835384
               6.06177438                5.08442222               20.97986193                0.00010000               -0.26638383                0.02954126               -0.06033237               -0.25121822               21.78613686                0.63110826
               7.05866894                4.94545076               21.02450132                0.00010000               -0.33441498               -0.09658727               -0.02817482               -0.29076620               21.94023548                2.06226192
               8.05508608                4.80776189               21.07007364                0.00010000               -0.37308867               -0.23456323               -0.02033952               -0.32377388               22.03641171                3.63132281
               9.05120717                4.67240952               21.11580239                0.10235823               -0.29778305               -0.33599747               -0.04794953               -0.22258438               16.52038960                5.39222527
              10.04913042                4.54240739               21.04976720                0.34362367               -0.03359545               -0.14877632                0.01834718               -0.02943308                5.53107249                3.27238699
              11.05053526                4.41439148               20.87494404                0.76691244                0.23477144                0.19736426               -0.74786202               -0.00018999                0.05629190                1.10911037
              12.05382585                4.28732850               20.69912451                1.00000000                0.32905839                0.54354071               -1.52802247               -0.04365329                0.01029894               -1.02259471
               2.20041153                6.63202120               21.21173511                1.00000000               -0.13486318               -0.25058049                0.81370723               -0.04371466                0.02143112                1.34167003
               3.19906290                6.49886148               21.02701903                0.60391862               -0.02998585               -0.02874702                0.09459653                0.00312843                0.11160661               -0.84225673
               4.19981181                6.36520748               20.84406335                0.03631839                0.04769708                0.19706515               -0.61358333               -0.24239124               12.43980634               -2.98995302
               5.20001684                6.22544580               20.90585803                0.00010000               -0.12498104                0.20299605               -0.30329726               -0.50938629               25.14669112               -0.95109061
               6.19731219                6.08505098               20.97721797                0.00010000               -0.36573742                0.11353134               -0.10587355               -0.59209290               25.74362025                0.50729288
               7.19270209                5.94462846               21.05092764                0.00010000               -0.52721344               -0.05119233                0.06380616               -0.70246057               25.99253440                2.00290849
               8.18676792                5.80531034               21.12692935                0.00010000               -0.64431645               -0.24642381                0.20582628               -0.77466656               26.23534805                3.64642643
               9.17981576                5.66864085               21.20474855                0.11131010               -0.53458707               -0.41757047                0.31094120               -0.55684888               18.62422647                5.50367752
              10.17607618                5.54047701               21.12732948                0.35758593               -0.17432164               -0.23716158                0.40496797               -0.11649272                5.49096123                3.01018281
              11.17632933                5.41587934               20.94197055                0.78835532                0.13238294                0.10071890               -0.41365974               -0.00325843                0.05562122                0.92621881
              12.17872384                5.29225411               20.75563849                1.00000000                0.23945111                0.44200868               -1.24596859               -0.04326892                0.01054774               -1.15466834
               2.33202937                7.62986134               21.16721122                1.00000000               -0.06331949               -0.18220632                0.59337463               -0.04316806                0.02206888                1.31147012
               3.33139618                7.49896265               20.97159473                0.58152327                0.04782000                0.04924998               -0.16557892                0.00566190                0.13130093               -0.86306891
               4.33298577                7.36761089               20.77811516                0.02685378                0.12846079                0.28467819               -0.91220547               -0.34484669               14.67407616               -2.99134460
               5.33396539                7.22804031               20.87328978                0.00010000               -0.11179548                0.31801284               -0.49054267               -0.73089217               29.34459565               -1.07308282
               6.33074986                7.08669285               20.97338970                0.00010000               -0.48025102                0.22134132               -0.14965344               -0.88726922               29.73006214                0.36552616
               7.32436037                6.94442692               21.07637360                0.00010000               -0.75847523                0.03703530                0.15956089               -1.07942572               30.08679213                1.78905417
               8.31558036                6.80283341               21.18346796                0.00010000               -0.97284219               -0.22104171                0.44532363               -1.24012426               30.53892216                3.42947049
               9.30490353                6.66405811               21.29499403                0.12039051               -0.80091451               -0.48175203                0.70467423               -0.91472570               20.64038558                5.47086009
              10.29956207                6.53766416               21.20323643                0.37162055               -0.31052655               -0.32457331                0.78316150               -0.20431062                5.29569391                2.85020268
              11.29869300                6.41640585               21.00763975                0.80979485                0.03244369                0.00509155               -0.08579202               -0.00731331                0.05899356                0.82126498
              12.30021094                6.29616867               20.81101060                1.00000000                0.15179437                0.34191820               -0.96889884               -0.04349440                0.01086503               -1.21947000
               2.46134555                8.62837707               21.12235382                1.00000000                0.00810380               -0.11627931                0.37367751               -0.04244419                0.02887021                1.28544079
               3.46142658                8.49984648               20.91593097                0.55922259                0.12458332                0.12862665               -0.42446227                0.00765775                0.16282975               -0.89535013
               4.46383721                8.37090104               20.71213540                0.01758312                0.24452246                0.37334553               -1.20805828               -0.44109465               16.86520924               -2.89950634
               5.46631703                8.23180605               20.83968530                0.00010000               -0.03285038                0.39541863               -0.66588517               -0.87532874               33.47597795               -1.03187877
               6.46318020                8.08947781               20.96801045                0.00010000               -0.56720082                0.29681108               -0.18965503               -0.99786932               33.64594374                0.22868455
               7.45497302                7.94536916               21.09898827                0.00010000               -1.04229808                0.19299553                0.25296777               -1.24886279               34.11917735                1.37974270
               8.44233424                7.80088951               21.23681057                0.00010000               -1.41412599               -0.06530807                0.68554156               -1.61608941               34.94326149                2.80633397
               9.42669050                7.65900581               21.38429881                0.12964150               -1.13460084               -0.47372913                1.11957346               -1.33429072               22.74904872                5.02266709
              10.41964223                7.53398554               21.27804727                0.38577459               -0.45059700               -0.40828151                1.15426762               -0.31373198                5.09845822                2.64965326
              11.41767856                7.41598117               21.07264812                0.83126642               -0.06569518               -0.08978599                0.23765361               -0.01352894                0.07977038                0.80001358
              12.41832832                7.29909247               20.86594337                1.00000000                0.06497659                0.24436934               -0.69523168               -0.04405923                0.01798399               -1.23183887
               2.58824168                9.62753575               21.07728784                1.00000000                0.07836858               -0.05400003                0.15648418               -0.04140580                0.00440544                1.08758394
               3.58902536                9.50153518               20.85977688                0.53710021                0.19813133                0.20957565               -0.68294280                0.00751059                0.28778326               -0.81355047
               4.59220430                9.37507780               20.64787758                0.00857496                0.44283450                0.45586260               -1.49345047               -0.57516451               19.15137158               -2.18992661
               5.59788205                9.23594869               20.80755597                0.00010000                0.25125326                0.26972232               -0.81965812               -0.74271822               37.47895895               -0.62976528
               6.59722937                9.09262907               20.96125176                0.00010000               -0.49553184                0.30414770               -0.22477787               -0.72135641               37.29221514                0.11383726
               7.58797141                8.94828683               21.11637923                0.00010000               -1.38037212                0.34706775                0.33225437               -0.91403172               37.85446969                0.76220421
               8.56962192                8.80152725               21.28137580                0.00010000               -2.14248674                0.33965644                0.89520630               -1.43682197               39.28929223                1.60777279
               9.54512168                8.65458353               21.46620965                0.13912129               -1.66549328               -0.21236713                1.51651853               -1.46230998               25.15878902                3.30615249
              10.53631206                8.52949853               21.35022473                0.40013776               -0.59030945               -0.47204127                1.50942345               -0.47102988                5.27336946                1.87091210
              11.53331549                8.41461013               21.13792597                0.85284783               -0.16024483               -0.18287440                0.55981888               -0.02229489                0.22058618                0.72544306
              12.53310716                8.30105606               20.92084807                1.00000000               -0.02083283                0.15047154               -0.42447396               -0.04598096               -0.01484555               -1.03493193
               2.71251857               10.62729707               21.02844708                1.00000000                0.15161780               -0.02386789               -0.06677464                0.10178124                0.55875244                0.90041545
               3.71403475               10.50403799               20.80566411                0.76152923                0.27009235                0.25028102               -0.92927592                0.13699962                1.21535048               -0.70711446
               4.71792042               10.38001829               20.59595481                0.50147643                0.99383239                0.49404948               -1.72711731               -0.77026322               21.64019226               -1.56686897
               5.73391139               10.23720050               20.78159561                0.44213451                0.92472602                0.12518133               -0.93388626               -0.61994234               40.93247768               -0.35386048
               6.73641494               10.09556076               20.95334982                0.43373548               -0.30585946                0.29316886               -0.25416695               -0.32594234               40.39987022                0.05996257
               7.72779420                9.95231052               21.12633159                0.45221407               -1.45569169                0.40236893                0.38607203               -0.41162719               41.03084456                0.42207740
               8.70730110                9.80768264               21.31050798                0.49565199               -2.91605952                0.61553875                1.03827570               -1.10968499               42.83043920                0.90450653
               9.66947301                9.65475846               21.52115365                0.57272182               -2.85530396                0.01749341                1.77842619               -1.72176256               27.82171886                2.04295026
              10.65019502                9.52454472               21.40960028                0.70475071               -1.18989395               -0.49538151                1.79749562               -0.73344254                6.70736411                1.23093635
              11.64567514                9.41232369               21.20144003                0.93327441               -0.28390812               -0.22864491                0.86952160                0.11382361                1.18595721                0.63867739
              12.64451686                9.30210190               20.97955598                1.00000000               -0.11582751                0.10458450               -0.13819777                0.11879131                0.50299752               -0.83870899
               1.48821296                0.71837370               22.49335127                1.00000000               -0.55442526               -0.61282255                2.11297834               -0.11221979               -1.11324258                1.15929821
               2.48266870                0.56231326               22.35884759                1.00000000               -0.47613687               -0.45111402                1.60950062               -0.07082904               -1.14462292               -0.06718241
               3.47869022                0.40578198               22.22375696                0.68865384               -0.29510888               -0.29752164                1.09952654               -0.02998264               -0.81988999               -1.00509893
               4.47676653                0.24964204               22.09588288                0.51947572               -0.08070023               -0.16352686                0.60079296                0.01178757                1.02937854               -0.10634034
               5.47707621                0.09545727               21.99855086                0.44908973                0.09067306               -0.02425121                0.10835994                0.00783024                3.95027870               -0.09760363
               6.47857999               -0.05607842               21.93067453                0.45200308                0.15392611                0.12060256               -0.39896516               -0.02145411                5.28691822                0.01690330
               7.48015474               -0.20691577               21.86122652                0.52264900                0.20403631                0.26208202               -0.89856873               -0.00659232                3.78467935                0.10920899
               8.48266071               -0.35923014               21.76276429                0.66872150                0.34732789                0.39954394               -1.39584771               -0.00633010                1.13689036                0.16670708
               9.48710129               -0.51289023               21.63910576                0.91207722                0.54320511                0.53863572               -1.91254102               -0.03546244               -0.64537939                0.50241668
              10.49352481               -0.66670523               21.50415413                1.00000000                0.72638983                0.69154042               -2.46172536               -0.06864265               -1.05958388                0.41358214
              11.50162909               -0.82006107               21.37189296                1.00000000                0.81042754                0.86434784               -2.97558673               -0.12612790               -0.91637678               -0.98295978
               1.64315120                1.71224548               22.44455617                1.00000000               -0.48949234               -0.58467724                1.89404489               -0.03846303               -0.02613808                1.47070072
               2.63825627                1.55780212               22.30935049                0.92354554               -0.42125969               -0.41529841                1.39376467                0.00075554                0.09176701               -0.18425081
               3.63472600                1.40280677               22.17649322                0.23687882               -0.31047591               -0.25559965                0.91744978                0.04656680                1.51556196               -1.60811293
               4.63204675                1.24800677               22.06972910                0.00010000               -0.23556265               -0.12657813                0.48136222                0.15934362                4.00375189               -1.81452963
               5.63001475                1.09521476               21.98598623                0.00010000               -0.12473942               -0.01477118                0.04122291                0.27969638                6.83241034                0.60173511
               6.62955197                0.94512760               21.93434647                0.00010000                0.08249607                0.01880977               -0.40360421                0.34746025                8.42012363                0.70659339
               7.63166467                0.79570505               21.88123738                0.00010000                0.30163386                0.05781318               -0.83406185                0.29106091                6.81036346                0.70688274
               8.63558464                0.64476530               21.79773779                0.20990955                0.44097720                0.33037127               -1.26002132                0.13052587                4.06861542                2.08498861
               9.64048421                0.49249613               21.69071596                0.57786070                0.54195824                0.47922478               -1.70375467                0.04138726                2.06439934                1.71170704
              10.64642381                0.34021017               21.56762668                1.00000000                0.66197180                0.63771352               -2.16546613                0.00321786                0.73875006                0.81553323
              11.65372365                0.18858241               21.43406398                1.00000000                0.72998425                0.83289350               -2.69880993               -0.05160295                0.22062705               -1.04794120
               1.79633040                2.70668016               22.40202008                1.00000000               -0.42078764               -0.52581349                1.68849741               -0.04545624                0.19885489                1.71027205
               2.79212252                2.55400730               22.25752101                0.70322887               -0.34567488               -0.33909471                1.13993097               -0.00795369                0.40463561               -0.55855983
               3.78941690                2.40066999               22.11711445                0.08458097               -0.22885621               -0.15564785                0.63191277                0.03206860                2.24249687               -2.82491619
               4.78754540                2.24711048               22.00938991                0.00010000               -0.19337951               -0.05966301                0.26782744                0.14579368                8.16771039               -1.21833765
               5.78554931                2.09516185               21.98733837                0.00010000               -0.12532500               -0.03784673                0.01565071                0.30385641               11.81774688                0.87424463
               6.78503890                1.94429777               21.95170735                0.00010000                0.03944713               -0.10899867               -0.30987398                0.38280590               11.04142167                1.51647293
               7.78633826                1.79424050               21.91307346                0.00010000                0.17206279               -0.14092580               -0.64155573                0.47540860               10.74676450                2.04635766
               8.78848016                1.64737729               21.87093849                0.07858722                0.30729544               -0.01247140               -0.96762324                0.31605957                7.48016739                3.73255347
               9.79248416                1.49669427               21.76640767                0.31531100                0.45113670                0.23957663               -1.34520464               -0.01629407                3.22464087                4.46696600
              10.79750289                1.34604904               21.63903476                0.74399979                0.56841984                0.50917216               -1.84828587               -0.04321327                1.24871181                1.63223912
              11.80385256                1.19659680               21.49477093                1.00000000                0.63496711                0.80032359               -2.42680459               -0.08599181                0.41022897               -0.94405614
               1.94758779                3.70172921               22.35807117                1.00000000               -0.34804277               -0.46050823                1.47182008               -0.04598553                0.04386098                1.55224638
               2.94410737                3.55102023               22.20053286                0.66032482               -0.26618026               -0.25872815                0.87239904               -0.00468791                0.16608321               -0.82839387
               3.94226419                3.39969381               22.04541585                0.06370142               -0.18183007               -0.05162082                0.29106461               -0.02546469                5.52283423               -3.34117546
               4.94047077                3.24681351               21.99501473                0.00010000               -0.16798020               -0.02844811                0.24765558               -0.03693596               12.66156822                0.32827373
               5.93890459                3.09445783               21.98242946                0.00010000               -0.11706638               -0.07733583               -0.00984966                0.04493717               14.73563669                0.69490421
               6.93812944                2.94294763               21.97276497                0.00010000               -0.04056287               -0.14374888               -0.22587859                0.10469239               14.75732537                1.81514894
               7.93809333                2.79288654               21.95984549                0.00010000                0.06613139               -0.18729065               -0.45652831                0.13698309               14.25622084                3.03633693
               8.93945207                2.64451587               21.93924828                0.08281619                0.16966254               -0.29498363               -0.72020891                0.14008293               11.64934536                4.32341206
               9.94148658                2.49728766               21.87325319                0.31088961                0.31024711               -0.00913834               -0.82736162                0.02699588                5.00691652                5.21484782
              10.94565701                2.35039362               21.71879711                0.71143311                0.47108574                0.38074971               -1.46493672               -0.01201641                0.33432929                1.84254287
              11.95090829                2.20458888               21.55878564                1.00000000                0.52512857                0.76236168               -2.13467691               -0.06199616                0.06180641               -0.76283703
               2.09682865                4.69746999               22.31242180                1.00000000               -0.27644807               -0.39044648                1.25086683               -0.04476973                0.02289179                1.44213363
               3.09406416                4.54883273               22.14323966                0.63743014               -0.18571601               -0.17985908                0.60926062               -0.00092666                0.09639373               -0.85221615
               4.09311432                4.39963757               21.97549674                0.05376930               -0.10107515                0.03611230               -0.02232414               -0.13579033                8.14765940               -3.18755585
               5.09204266                4.24654152               21.96731710                0.00010000               -0.14001917                0.00608881                0.06442021               -0.25333551               17.24653936               -0.58641704
               6.09031394                4.09361513               21.98137334                0.00010000               -0.16693115               -0.06251786               -0.03629752               -0.23227762               18.48251792                0.77941491
               7.08870404                3.94142279               21.99728707                0.00010000               -0.14021338               -0.15464314               -0.14480647               -0.23259580               18.57621293                2.04877749
               8.08750967                3.79049468               22.01238235                0.00010000               -0.09116729               -0.26074563               -0.26886612               -0.22541099               18.47026017                3.50557928
               9.08688069                3.64147761               22.02509716                0.09136557               -0.01816686               -0.33694456               -0.42192722               -0.15189515               14.80458909                5.33402998
              10.08714634                3.49651150               21.96539419                0.32411277                0.15403241               -0.11449464               -0.39323239               -0.02672320                5.69754059                4.03163036
              11.08996134                3.35366403               21.79477306                0.73073562                0.35378873                0.28063615               -1.10575987               -0.00006150                0.09044889                1.46756972
              12.09422211                3.21184403               21.62248995                1.00000000                0.42607703                0.67169919               -1.83478991               -0.04477720                0.01186462               -0.86979864
               2.24396692                5.69392028               22.26629009                1.00000000               -0.20456665               -0.31978131                1.03000378               -0.04440933                0.02023621                1.40237692
               3.24192125                5.54742305               22.08569336                0.61527111               -0.10636613               -0.10213882                0.34635124                0.00196681                0.10046581               -0.87214961
               4.24183960                5.40041605               21.90666407                0.04421963               -0.02473802                0.12005075               -0.32685740               -0.26089972               10.58478732               -3.12254714
               5.24142649                5.24693529               21.93571235                0.00010000               -0.12309203                0.08808021               -0.12864361               -0.53360117               21.71547461               -0.87788401
               6.23937776                5.09320747               21.97914644                0.00010000               -0.24142603               -0.00005388               -0.08520252               -0.57066088               22.53424012                0.63796843
               7.23659797                4.93985477               22.02405814                0.00010000               -0.29237340               -0.13843226               -0.06310479               -0.62973466               22.68378761                2.14088221
               8.23353029                4.78767163               22.06965076                0.00010000               -0.31003123               -0.29082134               -0.06695320               -0.66953338               22.76866662                3.77209533
               9.23039735                4.63777698               22.11503738                0.10005518               -0.23822975               -0.40686811               -0.10772517               -0.47974847               17.31713310                5.58799720
              10.22876569                4.49499777               22.04990810                0.33770680               -0.00370526               -0.18913773                0.00913514               -0.11922944                5.97363613                3.44736015
              11.23032324                4.35600634               21.86740451                0.75158843                0.24435282                0.18770480               -0.76024266               -0.00207795                0.06391956                1.17486745
              12.23365275                4.21802286               21.68375845                1.00000000                0.33295073                0.56440912               -1.54492615               -0.04317621                0.01077437               -1.06442963
               2.38893492                6.69107437               22.21984762                1.00000000               -0.13271940               -0.24987371                0.80904137               -0.04389955                0.02118396                1.37294826
               3.38760772                6.54678996               22.02791413                0.59324263               -0.02754146               -0.02441959                0.08414784                0.00456949                0.11701234               -0.89187197
               4.38838409                6.40203859               21.83785439                0.03480270                0.04857492                0.20536504               -0.62897673               -0.38274770               12.96005674               -3.11891688
               5.38857922                6.24830312               21.90272567                0.00010000               -0.12014199                0.20093196               -0.32528024               -0.80954783               26.13471209               -1.03016444
               6.38598125                6.09361406               21.97601880                0.00010000               -0.34670154                0.09915086               -0.13666547               -0.92612413               26.67887583                0.51159789
               7.38164519                5.93865415               22.05137088                0.00010000               -0.48922284               -0.08289210                0.02166359               -1.06142212               26.91978956                2.08137498
               8.37619679                5.78467826               22.12872483                0.00010000               -0.58428046               -0.29539613                0.14975299               -1.14714017               27.15122478                3.79698925
               9.36995958                5.63334025               22.20751178                0.10886527               -0.48322014               -0.47743586                0.23789863               -0.82777179               19.55838622                5.72838733
              10.36653239                5.49272874               22.13134926                0.35139739               -0.15324486               -0.26572307                0.39821108               -0.20392610                5.97767210                3.17134615
              11.36689468                5.35741813               21.93778099                0.77250952                0.13965750                0.09473115               -0.42449542               -0.00532756                0.06302155                0.98279783
              12.36932554                5.22313222               21.74309509                1.00000000                0.24308541                0.45838516               -1.26248721               -0.04290541                0.01084422               -1.20213013
               2.53165775                7.68892280               22.17311907                1.00000000               -0.06093271               -0.18127644                0.58839443               -0.04333595                0.02164176                1.34299391
               3.53104842                7.54693466               21.96988313                0.57133159                0.05068642                0.05360513               -0.17705062                0.00722363                0.13732303               -0.91121496
               4.53267148                7.40452336               21.76891297                0.02554600                0.13058224                0.29258705               -0.92904550               -0.48817662               15.27029144               -3.11703164
               5.53366007                7.25095393               21.86826773                0.00010000               -0.10836151                0.33001731               -0.51600940               -1.03361333               30.50221554               -1.14393501
               6.53050425                7.09519049               21.97172999                0.00010000               -0.46773685                0.22171873               -0.18526343               -1.22605261               30.85216813                0.37012192
               7.52430533                6.93819692               22.07774526                0.00010000               -0.73014322                0.01951539                0.11108753               -1.44694849               31.20383899                1.86424972
               8.51590138                6.78176370               22.18761999                0.00010000               -0.92569523               -0.25640243                0.38075882               -1.62745725               31.65430484                3.58293380
               9.50579143                6.62822826               22.30164221                0.11782174               -0.76460452               -0.52476795                0.62005078               -1.19202735               21.70035689                5.72052341
              10.50060929                6.48968331               22.21104976                0.36518422               -0.29891030               -0.34340494                0.77877298               -0.28709313                5.80417523                3.00193771
              11.49981322                6.35790096               22.00673513                0.79347920                0.03785886                0.00199931               -0.09538339               -0.00953587                0.06664339                0.87172601
              12.50136647                6.22719057               21.80123782                1.00000000                0.15532505                0.35461481               -0.98545888               -0.04323702                0.01109039               -1.27105428
               2.67204449                8.68744884               22.12606326                1.00000000                0.01071513               -0.11512705                0.36836534               -0.04263476                0.02849658                1.31840122
               3.67215164                8.54786206               21.91162600                0.54953768                0.12783949                0.13299788               -0.43685445                0.00918288                0.17009537               -0.94232415
               4.67460128                8.40789033               21.69996821                0.01647809                0.25440895                0.38069937               -1.22616929               -0.58087772               17.54244382               -3.01775377
               5.67723982                8.25490347               21.83289786                0.00010000               -0.01920402                0.41344677               -0.69378048               -1.15979835               34.80413225               -1.08734341
               6.67421720                8.09804843               21.96593356                0.00010000               -0.55534081                0.30410051               -0.22892495               -1.30696074               34.94885877                0.23334623
               7.66613301                7.93904446               22.10127142                0.00010000               -1.03004476                0.19410653                0.19955057               -1.58552829               35.42656660                1.44157070
               8.65361631                7.77955021               22.24333618                0.00010000               -1.39667872               -0.07400866                0.61457517               -1.98568732               36.27178212                2.94094151
               9.63819943                7.62284489               22.39506084                0.12695551               -1.12492401               -0.48977120                1.02690279               -1.61420817               23.93079512                5.27235680
              10.63111783                7.48586065               22.28958380                0.37911393               -0.45013635               -0.41895489                1.15229903               -0.39454760                5.61443273                2.78918068
              11.62919670                7.35745812               22.07498370                0.81451457               -0.06181185               -0.09062863                0.22922129               -0.01601850                0.08893843                0.84733945
              12.62988159                7.23022451               21.85890638                1.00000000                0.06848844                0.25392656               -0.71195611               -0.04389146                0.01861683               -1.28657792
               2.80997861                9.68662026               22.07882381                1.00000000                0.08119770               -0.05259241                0.15081238               -0.04159567                0.00158420                1.11866294
               3.81079059                9.54959461               21.85288223                0.52790682                0.20169510                0.21401906               -0.69631228                0.00876119                0.29992889               -0.85396627
               4.81401251                9.41213734               21.63285046                0.00768195                0.47577038                0.46266823               -1.51274575               -0.71196444               19.92002115               -2.27630364
               5.82030600                9.25922286               21.79922238                0.00010000                0.31057653                0.25901139               -0.84926646               -0.94781332               38.97632648               -0.65883775
               6.82022404                9.10127250               21.95881152                0.00010000               -0.46065046                0.30694335               -0.26664522               -0.92645430               38.76247120                0.11619568
               7.81109299                8.94207905               22.11943948                0.00010000               -1.39184216                0.36671266                0.27537215               -1.13300119               39.33833120                0.79696645
               8.79238720                8.78028353               22.28997964                0.00010000               -2.19480809                0.37664803                0.82010769               -1.69929997               40.83375090                1.68974100
               9.76719683                8.61843284               22.48092522                0.13631317               -1.71410425               -0.16793140                1.41992983               -1.69017563               26.47049432                3.47930864
              10.75810512                8.48130421               22.36532394                0.39324289               -0.60339215               -0.47530676                1.50969670               -0.55822564                5.80406506                1.96845261
              11.75512898                8.35608839               22.14348894                0.83564192               -0.15746337               -0.18207753                0.55258810               -0.02518559                0.23776102                0.76578722
              12.75495585                8.23226910               21.91651771                1.00000000               -0.01731335                0.15750354               -0.44134737               -0.04592649               -0.01553155               -1.08335067
               2.94526388               10.68639699               22.02774875                1.00000000                0.15459111               -0.02232726               -0.07286259                0.10307146                0.57146197                0.92839935
               3.94680979               10.55214244               21.79630191                0.75708660                0.27349333                0.25478264               -0.94352572                0.13925499                1.26115331               -0.74119357
               4.95073374               10.41714369               21.57858849                0.50109122                1.11693071                0.50063505               -1.74699051               -0.93081436               22.51384712               -1.62674759
               5.96914840               10.26008370               21.77211593                0.44259551                1.10490920                0.08608312               -0.96435479               -0.76357928               42.58935098               -0.37609101
               6.97283193               10.10418730               21.95060875                0.43393610               -0.23432247                0.29148007               -0.29757401               -0.42446112               42.01404001                0.05534614
               7.96446195                9.94637871               22.12991919                0.45203233               -1.47777020                0.42996555                0.32685828               -0.51831005               42.66035098                0.43573007
               8.94327652                9.78708317               22.32052903                0.49503207               -3.05433552                0.67996400                0.96031326               -1.25569019               44.53794159                0.94523453
               9.90337524                9.61948626               22.53847687                0.57127537               -3.04893798                0.10534245                1.67933933               -1.91859140               29.27146109                2.15396474
              10.88229776                9.47635451               22.42758275                0.70122629               -1.28235695               -0.49496975                1.79837545               -0.86422026                7.31434524                1.29504595
              11.87772810                9.35381657               22.21010420                0.92452590               -0.28480599               -0.22718246                0.86323468                0.11091564                1.25315643                0.67277342
              12.87660164                9.23337458               21.97808929                1.00000000               -0.11264592                0.11054845               -0.15477583                0.12038115                0.52946875               -0.87945162
               1.61391347                0.78003310               23.51449515                1.00000000               -0.55644626               -0.61445977                2.11597693               -0.11126907               -1.15055589                1.19447372
               2.60834901                0.61218538               23.37495175                1.00000000               -0.48044973               -0.45147961                1.61105510               -0.06986643               -1.18522041               -0.07391936
               3.60430448                0.44381619               23.23475499                0.68570279               -0.31788914               -0.29460295                1.09931401               -0.04904992               -0.85784536               -1.02212775
               4.60199123                0.27531588               23.10188813                0.51898307               -0.13940522               -0.16245420                0.59904535               -0.03017915                0.99873514               -0.10926490
               5.60151637                0.10737017               22.99960715                0.44917827                0.02318330               -0.02123162                0.10154991               -0.03109514                3.91456138               -0.10004936
               6.60245489               -0.05954447               22.92661465                0.45182566                0.13956003                0.12502458               -0.41408162               -0.04240115                5.24892361                0.01947460
               7.60430757               -0.22612220               22.85213404                0.52156601                0.24963994                0.26791938               -0.92052548               -0.03594047                3.75439366                0.11606180
               8.60744769               -0.39317165               22.74868870                0.66580860                0.40042921                0.40623269               -1.41945272               -0.03792540                1.10123635                0.17546206
               9.61231616               -0.56045895               22.61986919                0.90551850                0.57268134                0.54374057               -1.93461287               -0.05234261               -0.70550384                0.51402008
              10.61890132               -0.72736367               22.47942313                1.00000000                0.73877290                0.69652697               -2.48407066               -0.06923012               -1.11775559                0.44669323
              11.62709162               -0.89371929               22.34202969                1.00000000                0.81902976                0.87241548               -2.99658321               -0.12538247               -0.95658762               -1.03762092
               1.78064850                1.77388850               23.46350453                1.00000000               -0.48896991               -0.58692184                1.89580273               -0.03784804               -0.01493541                1.51229104
               2.77575880                1.60767059               23.32329287                0.90811600               -0.41998836               -0.41528539                1.39442827                0.00143993                0.11562673               -0.21071562
               3.77224873                1.44087016               23.18568113                0.23231422               -0.29231777               -0.25141030                0.91947230                0.01993765                1.57163532               -1.67833666
               4.76991244                1.27369133               23.07454340                0.00010000               -0.18065678               -0.12252370                0.48048272                0.05965103                4.07960347               -1.86366909
               5.76863560                1.10715786               22.98637258                0.00010000               -0.05676872               -0.06921571                0.03497737                0.09580346                6.90781696                0.61817211
               6.76877707                0.94170577               22.93023513                0.00010000                0.10630798               -0.00962232               -0.41943527                0.12188218                8.50791346                0.75635849
               7.77076176                0.77655699               22.87277854                0.00010000                0.27298695                0.06079667               -0.85799815                0.10161931                6.91731085                0.77685649
               8.77423681                0.61089068               22.78500785                0.20587473                0.40634941                0.32368305               -1.28591776                0.03077338                4.17455541                2.17149796
               9.77888874                0.44497846               22.67355100                0.56803204                0.53011902                0.47813632               -1.72902271                0.00553863                2.15402814                1.79958028
              10.78483919                0.27960160               22.54586368                1.00000000                0.66523348                0.64121936               -2.18674622               -0.00152018                0.78271312                0.85855605
              11.79219341                0.11500486               22.40696540                1.00000000                0.73542242                0.84265606               -2.72042347               -0.05150421                0.22746137               -1.10514502
               1.94559234                2.76829466               23.41890448                1.00000000               -0.41961942               -0.52850146                1.68859767               -0.04605827                0.20514798                1.75260320
               2.94139615                2.60387967               23.26890364                0.68982383               -0.34549302               -0.33710264                1.13624877               -0.00885880                0.43227466               -0.61101380
               3.93868248                2.43878798               23.12342164                0.08180611               -0.22497984               -0.14715367                0.62878178               -0.00093650                2.36492212               -2.97558681
               4.93689655                2.27286540               23.01208852                0.00010000               -0.16322399               -0.10005319                0.27102902               -0.05503312                8.41671381               -1.22020769
               5.93541800                2.10598586               22.98744923                0.00010000               -0.07015743               -0.12388811                0.00519157               -0.03778732               12.09455756                0.90732902
               6.93549340                1.94026308               22.94851734                0.00010000                0.08685244               -0.17014705               -0.32918377                0.02435043               11.29119467                1.60590847
               7.93715505                1.77509373               22.90653059                0.00010000                0.20741431               -0.16431293               -0.66767258                0.14596604               11.00876335                2.17307538
               8.93964169                1.61330202               22.86111685                0.07648609                0.32804798               -0.04355116               -0.99668679                0.11501976                7.73485349                3.87147459
               9.94371601                1.44910378               22.75284304                0.30940366                0.46014101                0.19648112               -1.36749996               -0.08041717                3.39364172                4.71024629
              10.94884451                1.28546072               22.62044565                0.72799237                0.57694971                0.50020992               -1.86922381               -0.06098526                1.31590113                1.71905132
              11.95525501                1.12313383               22.47039341                1.00000000                0.64104960                0.82221366               -2.44819745               -0.09765077                0.43921477               -0.99355439
               2.10855731                3.76331847               23.37277922                1.00000000               -0.34690085               -0.46235764                1.47005435               -0.04629170                0.04313912                1.58669593
               3.10508830                3.60092853               23.20922808                0.64814055               -0.26565180               -0.25478215                0.86637037               -0.00451801                0.17461345               -0.88447268
               4.10324427                3.43792709               23.04828365                0.06155121               -0.17371969               -0.04036114                0.28169787               -0.10808384                5.81193937               -3.50381217
               5.10161391                3.27169027               22.99748001                0.00010000               -0.13810519               -0.09889326                0.24317634               -0.26558325               13.11888757                0.33383748
               6.10048217                3.10468009               22.98226265                0.00010000               -0.07288501               -0.13271902               -0.02516036               -0.26590616               15.11475116                0.72451306
               7.10015621                2.93830283               22.97039057                0.00010000                0.00799858               -0.20102499               -0.25041174               -0.22652199               15.16343519                1.89421503
               8.10064214                2.77327073               22.95512449                0.00010000                0.11854728               -0.23929029               -0.48868421               -0.18204821               14.65210544                3.15534710
               9.10252715                2.61001966               22.93185509                0.08073182                0.22397778               -0.35248602               -0.75878119               -0.10057207               12.12556552                4.46256649
              10.10512170                2.44890808               22.86489958                0.30541775                0.35311400               -0.08367761               -0.84362577               -0.06040769                5.30863387                5.48704765
              11.10958943                2.28960580               22.70406059                0.69708075                0.48862385                0.36076685               -1.48219651               -0.01680057                0.35165442                1.94686418
              12.11489417                2.13144914               22.53733964                1.00000000                0.53047411                0.79403388               -2.15392453               -0.06469418                0.06304457               -0.79628026
               2.26944639                4.75904751               23.32491445                1.00000000               -0.27492144               -0.39119004                1.24796105               -0.04509297                0.02286165                1.47439259
               3.26669717                4.59878403               23.14929348                0.62572711               -0.18436595               -0.17542005                0.60123518                0.00000845                0.10147410               -0.90536318
               4.26575907                4.43798076               22.97521427                0.05181656               -0.09326466                0.04669566               -0.03494678               -0.25230482                8.51811958               -3.32971270
               5.26483188                4.27088754               22.96790197                0.00010000               -0.11358758               -0.03380623                0.05040946               -0.52197209               17.89243009               -0.66696442
               6.26348732                4.10333148               22.98090898                0.00010000               -0.12297768               -0.10719809               -0.05860214               -0.55068696               19.04241454                0.79484870
               7.26237233                3.93624258               22.99568991                0.00010000               -0.08450281               -0.20591186               -0.17645783               -0.56696940               19.13928999                2.12308804
               8.26179726                3.77030792               23.00949626                0.00010000               -0.01897146               -0.32047069               -0.30992409               -0.55761295               19.02654219                3.62907235
               9.26199290                3.60625230               23.02063329                0.08912800                0.05622277               -0.41324060               -0.47195206               -0.40561783               15.46463096                5.50167368
              10.26292172                3.44743023               22.96139828                0.31835525                0.19872723               -0.17542767               -0.40649123               -0.12309617                6.09299290                4.23793324
              11.26596744                3.29267606               22.78364228                0.71591762                0.36763649                0.26375489               -1.12041654               -0.00209247                0.09955621                1.54910547
              12.27027445                3.13901451               22.60405346                1.00000000                0.43070041                0.69928123               -1.85204236               -0.04419081                0.01267400               -0.90363635
               2.42818241                5.75549467               23.27657041                1.00000000               -0.20271890               -0.31981651                1.02633510               -0.04466407                0.02011998                1.43438796
               3.42615522                5.59742013               23.08910982                0.60400882               -0.10438677               -0.09748813                0.33665461                0.00327650                0.10571273               -0.92420837
               4.42609467                5.43886100               22.90332411                0.04245543               -0.01657345                0.12997433               -0.34192168               -0.39818243               11.03126030               -3.25741372
               5.42582375                5.27101415               22.93433145                0.00010000               -0.09906430                0.06997950               -0.14959193               -0.83050412               22.53285267               -0.96326272
               6.42411339                5.10253613               22.97815788                0.00010000               -0.19916875               -0.03160456               -0.11477085               -0.90361855               23.27837886                0.63935902
               7.42184037                4.93418459               23.02323923                0.00010000               -0.23166088               -0.18368696               -0.10300860               -0.98276428               23.42122633                2.21377704
               8.41948017                4.76686132               23.06873457                0.00010000               -0.22739411               -0.35135111               -0.11859699               -1.02877485               23.49273993                3.90576261
               9.41729249                4.60175485               23.11364789                0.09766793               -0.16220775               -0.48242620               -0.17225204               -0.75478163               18.13696383                5.77384462
              10.41623601                4.44539953               23.04994991                0.33166531                0.03354053               -0.23339761               -0.00149226               -0.22176227                6.44508381                3.62606972
              11.41796330                4.29488090               22.85973918                0.73622852                0.25487199                0.17643124               -0.77298718               -0.00441426                0.07214923                1.24220754
              12.42133345                4.14543476               22.66822598                1.00000000                0.33701502                0.58588107               -1.56124191               -0.04271044                0.01119770               -1.10690444
               2.58470219                6.75265118               23.22791594                1.00000000               -0.13058117               -0.24945501                0.80484473               -0.04410680                0.02094855                1.40480567
               3.58339637                6.59683427               23.02870199                0.58244666               -0.02503896               -0.01968286                0.07311338                0.00612968                0.12288136               -0.94245350
               4.58420141                6.44058025               22.83148381                0.03323217                0.05751459                0.21477139               -0.64594507               -0.53174074               13.47991873               -3.25004418
               5.58454667                6.27228713               22.89935243                0.00010000               -0.09784553                0.19876395               -0.35135437               -1.12559658               27.12041575               -1.11308398
               6.58224450                6.10269939               22.97448466                0.00010000               -0.30774051                0.08221984               -0.17266382               -1.27579857               27.60964779                0.51164801
               7.57839186                5.93256884               23.05136091                0.00010000               -0.42964921               -0.11866132               -0.02650772               -1.43558531               27.83972016                2.15481090
               8.57365151                5.76328090               23.12992441                0.00010000               -0.50164011               -0.34902931                0.08698867               -1.53378680               28.05651493                3.94096116
               9.56835905                5.59660377               23.20950652                0.10633529               -0.41455461               -0.54176603                0.15788183               -1.11651115               20.52312959                5.94397409
              10.56536042                5.44276227               23.13529370                0.34508234               -0.12575654               -0.29655783                0.38997220               -0.30412283                6.50246328                3.33608642
              11.56584392                5.29620468               22.93348064                0.75663713                0.14760439                0.08783819               -0.43580988               -0.00778257                0.07122466                1.04049714
              12.56831251                5.15073213               22.73038875                1.00000000                0.24685850                0.47507685               -1.27858403               -0.04255990                0.01114605               -1.25100441
               2.73893409                7.75050557               23.17897911                1.00000000               -0.05853500               -0.18054110                0.58378245               -0.04351934                0.02126214                1.37508276
               3.73834874                7.59702647               22.96805371                0.56101880                0.05364530                0.05833114               -0.18914539                0.00890096                0.14396456               -0.96003797
               4.74000700                7.44315643               22.75953425                0.02417031                0.14219678                0.30141122               -0.94746035               -0.64121130               15.86556363               -3.24432456
               5.74119268                7.27498942               22.86296960                0.00010000               -0.08456503                0.34087058               -0.54559304               -1.35441183               31.65632473               -1.21713939
               6.73831570                7.10418053               22.96968443                0.00010000               -0.43227625                0.21819101               -0.22657369               -1.58193683               31.96879130                0.37175254
               7.73254715                6.93181137               23.07859535                0.00010000               -0.67730978               -0.00312442                0.05556226               -1.82949637               32.31223628                1.93577762
               8.72476950                6.75988073               23.19108314                0.00010000               -0.85331295               -0.29661048                0.30787425               -2.02814431               32.75707429                3.73157197
               9.71548090                6.59091953               23.30739504                0.11516229               -0.71084278               -0.57169243                0.52588138               -1.48563177               22.79788739                5.96384020
              10.71055265                6.43946837               23.21881189                0.35862317               -0.28215490               -0.36336506                0.77293441               -0.38171334                6.35904341                3.15727753
              11.70983780                6.29663766               23.00573208                0.77712472                0.04373547               -0.00152648               -0.10548139               -0.01206232                0.07519482                0.92315090
              12.71142736                6.15493630               22.79130143                1.00000000                0.15895601                0.36744480               -1.00169539               -0.04299662                0.01135262               -1.32435536
               2.89078999                8.74904036               23.12972113                1.00000000                0.01335435               -0.11410282                0.36333456               -0.04282541                0.02817524                1.35184407
               3.89092354                8.59800089               22.90719388                0.53970706                0.13121193                0.13767354               -0.44984649                0.01083311                0.17809224               -0.98986165
               4.89341423                8.44660847               22.68761201                0.01530980                0.27553962                0.38875103               -1.24574019               -0.73193863               18.21849192               -3.13728768
               5.89643433                8.27910454               22.82580969                0.00010000                0.01847919                0.42822165               -0.72578656               -1.46452094               36.12791324               -1.14427942
               6.89378382                8.10706321               22.96343195                0.00010000               -0.51663012                0.30486334               -0.27431858               -1.63260954               36.24538806                0.23619205
               7.88610173                7.93250635               23.10297928                0.00010000               -0.99016734                0.18835117                0.13819717               -1.93458752               36.72445517                1.50133434
               8.87398047                7.75734869               23.24910207                0.00010000               -1.35214744               -0.08757545                0.53385043               -2.36473694               37.58685309                3.07321939
               9.85905878                7.58516992               23.40483687                0.12416651               -1.09862253               -0.50829295                0.92237260               -1.90736757               25.15620731                5.51955034
              10.85200802                7.43549497               23.30109325                0.37230552               -0.44620143               -0.42998653                1.14892116               -0.48593876                6.18329517                2.93219374
              11.85013475                7.29617415               23.07723255                0.79768973               -0.05763590               -0.09161392                0.22033134               -0.01874027                0.09909438                0.89565254
              12.85085530                7.15808103               22.85170425                1.00000000                0.07205508                0.26349133               -0.72837454               -0.04373085                0.01932514               -1.34302869
               3.04015652                9.74822352               23.08030409                1.00000000                0.08407732               -0.05125899                0.14531028               -0.04178201               -0.00129091                1.15013632
               4.04099729                9.59977995               22.84585064                0.51856416                0.20540314                0.21869371               -0.71022521                0.01012362                0.31287333               -0.89492610
               5.04426458                9.45093145               22.61762266                0.00671545                0.52251177                0.46994059               -1.53334388               -0.86284922               20.68753057               -2.36365270
               6.05144753                9.28355386               22.79057064                0.00010000                0.39985560                0.23935176               -0.88298190               -1.17049154               40.46882842               -0.68878841
               7.05226169                9.11027780               22.95591886                0.00010000               -0.39388033                0.30050030               -0.31495251               -1.14333992               40.22561651                0.11767441
               8.04356992                8.93557839               23.12188667                0.00010000               -1.37252483                0.37796742                0.20991926               -1.35846773               40.81231245                0.83096630
               9.02481120                8.75812922               23.29777795                0.00010000               -2.21913291                0.40699235                0.73423561               -1.96514731               42.36544595                1.77138326
               9.99918726                8.58075367               23.49460825                0.13339077               -1.74907756               -0.12177295                1.30993526               -1.92354197               27.83124299                3.65278857
              10.98982964                8.43086864               23.38041866                0.38618309               -0.61551605               -0.47834753                1.50868705               -0.65508494                6.39195661                2.06855882
              11.98687694                8.29480538               23.14897773                0.81834849               -0.15453266               -0.18127531                0.54503452               -0.02827745                0.25606659                0.80705012
              12.98673899                8.16020613               22.91202112                1.00000000               -0.01379491                0.16443373               -0.45782928               -0.04588894               -0.01618731               -1.13314024
               3.18684149               10.74801518               23.02698983                1.00000000                0.15765832               -0.02083376               -0.07892394                0.10445627                0.58415826                0.95674444
               4.18841808               10.60237477               22.78679360                0.75255897                0.27709220                0.25948199               -0.95835077                0.14168381                1.30812875               -0.77584680
               5.19238334               10.45600728               22.56101500                0.50067060                1.26300381                0.50758352               -1.76819747               -1.11228403               23.38679428               -1.68745012
               6.21367815               10.28389157               22.76230851                0.44303352                1.32545731                0.03377161               -0.99913148               -0.92364101               44.24069476               -0.39890591
               7.21889248               10.11307321               22.94739834                0.43413521               -0.12986027                0.27954170               -0.34769734               -0.52821452               43.61998862                0.05013287
               8.21108095                9.94006570               23.13286875                0.45184535               -1.46951174                0.44873105                0.25876157               -0.62813106               44.27904102                0.44889825
               9.18950225                9.76548854               23.32971425                0.49438826               -3.16162131                0.73593163                0.87120585               -1.39745673               46.23287496                0.98584941
              10.14784852                9.58273446               23.55474044                0.56977347               -3.23238219                0.19807969                1.56642718               -2.11189989               30.77404534                2.26581319
              11.12485460                9.42592802               23.44556779                0.69761536               -1.38084021               -0.49406175                1.79817447               -1.00679502                7.98171824                1.36086709
              12.12023172                9.29254864               23.21870473                0.91572889               -0.28592841               -0.22567379                0.85686529                0.10756137                1.32257770                0.70765071
              13.11913604                9.16136970               22.97646046                1.00000000               -0.10956800                0.11635746               -0.17071876                0.12180998                0.55654841               -0.92124057
               1.74428863                0.84424441               24.53567081                1.00000000               -0.55841762               -0.61624438                2.11931001               -0.11045894               -1.18780400                1.22938766
               2.73870445                0.66415264               24.39106869                1.00000000               -0.48458447               -0.45167176                1.61204337               -0.06908632               -1.22591449               -0.08142767
               3.73459694                0.48348716               24.24574324                0.68264041               -0.34076879               -0.29137723                1.09758258               -0.06919739               -0.89591054               -1.03753638
               4.73188907                0.30214620               24.10786378                0.51843115               -0.19780106               -0.16132054                0.59492225               -0.07225702                0.96659199               -0.11239878
               5.73064092                0.11992542               24.00058186                0.44925481               -0.04287554               -0.01893026                0.09197510               -0.06996055                3.87425452               -0.10266982
               6.73103156               -0.06292989               23.92239290                0.45164080                0.12638229                0.12819740               -0.43157029               -0.06317589                5.20519431                0.02183568
               7.73316856               -0.24588352               23.84281602                0.52046054                0.29593635                0.27291545               -0.94406198               -0.06450471                3.72085174                0.12280883
               8.73695029               -0.42835920               23.73437523                0.66281479                0.45441127                0.41263055               -1.44383261               -0.06919546                1.06587460                0.18420531
               9.74225679               -0.60997344               23.60041350                0.89881848                0.60294565                0.54873256               -1.95663469               -0.06944773               -0.76480754                0.52421786
              10.74900920               -0.79065247               23.45447272                1.00000000                0.75137154                0.70112452               -2.50573958               -0.07012664               -1.17519558                0.48213690
              11.75728422               -0.97068490               23.31196130                1.00000000                0.82750142                0.88006884               -3.01666917               -0.12472004               -0.99526489               -1.09188572
               1.92327581                1.83808196               24.48247223                1.00000000               -0.48835946               -0.58934358                1.89789074               -0.03728394               -0.00246734                1.55344906
               2.91839221                1.65963592               24.33723906                0.89241270               -0.41838125               -0.41504122                1.39451259                0.00189152                0.14202733               -0.23970153
               3.91490818                1.48057339               24.19488267                0.22761105               -0.27224201               -0.24657117                0.92017185               -0.00846982                1.62939490               -1.75076094
               4.91294737                1.30053300               24.07933876                0.00010000               -0.12144130               -0.11882406                0.47759095               -0.04371281                4.15363315               -1.91134711
               5.91247936                1.11973612               23.98668578                0.00010000                0.01784524               -0.12535298                0.02662760               -0.09050896                6.97742578                0.63208631
               6.91330428                0.93835208               23.92595776                0.00010000                0.13794066               -0.04048036               -0.43673266               -0.10703091                8.58761703                0.80468962
               7.91523817                0.75684563               23.86407741                0.00010000                0.24995083                0.06197888               -0.88254721               -0.09197641                7.01956927                0.84663404
               8.91830329                0.57576711               23.77201944                0.20170318                0.37353883                0.31593698               -1.31181000               -0.07086259                4.28026177                2.25762405
               9.92270895                0.39551389               23.65613550                0.55798892                0.51801877                0.47620204               -1.75386868               -0.03184585                2.24654345                1.88923349
              10.92866367                0.21635878               23.52389175                1.00000000                0.66802516                0.64428143               -2.20716086               -0.00683836                0.82901950                0.90352895
              11.93606945                0.03811579               23.37965551                1.00000000                0.74057799                0.85181842               -2.74086966               -0.05144304                0.23437695               -1.16162483
               2.10043503                2.83245754               24.43579204                1.00000000               -0.41841752               -0.53144024                1.68911641               -0.04671987                0.21078588                1.79422942
               3.09625086                2.65585181               24.28024599                0.67626875               -0.34522845               -0.33474913                1.13187091               -0.00994035                0.46150793               -0.66668187
               4.09353047                2.47855573               24.12969008                0.07896111               -0.21993876               -0.13742269                0.62416403               -0.03696131                2.49422357               -3.13276963
               5.09185208                2.29976972               24.01481049                0.00010000               -0.12594089               -0.14280907                0.27257718               -0.26076150                8.66556262               -1.22601939
               6.09101165                2.11741836               23.98744221                0.00010000               -0.00353258               -0.21238905               -0.00774415               -0.38497642               12.36287695                0.93557244
               7.09178143                1.93626050               23.94512367                0.00010000                0.14511813               -0.23463625               -0.35038613               -0.34151407               11.53541548                1.69156665
               8.09391401                1.75535606               23.89972001                0.00010000                0.25416752               -0.19089103               -0.69484793               -0.19341056               11.26765181                2.29704721
               9.09686478                1.57795954               23.85100476                0.07428435                0.35570956               -0.07581719               -1.02563098               -0.09602333                7.99250232                4.00604982
              10.10102820                1.39955060               23.73905767                0.30335039                0.47028769                0.14797386               -1.38904801               -0.14907874                3.56778001                4.95948241
              11.10627054                1.22223316               23.60165028                0.71190756                0.58565657                0.48877496               -1.88924940               -0.08063834                1.38454754                1.80890870
              12.11274133                1.04635147               23.44580698                1.00000000                0.64707962                0.84437227               -2.46816215               -0.11108759                0.46866507               -1.04125657
               2.27555285                3.82745316               24.38747226                1.00000000               -0.34576471               -0.46454450                1.46880169               -0.04658344                0.04223873                1.62071656
               3.27209521                3.65294094               24.21786027                0.63580311               -0.26509024               -0.25040437                0.85977925               -0.00426335                0.18345327               -0.94260518
               4.27025105                3.47782493               24.05104981                0.05931829               -0.16128466               -0.02764404                0.27072285               -0.19631824                6.10550851               -3.67200740
               5.26886951                3.29767681               23.99987826                0.00010000               -0.09810026               -0.17094697                0.23430392               -0.49960621               13.57763269                0.32953720
               6.26828904                3.11548834               23.98192625                0.00010000               -0.01666056               -0.19007413               -0.04353877               -0.58274038               15.48820046                0.74810411
               7.26853630                2.93365936               23.96775674                0.00010000                0.06909377               -0.26123019               -0.27744593               -0.56696999               15.56459158                1.96784373
               8.26967092                2.75302781               23.95007181                0.00010000                0.18259881               -0.29450054               -0.52246454               -0.51127347               15.04375994                3.26829523
               9.27218828                2.57425076               23.92407266                0.07854935                0.28914168               -0.41206267               -0.79752241               -0.35739701               12.61130397                4.59323131
              10.27545375                2.39847337               23.85638067                0.29979018                0.40308794               -0.16653802               -0.86016552               -0.15737405                5.62239448                5.76444432
              11.28025004                2.22613427               23.68915318                0.68263395                0.50786635                0.33671956               -1.49883782               -0.02216874                0.36913770                2.05446623
              12.28561108                2.05500323               23.51570715                1.00000000                0.53610423                0.82667505               -2.17156476               -0.06750911                0.06403428               -0.82795294
               2.44852781                4.82316665               24.33738103                1.00000000               -0.27339884               -0.39233082                1.24562311               -0.04540933                0.02275641                1.50674322
               3.44579382                4.65084373               24.15526437                0.61387615               -0.18297920               -0.17052837                0.59264028                0.00114060                0.10679097               -0.96027333
               4.44486822                4.47800285               23.97479781                0.04979365               -0.07986336                0.05866532               -0.04916347               -0.37504130                8.89029225               -3.47550832
               5.44419655                4.29635078               23.96832529                0.00010000               -0.07469648               -0.07286166                0.03215441               -0.80028541               18.53858390               -0.75577431
               6.44337429                4.11361688               23.98020130                0.00010000               -0.06469968               -0.15346811               -0.08471826               -0.87831813               19.59867896                0.80346226
               7.44290256                3.93103590               23.99375791                0.00010000               -0.01385790               -0.26000265               -0.21140550               -0.91206682               19.69739820                2.19064196
               8.44309714                3.74946604               24.00618387                0.00010000                0.06843648               -0.38345434               -0.35360557               -0.90060524               19.57715771                3.74434554
               9.44427129                3.56971829               24.01565812                0.08679747                0.14500362               -0.49350598               -0.52352907               -0.67565938               16.14088263                5.65846503
              10.44599721                3.39621984               23.95726436                0.31246306                0.25130025               -0.24248101               -0.42070201               -0.23142093                6.50856802                4.44768997
              11.44929729                3.22896755               23.77236473                0.70103406                0.38280126                0.24389250               -1.13492558               -0.00473806                0.10907453                1.63246631
              12.45365323                3.06288497               23.58544910                1.00000000                0.43559404                0.72731252               -1.86807461               -0.04365677                0.01333427               -0.93730692
               2.61929051                5.81960654               24.28681679                1.00000000               -0.20086955               -0.32024306                1.02317661               -0.04491839                0.01998340                1.46674196
               3.61728181                5.64953037               24.09242645                0.59262499               -0.10236692               -0.09233679                0.32633015                0.00476749                0.11132140               -0.97764368
               4.61724317                5.47899824               23.89982564                0.04062125               -0.00160163                0.14123557               -0.35861637               -0.54234943               11.47779207               -3.39511346
               5.61724978                5.29621958               23.93272051                0.00010000               -0.06028032                0.05262592               -0.17461020               -1.13945607               23.34879919               -1.05434896
               6.61603756                5.11241898               23.97685102                0.00010000               -0.14019888               -0.06482080               -0.14860078               -1.24844245               24.01883907                0.63463219
               7.61444580                4.92845931               24.02199797                0.00010000               -0.15305683               -0.23208311               -0.14717051               -1.34814868               24.15269895                2.27961953
               8.61297643                4.74535873               24.06727882                0.00010000               -0.12622545               -0.41585649               -0.17428126               -1.39971599               24.20862182                4.03032132
               9.61192129                4.56438064               24.11159234                0.09519334               -0.07001770               -0.56228550               -0.24032952               -1.04766914               18.98060014                5.94715093
              10.61157607                4.39362375               24.04987826                0.32549098                0.07844290               -0.28156780               -0.01344244               -0.33790984                6.94635699                3.80807860
              11.61349015                4.23101213               23.85194477                0.72081669                0.26635182                0.16338146               -0.78597467               -0.00737126                0.08099942                1.31061121
              12.61690311                4.06954948               23.65253361                1.00000000                0.34129576                0.60758579               -1.57681682               -0.04231338                0.01152896               -1.15065826
               2.78778179                6.81676179               24.23594451                1.00000000               -0.12843105               -0.24936378                0.80105064               -0.04431595                0.02073860                1.43713314
               3.78649748                6.64899699               24.02937640                0.57152324               -0.02248800               -0.01441825                0.06139710                0.00782699                0.12926440               -0.99396111
               4.78733203                6.48082757               23.82493548                0.03159513                0.07446092                0.22552123               -0.66457332               -0.68849965               13.99878278               -3.38321245
               5.78798669                6.29740330               23.89569858                0.00010000               -0.05831525                0.19671505               -0.38132310               -1.45602505               28.10298586               -1.19973533
               6.78616572                6.11232046               23.97256552                0.00010000               -0.24934280                0.06296346               -0.21339105               -1.63961544               28.53561688                0.50687417
               7.78299984                5.92639424               24.05084072                0.00010000               -0.34921204               -0.15825997               -0.07998088               -1.82330030               28.75185232                2.22195219
               8.77918148                5.74114891               24.13046460                0.00010000               -0.39734755               -0.40706190                0.01847286               -1.93274520               28.95058653                4.07639276
               9.77505289                5.55847258               24.21066942                0.10371939               -0.32869740               -0.61029608                0.07191826               -1.42306496               21.51977326                6.14743973
              10.77260753                5.39058849               24.13914870                0.33864084               -0.09143779               -0.32972170                0.38039983               -0.41801736                7.06738171                3.50415930
              11.77322413                5.23223518               23.92906479                0.74072292                0.15623591                0.07999758               -0.44757390               -0.01071863                0.08022502                1.09891815
              12.77573225                5.07503668               23.71752341                1.00000000                0.25081194                0.49192385               -1.29432892               -0.04226362                0.01141768               -1.30192651
               2.95393378                7.81461927               24.18479472                1.00000000               -0.05612054               -0.18005227                0.57947155               -0.04369080                0.02093517                1.40765074
               3.95337257                7.64924201               23.96610022                0.55056838                0.05665451                0.06354564               -0.20189894                0.01072610                0.15126467               -1.00936668
               4.95506687                7.48350866               23.74996376                0.02273004                0.16319037                0.31142966               -0.96742056               -0.80324172               16.45919731               -3.37290210
               5.95663638                7.30015388               23.85735587                0.00010000               -0.04062760                0.35067673               -0.57897409               -1.69194794               32.80569894               -1.29249592
               6.95425432                7.11367825               23.96719852                0.00010000               -0.37425172                0.21086911               -0.27306361               -1.95350632               33.07902904                0.36998649
               7.94915135                6.92529411               24.07885650                0.00010000               -0.60055670               -0.03072050               -0.00633627               -2.22543029               33.41089878                2.00252525
               8.94224318                6.73721749               24.19377747                0.00010000               -0.75654619               -0.34145647                0.22749626               -2.44025415               33.84577272                3.87364357
               9.93402042                6.55217472               24.31215983                0.11240224               -0.63950290               -0.62249441                0.42286403               -1.79543309               23.93538483                6.19782968
              10.92945312                6.38702931               24.22650845                0.35191693               -0.25964203               -0.38453694                0.76578970               -0.48910650                6.96392689                3.31604395
              11.92882758                6.23261208               24.00462550                0.76072229                0.05008514               -0.00548303               -0.11607407               -0.01489456                0.08471951                0.97524667
              12.93045483                6.07938796               23.78120392                1.00000000                0.16272454                0.38037798               -1.01780378               -0.04278959                0.01164796               -1.37991830
               3.11766249                8.81316074               24.13332995                1.00000000                0.01601084               -0.11324887                0.35852753               -0.04298793                0.02790746                1.38568409
               4.11782260                8.65026790               23.90262907                0.52974309                0.13464105                0.14271850               -0.46336382                0.01261612                0.18682713               -1.03765792
               5.12035531                8.48705616               23.67505341                0.01406985                0.30777750                0.39763209               -1.26655463               -0.89374096               18.89248766               -3.25751948
               6.12397815                8.30441683               23.81838213                0.00010000                0.08000274                0.43971942               -0.76145435               -1.78841595               37.44569277               -1.20234072
               7.12195537                8.11653785               23.96044719                0.00010000               -0.45130807                0.29906730               -0.32527159               -1.97354877               37.53405770                0.23698234
               8.11495199                7.92577983               24.10403536                0.00010000               -0.92297940                0.17573997                0.06952544               -2.29446329               38.01116563                1.55819394
               9.10349578                7.73431979               24.25401319                0.00010000               -1.28097949               -0.10592348                0.44396860               -2.75128896               38.88623092                3.20169036
              10.08933240                7.54602269               24.41350829                0.12127340               -1.05538669               -0.52948428                0.80629440               -2.21307428               26.42885419                5.76198144
              11.08238805                7.38289775               24.31256223                0.36534581               -0.43824054               -0.44142352                1.14443585               -0.58877619                6.81012711                3.07863198
              12.08056759                7.23212552               24.07939033                0.78080920               -0.05316784               -0.09274313                0.21102451               -0.02166146                0.11035098                0.94475400
              13.08132469                7.08264424               23.84433889                1.00000000                0.07571009                0.27310619               -0.74474088               -0.04360312                0.02009544               -1.40159459
               3.27885969                9.81235429               24.08173002                1.00000000                0.08697843               -0.05001716                0.13993003               -0.04194107               -0.00420252                1.18188840
               4.27972948                9.65209638               23.83867773                0.50906964                0.20917132                0.22358407               -0.72445517                0.01158007                0.32659306               -0.93611465
               5.28304312                9.49146131               23.60218358                0.00567383                0.58284481                0.47769321               -1.55474746               -1.02743542               21.45276662               -2.45130884
               6.29138637                9.30894827               23.78156274                0.00010000                0.51886141                0.21065030               -0.92023144               -1.41004578               41.95440112               -0.71929831
               7.29342035                9.11965959               23.95251247                0.00010000               -0.29531160                0.28465669               -0.36908664               -1.37116384               41.67976487                0.11820796
               8.28548014                8.92880891               24.12363786                0.00010000               -1.32229034                0.38063411                0.13648213               -1.58928477               42.27429682                0.86376079
               9.26697454                8.73509902               24.30466435                0.00010000               -2.21495839                0.43038918                0.63797993               -2.23286587               43.88155811                1.85177166
              10.24118097                8.54158504               24.50712393                0.13036505               -1.76998845               -0.07422708                1.18640894               -2.16139871               29.24517358                3.82534158
              11.23157477                8.37820084               24.39549768                0.37896665               -0.62665584               -0.48120743                1.50677022               -0.76240153                7.04309416                2.17119163
              12.22864786                8.23075721               24.15438963                0.80097879               -0.15147286               -0.18049690                0.53724993               -0.03156796                0.27564208                0.84912138
              13.22854531                8.08485008               23.90736112                1.00000000               -0.01025423                0.17134271               -0.47417487               -0.04589015               -0.01680885               -1.18451277
               3.43733950               10.81216040               24.02617028                1.00000000                0.16076878               -0.01938933               -0.08498363                0.10589972                0.59675560                0.98530835
               4.43894719               10.65473959               23.77713490                0.74795281                0.28076050                0.26432092               -0.97342657                0.14425254                1.35610541               -0.81081092
               5.44295471               10.49661002               23.54322454                0.50021199                1.43158802                0.51487178               -1.79020676               -1.31432798               24.25753237               -1.74837517
               6.46757895               10.30862984               23.75213330                0.44344981                1.58583728               -0.03184310               -1.03758968               -1.09969444               45.88425798               -0.42208502
               7.47467146               10.12223098               23.94365481                0.43432616                0.00739600                0.25713884               -0.40386180               -0.63675548               45.21584567                0.04434578
               8.46772687                9.93339251               24.13509442                0.45165573               -1.43045615                0.45836031                0.18241602               -0.74049767               45.88479868                0.46139627
               9.44606233                9.74292757               24.33795315                0.49372408               -3.23621330                0.78285514                0.77131704               -1.53393866               47.91240163                1.02592907
              10.40300260                9.54453815               24.56980542                0.56821579               -3.40472470                0.29531116                1.43940127               -2.30053539               32.33368963                2.37765246
              11.37796784                9.37327360               24.46354624                0.69392660               -1.48578082               -0.49272407                1.79728458               -1.16182148                8.71591852                1.42833036
              12.37328699                9.22851558               24.22724150                0.90689622               -0.28733462               -0.22416331                0.85056113                0.10378803                1.39444503                0.74324659
              13.37222115                9.08607110               23.97467492                1.00000000               -0.10658395                0.12210141               -0.18626274                0.12313512                0.58430335               -0.96417334
               1.87936163                0.91101801               25.55688135                1.00000000               -0.56033425               -0.61817564                2.12297615               -0.10980548               -1.22514065                1.26414994
               2.87375829                0.71821609               25.40719262                1.00000000               -0.48852289               -0.45168379                1.61243916               -0.06850882               -1.26689156               -0.08974647
               3.86959117                0.52478660               25.25670664                0.67948993               -0.36369211               -0.28785063                1.09429213               -0.09033204               -0.93422200               -1.05130760
               4.86648445                0.33011795               25.11378657                0.51783301               -0.25594147               -0.16002657                0.58845606               -0.11412807                0.93296280               -0.11577593
               5.86447234                0.13310894               25.00144665                0.44931183               -0.10799121               -0.01697031                0.07960880               -0.10849517                3.82959278               -0.10550069
               6.86432462               -0.06623748               24.91798325                0.45145401                0.11349654                0.13062766               -0.45185691               -0.08357285                5.15613290                0.02388560
               7.86674228               -0.26618882               24.83325280                0.51932063                0.34215372                0.27744976               -0.97009648               -0.09200423                3.68459281                0.12934691
               8.87116770               -0.46477595               24.71981205                0.65974126                0.50901254                0.41895876               -1.47003621               -0.09986323                1.03154247                0.19287953
               9.87692253               -0.66141860               24.58073650                0.89197570                0.63409556                0.55375519               -1.97943763               -0.08667578               -0.82248910                0.53287675
              10.88384961               -0.85655901               24.42930834                1.00000000                0.76433123                0.70536208               -2.52723654               -0.07134434               -1.23132198                0.51999332
              11.89220915               -1.05094542               24.28169631                1.00000000                0.83595421                0.88721020               -3.03611715               -0.12421195               -1.03194147               -1.14502508
               2.07106550                1.90483626               25.50146235                1.00000000               -0.48765905               -0.59193952                1.90031860               -0.03677398                0.01121577                1.59430454
               3.06618891                1.71369926               25.35118312                0.87645075               -0.41642846               -0.41456341                1.39399179                0.00209047                0.17098830               -0.27129408
               4.06273693                1.52190810               25.20408456                0.22278102               -0.25034535               -0.24105757                0.91947127               -0.03851497                1.68900610               -1.82549769
               5.06118200                1.32851768               25.08409522                0.00010000               -0.05859099               -0.11562149                0.47265030               -0.14988128                4.22638457               -1.95751371
               6.06156511                1.13293924               24.98690513                0.00010000                0.09778883               -0.18260545                0.01638559               -0.27794346                7.04234020                0.64299508
               7.06313778                0.93506879               24.92150048                0.00010000                0.17631790               -0.07335395               -0.45521339               -0.33771380                8.66022602                0.85083922
               8.06509147                0.73658568               24.85512759                0.00010000                0.23230884                0.06145512               -0.90767977               -0.28852127                7.11754139                0.91544102
               9.06778395                0.53941364               24.75877165                0.19740494                0.34279162                0.30728682               -1.33785628               -0.17401726                4.38582206                2.34297730
              10.07194730                0.34411896               24.63847362                0.54773402                0.50578124                0.47334294               -1.77837646               -0.07077322                2.34203334                1.98061317
              11.07789958                0.15049461               24.50172047                1.00000000                0.67030737                0.64682335               -2.22653076               -0.01278659                0.87771769                0.95050284
              12.08535345               -0.04207332               24.35214800                1.00000000                0.74538683                0.86012382               -2.75968536               -0.05150585                0.24134054               -1.21664853
               2.26090015                2.89917922               25.45268681                1.00000000               -0.41718956               -0.53462216                1.69007572               -0.04741137                0.21562925                1.83530525
               3.25672826                2.70992483               25.29154106                0.66256049               -0.34488521               -0.33206027                1.12680225               -0.01114307                0.49233813               -0.72559495
               4.25400245                2.51996545               25.13590492                0.07604426               -0.21362876               -0.12644412                0.61802675               -0.07598903                2.63092795               -3.29671304
               5.25245568                2.32780552               25.01754007                0.00010000               -0.08200438               -0.18757313                0.27259683               -0.47002526                8.91491156               -1.23726952
               6.25236236                2.12945683               24.98729435                0.00010000                0.07341125               -0.30280753               -0.02270857               -0.73537443               12.62332748                0.95794526
               7.25392391                1.93229544               24.94150962                0.00010000                0.21323208               -0.30216618               -0.37294150               -0.71259187               11.77509752                1.77205332
               8.25662700                1.73504028               24.89263363                0.00010000                0.31150819               -0.22064478               -0.72251518               -0.54078484               11.52418523                2.41679453
               9.26015407                1.54136979               24.84060423                0.07198558                0.38995419               -0.10913614               -1.05394562               -0.31658008                8.25334766                4.13533788
              10.26442609                1.34804826               24.72506208                0.29714581                0.48160391                0.09356617               -1.40919383               -0.22252816                3.74685332                5.21374534
              11.26978615                1.15637746               24.58266066                0.69576368                0.59444058                0.47430315               -1.90754763               -0.10225376                1.45420669                1.90142917
              12.27631490                0.96625706               24.42103017                1.00000000                0.65287490                0.86606377               -2.48558052               -0.12636617                0.49824002               -1.08673526
               2.44862606                3.89414381               25.40215525                1.00000000               -0.34462481               -0.46706923                1.46806438               -0.04684241                0.04118026                1.65440747
               3.44517982                3.70705805               25.22642366                0.62331883               -0.26448037               -0.24562233                0.85261326               -0.00383237                0.19262437               -1.00279659
               4.44333646                3.51937922               25.05369810                0.05701613               -0.14448497               -0.01353450                0.25812598               -0.28951446                6.40273633               -3.84593229
               5.44229012                3.32476622               25.00216608                0.00010000               -0.04843794               -0.24378605                0.22124004               -0.73758708               14.03799543                0.31393844
               6.44236770                3.12688309               24.98139187                0.00010000                0.05061863               -0.24904370               -0.06448067               -0.90374169               15.85764484                0.76452238
               7.44330249                2.92902547               24.96484165                0.00010000                0.14168605               -0.32406254               -0.30628666               -0.91482468               15.96185290                2.03461022
               8.44520142                2.73217278               24.94467520                0.00010000                0.25709400               -0.35262306               -0.55699783               -0.84906780               15.43232683                3.37357073
               9.44844437                2.53723092               24.91590464                0.07626801                0.36438225               -0.47339383               -0.83529334               -0.63032597               13.10663167                4.71375438
              10.45248906                2.34599028               24.84769627                0.29401390                0.46006698               -0.25809108               -0.87635380               -0.26449270                5.94743742                6.04543869
              11.45764571                2.15998068               24.67408383                0.66808734                0.52889339                0.30781691               -1.51413263               -0.02821404                0.38658695                2.16438211
              12.46306693                1.97524796               24.49390835                0.99285973                0.54212232                0.85924248               -2.18659747               -0.07039825                0.06466982               -0.85840956
               2.63413483                4.88983784               25.34982691                1.00000000               -0.27186224               -0.39388948                1.24381084               -0.04571133                0.02261219                1.53916508
               3.63141621                4.70501238               25.16114629                0.60189745               -0.18154195               -0.16514104                0.58341068                0.00249532                0.11242887               -1.01704693
               4.63050399                4.51969476               24.97423100                0.04770043               -0.06080694                0.07209201               -0.06503780               -0.50312918                9.26352275               -3.62503241
               5.63020007                4.32292980               24.96854506                0.00010000               -0.02378585               -0.11061722                0.00981641               -1.08672843               19.18491809               -0.85280375
               6.63002828                4.12447596               24.97921462                0.00010000                0.00688249               -0.20092688               -0.11408800               -1.21352988               20.15253473                0.80426577
               7.63033772                3.92581419               24.99146180                0.00010000                0.07059622               -0.31656502               -0.24886273               -1.26620356               20.25155467                2.24998243
               8.63144020                3.72798782               25.00242415                0.00010000                0.16961663               -0.44928844               -0.39884090               -1.25277307               20.12307999                3.84952706
               9.63373005                3.53190191               25.01016271                0.08436861                0.24731365               -0.57721747               -0.57516533               -0.96203430               16.83351301                5.80199262
              10.63638647                3.34288644               24.95298424                0.30642894                0.31170686               -0.31567586               -0.43548803               -0.35232233                6.94378227                4.65975388
              11.63996419                3.16253380               24.76094377                0.68606785                0.39929506                0.22061910               -1.14889613               -0.00811541                0.11894137                1.71656751
              12.64437238                2.98344191               24.56669196                1.00000000                0.44081842                0.75496657               -1.88237248               -0.04321876                0.01377726               -0.97207486
               2.81736276                5.88626602               25.29703395                1.00000000               -0.19899575               -0.32109640                1.02044719               -0.04516149                0.01985968                1.49930748
               3.81537280                5.70375523               25.09563642                0.58110076               -0.10031497               -0.08655520                0.31526294                0.00647554                0.11740133               -1.03254542
               4.81535646                5.52082106               24.89615178                0.03872485                0.02007779                0.15415586               -0.37706654               -0.69252353               11.92386956               -3.53567833
               5.81577435                5.32255387               24.93083925                0.00010000               -0.00718742                0.03636319               -0.20353108               -1.45901167               24.16301925               -1.15103939
               6.81521271                5.12286455               24.97518586                0.00010000               -0.06538994               -0.09932910               -0.18613500               -1.60366447               24.75632018                0.62303557
               7.81446655                4.92269417               25.02029581                0.00010000               -0.05772377               -0.28324163               -0.19474540               -1.72427152               24.87882921                2.33694995
               8.81405823                4.72318701               25.06524895                0.00010000               -0.00807471               -0.48388576               -0.23282002               -1.78066278               24.91682813                4.14369164
               9.81430506                4.52568657               25.10884130                0.09262185                0.03762492               -0.64584182               -0.31045858               -1.35849428               19.84887229                6.10519204
              10.81481073                4.33967676               25.04968106                0.31918106                0.13114371               -0.33355851               -0.02638998               -0.46836479                7.47791028                3.99276600
              11.81692793                4.16439306               24.84401969                0.70534750                0.27878058                0.14842550               -0.79903551               -0.01099757                0.09045323                1.37921656
              12.82038634                3.99034729               24.63668965                1.00000000                0.34584074                0.62906945               -1.59154897               -0.04201523                0.01171784               -1.19700599
               2.99825319                6.88341591               25.24393695                1.00000000               -0.12625013               -0.24964389                0.79755504               -0.04451138                0.02057850                1.46975679
               3.99699069                6.70328128               25.02992993                0.56047762               -0.01991563               -0.00843828                0.04886061                0.00970858                0.13626154               -1.04636674
               4.99785488                6.52277788               24.81819235                0.02988933                0.09928275                0.23797030               -0.68498094               -0.85226865               14.51621350               -3.51822529
               5.99897634                6.32365706               24.89172596                0.00010000               -0.00200939                0.19510424               -0.41500844               -1.79954786               29.08189073               -1.28995227
               6.99781469                6.12248937               24.97021684                0.00010000               -0.17232584                0.04170223               -0.25829221               -2.01623813               29.45687946                0.49661308
               7.99552983                5.92014936               25.04976129                0.00010000               -0.24900717               -0.20134690               -0.13792097               -2.22298252               29.65624324                2.28137504
               8.99283455                5.71831010               25.13029387                0.00010000               -0.27297055               -0.46910003               -0.05455367               -2.34204426               29.83326043                4.20110935
               9.99007042                5.51898508               25.21094489                0.10100556               -0.22609303               -0.68246592               -0.01885793               -1.74711374               22.55008191                6.33587977
              10.98831269                5.33621527               25.14290170                0.33206724               -0.04983524               -0.36505181                0.36967086               -0.54639897                7.67428851                3.67531102
              11.98907371                5.16550231               24.92452916                0.72475972                0.16554629                0.07119983               -0.45973606               -0.01415967                0.09003903                1.15749638
              12.99162361                4.99602329               24.70450217                1.00000000                0.25499003                0.50875847               -1.30988320               -0.04204423                0.01163547               -1.35596633
               3.17674180                7.88127315               25.19056854                1.00000000               -0.05367977               -0.17985836                0.57536070               -0.04383269                0.02068387                1.44053256
               4.17620500                7.70358646               24.96401574                0.53998828                0.05967503                0.06944750               -0.21542211                0.01266231                0.15929419               -1.05896156
               5.17793530                7.52558046               24.74018584                0.02122154                0.19334507                0.32301897               -0.98899168               -0.97372267               17.05067586               -3.50216236
               6.18007190                7.32645596               24.85139011                0.00010000                0.02301752                0.35968965               -0.61590907               -2.04519041               33.94947080               -1.36973235
               7.17839565                7.12369859               24.96422316                0.00010000               -0.29428635                0.19997651               -0.32420401               -2.33958427               34.18231905                0.36432079
               8.17418617                6.91866723               25.07846863                0.00010000               -0.50070117               -0.06302423               -0.07383260               -2.63321860               34.49920026                2.06320048
               9.16838163                6.71380501               25.19563307                0.00010000               -0.63642780               -0.39072403                0.14060133               -2.86161831               34.91937390                4.00699687
              10.16145762                6.51203725               25.31585232                0.10954378               -0.55080538               -0.67698107                0.31238833               -2.12064372               25.11579755                6.41955470
              11.15736552                6.33237573               25.23412769                0.34507465               -0.23104511               -0.40684462                0.75767516               -0.61021780                7.62233603                3.47821957
              12.15683672                6.16581706               25.00341060                0.74427045                0.05689839               -0.00986040               -0.12713649               -0.01809355                0.09530190                1.02766733
              13.15850349                6.00052246               24.77094535                1.00000000                0.16667691                0.39343152               -1.03409759               -0.04263612                0.01197202               -1.43850954
               3.35274990                8.87981874               25.13689168                1.00000000                0.01867197               -0.11260938                0.35388110               -0.04308946                0.02771270                1.41974344
               4.35293662                8.70467023               24.89792660                0.51963082                0.13805145                0.14826819               -0.47739300                0.01450513                0.19634109               -1.08524003
               5.35551093                8.52923826               24.66228092                0.01275862                0.35088918                0.40768395               -1.28851243               -1.06598846               19.56364977               -3.37746113
               6.35995441                8.33085085               24.81058060                0.00010000                0.16504005                0.44803773               -0.80045750               -2.13072948               38.75601914               -1.26106656
               7.35881173                8.12648890               24.95692652                0.00010000               -0.35976832                0.28678731               -0.38127081               -2.32878815               38.81364052                0.23543982
               8.35275904                7.91888887               25.10436979                0.00010000               -0.82897843                0.15636612               -0.00578458               -2.66377406               39.28532971                1.61115110
               9.34223216                7.71049562               25.25798144                0.00010000               -1.18361058               -0.12901559                0.34566275               -3.14343750               40.16796591                3.32449704
              10.32908683                7.50544545               25.42096275                0.11827924               -0.99518196               -0.55369391                0.67961573               -2.53087319               27.75263999                5.99697962
              11.32232852                7.32807838               25.32398196                0.35824374               -0.42608595               -0.45336311                1.13919140               -0.70400225                7.50005997                3.22854691
              12.32056511                7.16530510               25.08145304                0.76386521               -0.04842187               -0.09402108                0.20133968               -0.02484157                0.12280346                0.99444335
              13.32136009                7.00389193               24.83680943                1.00000000                0.07949784                0.28286895               -0.76141731               -0.04350055                0.02095548               -1.46278421
               3.52617705                9.87902096               25.08310269                1.00000000                0.08985423               -0.04889555                0.13465247               -0.04204003               -0.00711672                1.21370575
               4.52707559                9.70655183               24.83136153                0.49942995                0.21289287                0.22869950               -0.73874335                0.01312388                0.34107996               -0.97701637
               5.53043490                9.53373414               24.58652771                0.00456241                0.65655398                0.48598036               -1.57657788               -1.20552343               22.21449391               -2.53836982
               6.54020667                9.33541671               24.77216601                0.00010000                0.66734829                0.17289478               -0.96056859               -1.66605794               43.43094424               -0.74988068
               7.54378187                9.12943434               24.94853712                0.00010000               -0.16513459                0.25932726               -0.42851080               -1.60928042               43.12317577                0.11770536
               8.53690397                8.92179455               25.12461631                0.00010000               -1.24127884                0.37458243                0.05568791               -1.82450505               43.72238130                0.89479711
               9.51895629                8.71122470               25.31053755                0.00010000               -2.18232874                0.44669484                0.53193745               -2.50120318               45.37926774                1.92980847
              10.49325740                8.50096337               25.51833643                0.12723400               -1.77652322               -0.02604565                1.04947344               -2.40369191               30.71679148                3.99521234
              11.48342583                8.32330846               25.41055407                0.37160421               -0.63655309               -0.48404291                1.50434501               -0.88091859                7.76399797                2.27632109
              12.48052634                8.16393663               25.15972273                0.78354479               -0.14830002               -0.17976324                0.52931369               -0.03509005                0.29666216                0.89193166
              13.48045983                8.00617984               24.90253762                1.00000000               -0.00665117                0.17833592               -0.49074593               -0.04592082               -0.01736071               -1.23775505
               3.69684736               10.87884083               25.02529015                1.00000000                0.16385551               -0.01801267               -0.09099100                0.10737008                0.60909542                1.01385747
               4.69848592               10.70924422               24.76732506                0.74327651                0.28441071                0.26923871               -0.98831930                0.14688476                1.40463602               -0.84567557
               5.70253558               10.53895787               24.52521086                0.49971806                1.62235648                0.52237260               -1.81255598               -1.53670590               25.12426048               -1.80885096
               6.73093305               10.33430875               24.74155672                0.44384539                1.88563527               -0.11079653               -1.07918605               -1.29148275               47.51785536               -0.44529462
               7.74024828               10.13167545               24.93932111                0.43451633                0.17727654                0.22411108               -0.46543518               -0.74977003               46.79988319                0.03798019
               8.73447858                9.92638052               25.13651707                0.45146310               -1.36044999                0.45859646                0.09852490               -0.85483614               47.47571059                0.47295558
               9.71303928                9.71942952               25.34514059                0.49303689               -3.27746771                0.82048217                0.66125023               -1.66449975               49.57349381                1.06493531
              10.66892922                9.50492454               25.58352847                0.56660702               -3.56511967                0.39611702                1.29809469               -2.48441758               33.95518255                2.48832770
              11.64173689                9.31839752               25.48151348                0.69016006               -1.59686456               -0.49109430                1.79613717               -1.32962905                9.52407916                1.49738878
              12.63699193                9.16170984               25.23571595                0.89803010               -0.28908118               -0.22267985                0.84444301                0.09961566                1.46904278                0.77956559
              13.63595527                9.00745864               24.97273520                1.00000000               -0.10366675                0.12788065               -0.20174298                0.12442463                0.61279632               -1.00841011
               2.01916327                0.98036541               26.57813033                1.00000000               -0.56219449               -0.62028155                2.12707867               -0.10934085               -1.26270136                1.29884946
               3.01354132                0.77437670               26.42331747                1.00000000               -0.49223613               -0.45151041                1.61216366               -0.06816840               -1.30828425               -0.09888389
               4.00931854                0.56770517               26.26762908                0.67624060               -0.38664983               -0.28400100                1.08926327               -0.11239912               -0.97274974               -1.06333482
               5.00580833                0.35921339               26.11963290                0.51718131               -0.31412243               -0.15841645                0.57971919               -0.15571916                0.89804263               -0.11933466
               6.00303610                0.14689844               26.00217404                0.44935865               -0.17301293               -0.01501221                0.06472171               -0.14652137                3.78043148               -0.10850255
               7.00234807               -0.06948664               25.91335576                0.45125851                0.09977600                0.13291391               -0.47516908               -0.10340378                5.10122444                0.02546342
               8.00503162               -0.28704617               25.82341409                0.51816246                0.38746886                0.28197872               -0.99967019               -0.11808777                3.64540033                0.13549061
               9.01009744               -0.50242081               25.70497451                0.65658600                0.56395488                0.42552808               -1.49956417               -0.12957319                0.99869352                0.20141345
              10.01631071               -0.71479015               25.56082475                0.88500676                0.66627544                0.55907252               -2.00440015               -0.10379389               -0.87772781                0.53987063
              11.02342295               -0.92507686               25.40392798                1.00000000                0.77793688                0.70933656               -2.54955907               -0.07286352               -1.28543444                0.56040783
              12.03186945               -1.13448880               25.25123896                1.00000000                0.84464982                0.89377514               -3.05564814               -0.12402099               -1.06600905               -1.19611296
               2.22405857                1.97416260               26.52047860                1.00000000               -0.48688062               -0.59473360                1.90322369               -0.03630734                0.02604021                1.63495489
               3.21918976                1.76986160               26.36511889                0.86025235               -0.41411787               -0.41386629                1.39282337                0.00203750                0.20249325               -0.30553003
               4.21577621                1.56486516               26.21327209                0.21783050               -0.22676322               -0.23486154                0.91714916               -0.07004488                1.75068395               -1.90250528
               5.21465450                1.35762923               26.08879177                0.00010000                0.00723447               -0.11299635                0.46567334               -0.25821376                4.29881707               -2.00194265
               6.21592090                1.14674832               25.98701349                0.00010000                0.18159192               -0.24039585                0.00488919               -0.46570891                7.10411528                0.65039715
               7.21828633                0.93184250               25.91685350                0.00010000                0.21984629               -0.10764810               -0.47424367               -0.56893355                8.72673473                0.89369102
               8.22031782                0.71577362               25.84592382                0.00010000                0.21936855                0.05952548               -0.93310606               -0.48682734                7.21117145                0.98208957
               9.22267371                0.50183447               25.74526231                0.19298185                0.31414864                0.29770615               -1.36406123               -0.27835990                4.49082848                2.42704634
              10.22660080                0.29080057               25.62056798                0.53729122                0.49349673                0.46965053               -1.80259665               -0.11099173                2.44040889                2.07361996
              11.23254364                0.08201651               25.47936114                1.00000000                0.67201923                0.64876151               -2.24460260               -0.01939971                0.92887822                0.99959861
              12.24004118               -0.12555104               25.32446180                1.00000000                0.74975417                0.86726076               -2.77630079               -0.05187206                0.24835337               -1.26931403
               2.42703911                2.96847074               26.46959355                1.00000000               -0.41596024               -0.53806925                1.69161475               -0.04808279                0.21955196                1.87593378
               3.42287951                2.76609938               26.30278203                0.64872599               -0.34445472               -0.32909082                1.12106851               -0.01238603                0.52475373               -0.78776134
               4.42015002                2.56300794               26.14205062                0.07305615               -0.20593124               -0.11424767                0.61025274               -0.11793834                2.77561563               -3.46744197
               5.41876089                2.35695346               26.02026243                0.00010000               -0.03206861               -0.23393186                0.27134384               -0.68181269                9.16554624               -1.25507378
               6.41950865                2.14209053               25.98698803                0.00010000                0.15916054               -0.39449016               -0.03908701               -1.08737964               12.87677960                0.97314147
               7.42194410                1.92836040               25.93766484                0.00010000                0.28972263               -0.37215583               -0.39616615               -1.08712405               12.01124501                1.84553163
               8.42530310                1.71414434               25.88526971                0.00010000                0.37795987               -0.25324548               -0.75003178               -0.89452215               11.77911224                2.53037615
               9.42950329                1.50353331               25.82992584                0.06958961                0.43028698               -0.14335469               -1.08084648               -0.54576780                8.51753645                4.25807606
              10.43390884                1.29460286               25.71087380                0.29081188                0.49416413                0.03296991               -1.42671458               -0.30062139                3.93048987                5.47156295
              11.43938658                1.08789837               25.56349933                0.67957236                0.60291402                0.45611525               -1.92270754               -0.12601885                1.52443026                1.99574486
              12.44596712                0.88285642               25.39609537                1.00000000                0.65805423                0.88621466               -2.49871460               -0.14348215                0.52752170               -1.13000498
               2.62783963                3.96340121               26.41683354                1.00000000               -0.34347916               -0.46997428                1.46791675               -0.04703364                0.04000199                1.68778346
               3.62440484                3.76327978               26.23491253                0.61069505               -0.26381396               -0.24046742                0.84489974               -0.00311073                0.20218066               -1.06510607
               4.62256335                3.56258020               26.05621233                0.05464157               -0.12345952                0.00202949                0.24396378               -0.38696531                6.70299181               -4.02567711
               5.62193565                3.35295059               26.00430306                0.00010000                0.01015092               -0.31659625                0.20441902               -0.97856355               14.50057340                0.28553189
               6.62276637                3.13885852               25.98063664                0.00010000                0.12771925               -0.30911596               -0.08735860               -1.22758023               16.22498691                0.77238796
               7.62449004                2.92439938               25.96163101                0.00010000                0.22440475               -0.38895063               -0.33618591               -1.26848921               16.35647842                2.09277307
               8.62725447                2.71070871               25.93893185                0.00010000                0.34048988               -0.41307549               -0.59138240               -1.19386396               15.81918829                3.46921121
               9.63129983                2.49896738               25.90736679                0.07389413                0.44844191               -0.53559136               -0.87083168               -0.91852896               13.61156357                4.82215979
              10.63622331                2.29145997               25.83885359                0.28809177                0.52349342               -0.35863602               -0.89121439               -0.38228002                6.28269198                6.32763215
              11.64176970                2.09113881               25.65887053                0.65345813                0.55160714                0.27323349               -1.52695441               -0.03524486                0.40373036                2.27459537
              12.64725545                1.89217325               25.47197520                0.98156168                0.54857463                0.89028773               -2.19767379               -0.07329337                0.06477054               -0.88949174
               2.82634130                4.95907125               26.36225724                1.00000000               -0.27029930               -0.39592800                1.24250106               -0.04596676                0.02245943                1.57155091
               3.82363830                4.76129003               26.16693258                0.58977254               -0.18006956               -0.15919825                0.57350387                0.00422163                0.11849647               -1.07586070
               4.82273990                4.56304853               25.97349705                0.04554379               -0.03635013                0.08715619               -0.08255835               -0.63570553                9.63732747               -3.77843525
               5.82291130                4.35062154               25.96852162                0.00010000                0.03841727               -0.14663503               -0.01618278               -1.37999424               19.83153086               -0.95817477
               6.82350825                4.13590821               25.97791954                0.00010000                0.09064098               -0.24905245               -0.14610504               -1.55495635               20.70553590                0.79609170
               7.82472412                3.92058139               25.98878065                0.00010000                0.16747885               -0.37502844               -0.28799839               -1.62780563               20.80311418                2.29944733
               8.82685783                3.70588283               25.99820705                0.00010000                0.28286676               -0.51729370               -0.44453667               -1.61234310               20.66578240                3.94251551
               9.83038146                3.49282148               26.00415482                0.08185014                0.36169861               -0.66325331               -0.62524746               -1.26429495               17.54235957                5.92957451
              10.83409180                3.28743014               25.94855460                0.30024735                0.37934737               -0.39491798               -0.45023557               -0.48629318                7.39751283                4.87259758
              11.83796840                3.09336304               25.74938680                0.67102888                0.41702923                0.19361209               -1.16186405               -0.01235203                0.12896922                1.79951505
              12.84243238                2.90066217               25.54780166                0.99227492                0.44639814                0.78129544               -1.89447002               -0.04298169                0.01383701               -1.01042501
               3.02248275                5.95548265               26.30722574                1.00000000               -0.19707454               -0.32244620                1.01804356               -0.04537834                0.01977521                1.53188832
               4.02051200                5.76009582               26.09873171                0.56945181               -0.09825073               -0.07998427                0.30334326                0.00848420                0.12406868               -1.08906722
               5.02051773                5.56432333               25.89228431                0.03676220                0.04820418                0.16902394               -0.39736623               -0.84787852               12.36919291               -3.67922236
               6.02147609                5.35001789               25.92864989                0.00010000                0.05948341                0.02159246               -0.23600381               -1.78785695               24.97557608               -1.25336118
               7.02170740                5.13387747               25.97312832                0.00010000                0.02416062               -0.13463890               -0.22679188               -1.96796722               25.49193326                0.60362296
               8.02195930                4.91689881               26.01810306                0.00010000                0.05300532               -0.33662302               -0.24485375               -2.10955424               25.60072157                2.38413356
               9.02276751                4.70036284               26.06262242                0.00010000                0.12536663               -0.55479240               -0.29298765               -2.16956181               25.61854109                4.24367659
              10.02446663                4.48570231               26.10538317                0.08995631                0.15941875               -0.73211680               -0.38067415               -1.68679913               20.74227275                6.24477868
              11.02595588                4.28356161               26.04935046                0.31273465                0.19119979               -0.38910297               -0.03994380               -0.61370147                8.03955637                4.17945539
              12.02829063                4.09501106               25.83596406                0.68981666                0.29208367                0.13155786               -0.81204071               -0.01532090                0.10041604                1.44679351
              13.03179756                3.90779916               25.62070263                1.00000000                0.35069294                0.64997395               -1.60557624               -0.04186159                0.01168751               -1.24802097
               3.21620739                6.95262233               26.25189561                1.00000000               -0.12400848               -0.25037292                0.79421570               -0.04468292                0.02050107                1.50245830
               4.21496731                6.75969034               26.03035361                0.54928673               -0.01735662               -0.00148572                0.03533662                0.01179156                0.14401063               -1.09971294
               5.21586026                6.56642900               25.81123587                0.02811978                0.13163549                0.25267571               -0.70733280               -1.02243407               15.03200856               -3.65500835
               6.21760002                6.35105339               25.88739841                0.00010000                0.07038600                0.19433560               -0.45216839               -2.15505932               30.05701237               -1.38369435
               7.21726798                6.13321543               25.96739968                0.00010000               -0.07761761                0.01887552               -0.30682872               -2.40448415               30.37401622                0.48002039
               8.21604767                5.91384892               26.04808230                0.00010000               -0.13024435               -0.24745958               -0.19945150               -2.63311496               30.55354512                2.33145748
               9.21466310                5.69478699               26.12937353                0.00010000               -0.13004847               -0.53464913               -0.13082826               -2.75951589               30.70502061                4.31260720
              10.21344670                5.47817915               26.21029226                0.09819354               -0.10770363               -0.75771802               -0.11232038               -2.08818928               23.61574732                6.50610856
              11.21250902                5.27964808               26.14654212                0.32534747               -0.00111295               -0.40240875                0.35815661               -0.68996300                8.32467482                3.84941779
              12.21342444                5.09599420               25.91987007                0.70873366                0.17549639                0.06152469               -0.47228126               -0.01805493                0.10079182                1.21553379
              13.21601895                4.91366165               25.69132575                1.00000000                0.25945114                0.52556755               -1.32569592               -0.04189467                0.01181468               -1.41461459
               3.40745306                7.95047519               26.19630194                1.00000000               -0.05119031               -0.18004338                0.57129467               -0.04393371                0.02055191                1.47349100
               4.40694116                7.76006610               25.96179178                0.52926538                0.06264726                0.07634814               -0.22991768                0.01472604                0.16820847               -1.10858123
               5.40870601                7.56937684               25.73018393                0.01964949                0.23236588                0.33680265               -1.01244170               -1.15237242               17.63972293               -3.63162036
               6.41158847                7.35390460               25.84503769                0.00010000                0.10580884                0.36831074               -0.65624346               -2.41344713               35.08715275               -1.44864928
               7.41082218                7.13425498               25.96071444                0.00010000               -0.19315160                0.18586238               -0.37952910               -2.73919858               35.27861988                0.35404510
               8.40772544                6.91194962               26.07737985                0.00010000               -0.37876080               -0.09968795               -0.14612419               -3.05145652               35.57704082                2.11626294
               9.40324697                6.68966985               26.19658950                0.00010000               -0.49418455               -0.44408722                0.04838960               -3.29013172               35.97767028                4.12905212
              10.39784175                6.47054795               26.31840760                0.10659776               -0.44526987               -0.73504862                0.19621828               -2.46092189               26.34148066                6.62547849
              11.39434157                6.27551344               26.24166195                0.33809956               -0.19628992               -0.43028873                0.74898204               -0.74582291                8.33722682                3.64381959
              12.39391595                6.09624155               26.00208277                0.72776155                0.06415951               -0.01459720               -0.13866515               -0.02155881                0.10707703                1.08003565
              13.39562476                5.91831051               25.76052196                1.00000000                0.17088057                0.40673169               -1.05111203               -0.04250097                0.01236268               -1.50110792
               3.59614690                8.94902146               26.14040757                1.00000000                0.02132830               -0.11226302                0.34929391               -0.04308534                0.02763736                1.45375220
               4.59636018                8.76121731               25.89308121                0.50937924                0.14137086                0.15457427               -0.49202773                0.01642429                0.20672382               -1.13194054
               5.59897432                8.57316506               25.64928316                0.01138285                0.40463789                0.41935630               -1.31183182               -1.24875962               20.23131990               -3.49598059
               6.60445294                8.35841960               25.80237298                0.00010000                0.27323378                0.45349682               -0.84271181               -2.49125034               40.05779163               -1.32001587
               7.60443899                8.13693268               25.95282177                0.00010000               -0.24246384                0.26820646               -0.44194774               -2.69765288               40.08338637                0.23109248
               8.59960366                7.91185517               26.10391967                0.00010000               -0.70884284                0.13039708               -0.08704860               -3.04127696               40.54609142                1.65893498
               9.59026213                7.68590524               26.26092645                0.00010000               -1.06094919               -0.15669069                0.23991604               -3.53920890               41.43072131                3.43956950
              10.57838468                7.46347818               26.42710060                0.11518504               -0.91815856               -0.58121883                0.54359347               -2.86022022               29.13100005                6.22071548
              11.57189896                7.27104230               26.33534605                0.35099794               -0.40942434               -0.46588465                1.13356124               -0.83245269                8.25805486                3.38189403
              12.57019619                7.09570226               26.08341712                0.74688076               -0.04339739               -0.09543073                0.19129735               -0.02822140                0.13668285                1.04451771
              13.57103101                6.92179629               25.82911054                1.00000000                0.08348236                0.29293509               -0.77890411               -0.04341991                0.02192396               -1.52717171
               3.78219966                9.94822993               26.08442307                1.00000000                0.09263824               -0.04794245                0.12950534               -0.04199978               -0.00995901                1.24523122
               4.78312605                9.76315759               25.82390286                0.48963761                0.21644256                0.23408527               -0.75281903                0.01465274                0.35620991               -1.01678913
               5.78652852                9.57776397               25.57065203                0.00338672                0.74349011                0.49508249               -1.59874377               -1.39745491               22.97125799               -2.62344432
               6.79799585                9.36297454               25.76235137                0.00010000                0.84525237                0.12614679               -1.00392629               -1.93859930               44.89644700               -0.78001175
               7.80343356                9.13961911               25.94394225                0.00010000               -0.00342547                0.22449685               -0.49291354               -1.85736001               44.55454729                0.11594906
               8.79792734                8.91455756               26.12475162                0.00010000               -1.12968923                0.35974674               -0.03184575               -2.06325636               45.15517000                0.92334448
               9.78083978                8.68653604               26.31530310                0.00010000               -2.12135276                0.45574803                0.41688480               -2.76876537               46.85610631                2.00422425
              10.75550028                8.45892357               26.52811340                0.12400286               -1.76856725                0.02212272                0.89968445               -2.64958076               32.25105805                4.15996999
              11.74546843                8.26619574               26.42558458                0.36409296               -0.64513707               -0.48698779                1.50187260               -1.01138301                8.56154255                2.38398675
              12.74259754                8.09433294               26.16497590                0.76606971               -0.14500654               -0.17909061                0.52125994               -0.03883023                0.31938136                0.93539258
              13.74256830                7.92416921               25.89754621                1.00000000               -0.00292402                0.18557251               -0.50800089               -0.04599502               -0.01784046               -1.29312365
               3.96545159               10.94806261               26.02435046                1.00000000                0.16676116               -0.01673190               -0.09682429                0.10883228                0.62087555                1.04196310
               4.96711920               10.76589901               25.75736851                0.73852657                0.28783395                0.27414230               -1.00232115                0.14952006                1.45297207               -0.87965952
               5.97120827               10.58306671               25.50697342                0.49918836                1.83533059                0.53027403               -1.83493761               -1.77984844               25.98448166               -1.86753474
               7.00382581               10.36094254               25.73054958                0.44421786                2.22502491               -0.20319986               -1.12369001               -1.49920844               49.13926003               -0.46816889
               8.01570877               10.14142261               25.93434610                0.43470277                0.37978957                0.18035053               -0.53200139               -0.86710175               48.37088456                0.03093888
               9.01142160                9.91905010               26.13706492                0.45126784               -1.25939737                0.44925369                0.00782126               -0.97069431               49.05032348                0.48320366
               9.99052082                9.69502020               26.35117815                0.49232818               -3.28441214                0.84841610                0.54179903               -1.78836958               51.21332135                1.10213545
              10.94573336                9.46392063               26.59576731                0.56494609               -3.71294395                0.49970579                1.14279804               -2.66257513               35.64369531                2.59632579
              11.91626194                9.26130255               26.49946898                0.68632599               -1.71436197               -0.48931955                1.79526439               -1.51065870               10.41386742                1.56807706
              12.91144612                9.09212045               26.24413036                0.88914267               -0.29116867               -0.22124905                0.83855823                0.09511716                1.54671692                0.81657485
              13.91043857                8.92550774               25.97064006                1.00000000               -0.10075549                0.13385265               -0.21759266                0.12575542                0.64207437               -1.05405168
               2.16373332                1.05229847               27.59942292                1.00000000               -0.56394696               -0.62263281                2.13203789               -0.10904954               -1.30052963                1.33341310
               3.15809385                0.83263558               27.43943589                1.00000000               -0.49562879               -0.45114820                1.61097820               -0.06808687               -1.35019753               -0.10882673
               4.15382075                0.61223388               27.27849191                0.67290494               -0.40967538               -0.27974277                1.08198899               -0.13540374               -1.01101347               -1.07350516
               5.14990035                0.38941353               27.12538096                0.51647843               -0.37313168               -0.15642286                0.56907405               -0.19703531                0.86249451               -0.12283298
               6.14635811                0.16125998               27.00274108                0.44939207               -0.23956428               -0.01267993                0.04818879               -0.18410364                3.72599398               -0.11168550
               7.14510906               -0.07272368               26.90847987                0.45106499                0.08367102                0.13572133               -0.50113822               -0.12261455                5.03856139                0.02635833
               8.14803154               -0.30849847               26.81325940                0.51696734                0.43109218                0.28703186               -1.03353448               -0.14252607                3.60167732                0.14094453
               9.15373091               -0.54132328               26.68982077                0.65335880                0.61914804                0.43265166               -1.53423945               -0.15791236                0.96706359                0.20961439
              10.16041450               -0.77010764               26.54064849                0.87791181                0.69979037                0.56499430               -2.03360589               -0.12047815               -0.92977723                0.54506216
              11.16772671               -0.99621716               26.37831716                1.00000000                0.79262654                0.71323998               -2.57440844               -0.07462588               -1.33680155                0.60355959
              12.17626703               -1.22131337               26.22058334                1.00000000                0.85403143                0.89973491               -3.07668160               -0.12440464               -1.09683848               -1.24401608
               2.38230572                2.04607214               27.53952682                1.00000000               -0.48604403               -0.59777552                1.90693385               -0.03575921                0.04182012                1.67530357
               3.37744528                1.82812409               27.37903959                0.84381523               -0.41139919               -0.41298090                1.39086446                0.00183633                0.23641830               -0.34232419
               4.37407773                1.60943646               27.22242755                0.21275179               -0.20141659               -0.22787517                0.91265630               -0.10305870                1.81500959               -1.98141139
               5.37341695                1.38784930               27.09340869                0.00010000                0.07539745               -0.11103907                0.45728701               -0.36872145                4.37280334               -2.04427663
               6.37558568                1.16113318               26.98700292                0.00010000                0.26725984               -0.29817359               -0.00650764               -0.65391703                7.16456547                0.65346207
               7.37876214                0.92863354               26.91201561                0.00010000                0.26601971               -0.14238802               -0.49285755               -0.80016304                8.78767507                0.93150574
               8.38090608                0.69437185               26.83646547                0.00010000                0.20971106                0.05691222               -0.95845775               -0.68567949                7.29988061                1.04454673
               9.38295636                0.46300323               26.73149043                0.18844787                0.28752870                0.28750562               -1.39027123               -0.38298674                4.59429578                2.50855298
              10.38665665                0.23554231               26.60242169                0.52665602                0.48134770                0.46507701               -1.82645627               -0.15200421                2.54125900                2.16815101
              11.39258332                0.01091524               26.45682841                1.00000000                0.67312695                0.65000599               -2.26100768               -0.02659276                0.98252344                1.05098369
              12.40011919               -0.21231602               26.29662199                1.00000000                0.75358723                0.87284609               -2.78997174               -0.05281532                0.25533895               -1.31856029
               2.59891423                3.04034296               27.48651910                1.00000000               -0.41479619               -0.54181734                1.69395741               -0.04857922                0.22242149                1.91603632
               3.59476626                2.82437596               27.31396243                0.63476959               -0.34399294               -0.32593563                1.11484075               -0.01336043                0.55870287               -0.85314090
               4.59203437                2.60767638               27.14810997                0.07000937               -0.19685353               -0.10086079                0.60101698               -0.16275876                2.92908106               -3.64455277
               5.59082919                2.38719275               27.02296694                0.00010000                0.02305871               -0.28158165                0.26968836               -0.89597731                9.41912073               -1.28093929
               6.59249554                2.15529651               26.98651261                0.00010000                0.25189713               -0.48669188               -0.05602633               -1.44051919               13.12422798                0.97944694
               7.59586714                1.92442856               26.93358630                0.00010000                0.37263530               -0.44342072               -0.41940775               -1.46410150               12.24474168                1.90951418
               8.59994825                1.69263977               26.87763300                0.00010000                0.45167872               -0.28760916               -0.77704847               -1.25292072               12.03295247                2.63517074
               9.60490071                1.46442683               26.81898730                0.06710773                0.47570771               -0.17790461               -1.10556540               -0.78241686                8.78527410                4.37177493
              10.60946240                1.23919390               26.69652778                0.28434770                0.50762345               -0.03400943               -1.43991242               -0.38306758                4.11863314                5.73046812
              11.61505318                1.01678296               26.54420651                0.66333357                0.61054197                0.43349327               -1.93237338               -0.15174775                1.59473586                2.09004562
              12.62167324                0.79614356               26.37105588                0.99322323                0.66200618                0.90339289               -2.50493305               -0.16224992                0.55593079               -1.17214119
               2.81326813                4.03523579               27.43151359                1.00000000               -0.34234817               -0.47331452                1.46844310               -0.04708499                0.03876800                1.72068677
               3.80984464                3.82160538               27.24332166                0.59793496               -0.26311790               -0.23499860                0.83674439               -0.00182433                0.21225332               -1.12965184
               4.80800577                3.60741924               27.05857738                0.05219318               -0.09836868                0.01888478                0.22858728               -0.48802863                7.00593386               -4.21130395
               5.80787727                3.38221767               27.00625446                0.00010000                0.07668594               -0.38866406                0.18452309               -1.22204425               14.96605068                0.24256614
               6.80953949                3.15139934               26.97964470                0.00010000                0.21297891               -0.36951989               -0.11145988               -1.55340665               16.59218149                0.77001239
               7.81213685                2.91976512               26.95811793                0.00010000                0.31549540               -0.45487424               -0.36649791               -1.62671619               16.74984706                2.14032814
               8.81584940                2.68861966               26.93284755                0.00010000                0.43085228               -0.47461067               -0.62494395               -1.54432704               16.20613166                3.55300620
               9.82075389                2.45944514               26.89848801                0.07142502                0.53948850               -0.59749023               -0.90313425               -1.22142825               14.12642067                4.91610686
              10.82663917                2.23486212               26.82987199                0.28202296                0.59224073               -0.46761863               -0.90343838               -0.51088453                6.62702548                6.60714089
              11.83259871                2.01958511               26.64354475                0.63874953                0.57569209                0.23238056               -1.53597427               -0.04334664                0.42022643                2.38136464
              12.83815301                1.80575184               26.44995487                0.97026782                0.55542973                0.91812080               -2.20336797               -0.07601822                0.06408483               -0.92515561
               3.02523334                5.03087667               27.37467693                1.00000000               -0.26870148               -0.39851853                1.24162200               -0.04615868                0.02234522                1.60369413
               4.02254633                4.81967599               27.17261636                0.57751637               -0.17859181               -0.15262618                0.56289601                0.00641812                0.12516499               -1.13693584
               5.02166151                4.60805408               26.97257984                0.04330923               -0.00690619                0.10392776               -0.10162751               -0.77200751               10.01154361               -3.93607930
               6.02240820                4.37941947               26.96822141                0.00010000                0.11092248               -0.18039068               -0.04528251               -1.67916858               20.47909096               -1.07225490
               7.02387996                4.14790611               26.97629252                0.00010000                0.18521439               -0.29712395               -0.18015930               -1.90148401               21.25945574                0.77751730
               8.02611249                3.91533108               26.98570183                0.00010000                0.27508647               -0.43449649               -0.32806508               -1.99542572               21.35384223                2.33723087
               9.02938169                3.68314756               26.99353342                0.00010000                0.40585990               -0.58627985               -0.48966963               -1.97772514               21.20736668                4.02109337
              10.03422969                3.45247702               26.99765776                0.07924006                0.48615284               -0.75002219               -0.67243243               -1.58187212               18.26743984                6.03852551
              11.03910474                3.22984153               26.94397953                0.29393144                0.45334158               -0.47918817               -0.46420894               -0.63323207                7.86831725                5.08392142
              12.04329652                3.02143058               26.73770648                0.65591069                0.43573346                0.16302791               -1.17352554               -0.01750946                0.13888457                1.87833204
              13.04781941                2.81450597               26.52880256                0.98072606                0.45228902                0.80554674               -1.90442026               -0.04296363                0.01334475               -1.05657282
               3.23474631                6.02726542               27.31739482                1.00000000               -0.19507121               -0.32438950                1.01581145               -0.04556223                0.01975748                1.56428256
               4.23279560                5.81855286               27.10170329                0.55767187               -0.09620862               -0.07245201                0.29047069                0.01083474                0.13145847               -1.14738041
               5.23282214                5.60949779               26.88820446                0.03472721                0.08231337                0.18620104               -0.41952431               -1.00771319               12.81371745               -3.82599057
               6.23444186                5.37860986               26.92611917                0.00010000                0.13880310                0.00879520               -0.27164521               -2.12481786               25.78704470               -1.36161147
               7.23559820                5.14545686               26.97065002                0.00010000                0.12725115               -0.17012219               -0.27000129               -2.34017498               26.22719691                0.57528283
               8.23698689                4.91107519               27.01539874                0.00010000                0.17753728               -0.39146792               -0.29666471               -2.50242033               26.32006007                2.41939403
               9.23914894                4.67689407               27.05938920                0.00010000                0.27177962               -0.62761946               -0.35352256               -2.56435887               26.31581591                4.32790636
              10.24242248                4.44444470               27.10122781                0.08719929                0.29360144               -0.81971025               -0.44903288               -2.03143160               21.66118336                6.36286625
              11.24502097                4.22527835               27.04888218                0.30615532                0.25807992               -0.44746986               -0.05362699               -0.77376979                8.63054585                4.36719959
              12.24758408                4.02284567               26.82777888                0.67422631                0.30609834                0.11318477               -0.82505317               -0.02030907                0.11089748                1.51175486
              13.25114294                3.82186278               26.60457812                0.99219760                0.35588616                0.67028495               -1.61969285               -0.04183263                0.01143177               -1.30665296
               3.44174722                7.02438888               27.25982127                1.00000000               -0.12165731               -0.25172074                0.79084669               -0.04485081                0.02050036                1.53503731
               4.44053065                6.81822695               27.03063666                0.53798217               -0.01484879                0.00671883                0.02068932                0.01404022                0.15263235               -1.15408299
               5.44145025                6.61177810               26.80404569                0.02627918                0.17110649                0.27014819               -0.73179648               -1.19849308               15.54620288               -3.79358585
               6.44395278                6.37959537               26.88268260                0.00010000                0.15804378                0.19492760               -0.49256550               -2.52159237               31.02879379               -1.48122697
               7.44461112                6.14450367               26.96408026                0.00010000                0.03370530               -0.00497316               -0.35849640               -2.80329831               31.28815076                0.45602524
               8.44462688                5.90750172               27.04577226                0.00010000                0.00569403               -0.29600344               -0.26371275               -3.05217281               31.44509477                2.37036758
               9.44472500                5.67059517               27.12767731                0.00010000                0.02949429               -0.60304668               -0.20904378               -3.18302814               31.56755753                4.40834783
              10.44521677                5.43608282               27.20869848                0.09528805                0.02516874               -0.83531101               -0.20583345               -2.44553665               24.71815000                6.65430621
              11.44522838                5.22089213               27.15006483                0.31850021                0.05445739               -0.44150861                0.34642152               -0.84873194                9.01924037                4.02618063
              12.44630592                5.02369427               26.91508354                0.69265821                0.18600823                0.05125247               -0.48526939               -0.02231492                0.11265454                1.27228154
              13.44894854                4.82791167               26.67798825                1.00000000                0.26426238                0.54263657               -1.34264601               -0.04178929                0.01198453               -1.47958962
               3.64617315                8.02223101               27.20199443                1.00000000               -0.04859689               -0.18081094                0.56712112               -0.04396953                0.02060256                1.50631057
               4.64568718                7.81868724               26.95941738                0.51841751                0.06553501                0.08466927               -0.24563859                0.01673071                0.17813510               -1.15813151
               5.64748385                7.61490076               26.71993700                0.01801210                0.27986332                0.35362257               -1.03811064               -1.33917547               18.22631645               -3.76094268
               6.65128445                7.38250841               26.83826525                0.00010000                0.20710186                0.37707411               -0.69994550               -2.79622557               36.21892167               -1.52946575
               7.65162589                7.14535740               26.95663258                0.00010000               -0.07162589                0.16896371               -0.43866523               -3.15158223               36.36854078                0.33811667
               8.64985193                6.90515512               27.07554614                0.00010000               -0.23593031               -0.14029601               -0.22242223               -3.47874793               36.64522619                2.15986474
               9.64690728                6.66483313               27.19660086                0.00010000               -0.33185734               -0.50108766               -0.04773992               -3.72379943               37.02146069                4.23703650
              10.64321478                6.42773848               27.31977669                0.10354990               -0.32361986               -0.79644268                0.07633249               -2.81572503               27.61553598                6.81140875
              11.64043488                6.21644818               27.24910733                0.33099150               -0.15482703               -0.45492532                0.74008081               -0.89615162                9.11140134                3.81274255
              12.64011824                6.02387072               27.00063729                0.71120576                0.07187346               -0.01959743               -0.15069249               -0.02521567                0.12030334                1.13195628
              13.64187235                5.83271551               26.74992311                1.00000000                0.17541109                0.42062892               -1.06960781               -0.04236184                0.01284450               -1.56861449
               3.84795537                9.02077266               27.14387756                1.00000000                0.02401384               -0.11241520                0.34461075               -0.04297610                0.02782777                1.48717079
               4.84819551                8.81992033               26.88808605                0.49899683                0.14450964                0.16207559               -0.50760696                0.01807692                0.21808841               -1.17690351
               5.85084556                8.61885055               26.63604429                0.00994642                0.46880576                0.43371171               -1.33717216               -1.44278854               20.89510974               -3.61198852
               6.85757163                8.38713685               26.79372636                0.00010000                0.40435992                0.45657323               -0.88849803               -2.87033352               41.35058906               -1.37924763
               7.85893276                8.14788294               26.94808756                0.00010000               -0.09977152                0.24357954               -0.50712560               -3.07971905               41.34337673                0.22303382
               8.85557619                7.90469580               27.10262882                0.00010000               -0.56335519                0.09805398               -0.17359031               -3.42574628               41.79354308                1.69993201
               9.84766566                7.66057342               27.26277976                0.00010000               -0.91444873               -0.18878274                0.12790446               -3.93662360               42.67408361                3.54426592
              10.83728722                7.42015397               27.43183462                0.11199444               -0.82462768               -0.61212057                0.39986576               -3.19987470               30.56836718                6.42895963
              11.83117311                7.21179363               27.34665319                0.34362186               -0.38764708               -0.47914545                1.12802492               -0.97461777                9.08906332                3.53864446
              12.82953428                7.02330232               27.08527898                0.72983459               -0.03806912               -0.09697359                0.18088297               -0.03176390                0.15228997                1.09474048
              13.83041172                6.83632425               26.82123135                1.00000000                0.08774445                0.30361687               -0.79786071               -0.04330411                0.02307544               -1.59522603
               4.04701828               10.01998270               27.08569279                1.00000000                0.09525521               -0.04736675                0.12445688               -0.04172580               -0.01253678                1.27569862
               5.04797083                9.82192875               26.81630515                0.47972028                0.21966403                0.23996995               -0.76629669                0.01595871                0.37167101               -1.05391748
               6.05141156                9.62357499               26.55455284                0.00213764                0.84372778                0.50569168               -1.62217153               -1.60451507               23.72109261               -2.70496538
               7.06484538                9.39163987               26.75208749                0.00010000                1.05305029                0.07060449               -1.05104977               -2.22860294               46.34961307               -0.80952782
               8.07247256                9.15022899               26.93867885                0.00010000                0.19005727                0.18017916               -0.56224872               -2.11528962               45.97362462                0.11233117
               9.06864653                8.90711620               27.12397940                0.00010000               -0.98779607                0.33611033               -0.12551436               -2.30473557               46.57217744                0.94843989
              10.05271664                8.66105748               27.31887525                0.00010000               -2.03247259                0.45743514                0.29375554               -3.03412397               48.31018509                2.07331910
              11.02799708                8.41549607               27.53633012                0.12067004               -1.74612342                0.06946353                0.73817154               -2.89835607               33.85327511                4.31660912
              12.01779417                8.20686527               27.44059152                0.35644780               -0.65223681               -0.49016812                1.49974893               -1.15433703                9.44276212                2.49420086
              13.01495234                8.02193124               27.17014792                0.74854121               -0.14158788               -0.17849504                0.51309119               -0.04282575                0.34409527                0.97939854
              14.01496241                7.83878784               26.89237761                1.00000000                0.00100739                0.19328264               -0.52652417               -0.04605838               -0.01815487               -1.35086339
               4.24322876               11.01982532               27.02335367                1.00000000                0.16936289               -0.01573802               -0.10208119                0.11048984                0.63165659                1.06881125
               5.24492239               10.82471973               26.74727864                0.73370736                0.29076870                0.27909839               -1.01404057                0.15210951                1.49889185               -0.91160249
               6.24904414               10.62896438               26.48851211                0.49862783                2.07115876                0.53893880               -1.85797504               -2.04528116               26.83420212               -1.92231809
               7.28634557               10.38854894               26.71908292                0.44456464                2.60532515               -0.30909280               -1.17193481               -1.72387439               50.74733225               -0.49072210
               8.30115064               10.15148652               26.92868108                0.43488968                0.61537150                0.12575324               -0.60333594               -0.98873909               49.92864073                0.02291275
               9.29865300                9.91141800               27.13667350                0.45107067               -1.12736626                0.43018028               -0.08897268               -1.08757333               50.60806266                0.49164189
              10.27860332                9.66972212               27.35597657                0.49160145               -3.25703474                0.86646413                0.41397009               -1.90507089               52.82937933                1.13660407
              11.23351230                9.42154324               27.60638443                0.56323358               -3.84760649                0.60471709                0.97439392               -2.83507005               37.40461985                2.69958340
              12.20165119                9.20199026               27.51741877                0.68241899               -1.83785560               -0.48750081                1.79513498               -1.70483940               11.39320042                1.64044081
              13.19675519                9.01973242               27.25248711                0.88022460               -0.29369154               -0.21988237                0.83293138                0.09026697                1.62779595                0.85424357
              14.19577736                8.84018990               26.96838335                1.00000000               -0.09778361                0.14020576               -0.23435002                0.12724220                0.67224092               -1.10123260
               2.31312673                1.12682588               28.62077109                1.00000000               -0.56583457               -0.62533905                2.13888259               -0.10904042               -1.33847918                1.36708731
               3.30746838                0.89299277               28.45553704                1.00000000               -0.49867582               -0.45041964                1.60886495               -0.06820276               -1.39235241               -0.11917112
               4.30315321                0.65836379               28.28926886                0.66949149               -0.43296704               -0.27449239                1.07125783               -0.15916552               -1.04774787               -1.08071205
               5.29880904                0.42070127               28.13101438                0.51573236               -0.43480734               -0.15435676                0.55813134               -0.23852075                0.82649924               -0.12620292
               6.29445707                0.17614107               28.00313781                0.44941612               -0.31040319               -0.00950318                0.03162754               -0.22178926                3.66460968               -0.11527327
               7.29260098               -0.07603095               27.90333300                0.45086866                0.06335984                0.13971375               -0.52847705               -0.14139471                4.96506052                0.02650589
               8.29572426               -0.33063942               27.80274340                0.51575399                0.47243205                0.29303786               -1.07112809               -0.16520942                3.54980734                0.14542176
               9.30204962               -0.58156785               27.67428972                0.65006327                0.67472568                0.44068365               -1.57522505               -0.18441540                0.93457692                0.21711785
              10.30921878               -0.82743530               27.52015263                0.87069547                0.73512258                0.57196022               -2.06996907               -0.13609520               -0.97866118                0.54802155
              11.31675207               -1.07002818               27.35243982                1.00000000                0.80907658                0.71750060               -2.60465063               -0.07638159               -1.38479460                0.64986477
              12.32540031               -1.31144641               27.18970532                1.00000000                0.86482364                0.90516224               -3.10158181               -0.12577268               -1.12371546               -1.28717966
               2.54586943                2.12057248               28.55861728                1.00000000               -0.48520271               -0.60105872                1.91209216               -0.03468291                0.05815066                1.71473162
               3.54101740                1.88848858               28.39293618                0.82717194               -0.40810597               -0.41191401                1.38780807                0.00203467                0.27219361               -0.38147989
               4.53770731                1.65561886               28.23152522                0.20756587               -0.17411022               -0.21983690                0.90508067               -0.13784777                1.88290928               -2.06086459
               5.53753520                1.41915771               28.09793751                0.00010000                0.14489902               -0.11061872                0.45007605               -0.48206018                4.45061402               -2.08441727
               6.54060529                1.17604604               27.98688334                0.00010000                0.35210416               -0.35516946               -0.01608015               -0.84373668                7.22427836                0.65047837
               7.54457728                0.92536618               27.90699634                0.00010000                0.31176640               -0.17603466               -0.51037474               -1.03187605                8.84250999                0.96219049
               8.54684062                0.67229096               27.82675466                0.00010000                0.20130628                0.05525527               -0.98364426               -0.88451588                7.38276082                1.10022885
               9.54860340                0.42283899               27.71745689                0.18379319                0.26236871                0.27695385               -1.41683258               -0.48711409                4.69505040                2.58518587
              10.55208799                0.17828430               27.58403885                0.51586085                0.46952027                0.45986115               -1.84987850               -0.19243217                2.64398865                2.26337158
              11.55799381               -0.06285317               27.43414098                1.00000000                0.67364107                0.65055653               -2.27506279               -0.03389788                1.03857624                1.10489087
              12.56556081               -0.30239478               27.26866236                1.00000000                0.75670016                0.87635589               -2.79976647               -0.05482656                0.26235587               -1.36327917
               2.77660089                3.11480470               28.50347270                1.00000000               -0.41381885               -0.54576822                1.69714747               -0.04854959                0.22428333                1.95522649
               3.77246270                2.88475449               28.32507885                0.62069581               -0.34368790               -0.32278815                1.10875515               -0.01344670                0.59434618               -0.92172580
               4.76972713                2.65396705               28.15407096                0.06690172               -0.18610154               -0.08673005                0.59187816               -0.21118376                3.09259863               -3.82771123
               5.76874067                2.41848890               28.02565620                0.00010000                0.08233638               -0.33051275                0.26915580               -1.11376117                9.67696608               -1.31705306
               6.77137386                2.16903768               27.98586751                0.00010000                0.34889368               -0.57835895               -0.07259264               -1.79496504               13.36604881                0.97438480
               7.77571854                1.92044835               27.92927669                0.00010000                0.45936422               -0.51378884               -0.44225801               -1.84325730               12.47593673                1.96116980
               8.78056114                1.67046568               27.86972874                0.00010000                0.52977252               -0.32112689               -0.80394922               -1.61553549               12.28606915                2.72843115
               9.78631399                1.42397123               27.80781454                0.06453470                0.52505770               -0.21099673               -1.12937058               -1.02516762                9.05770477                4.47290833
              10.79106229                1.18176192               27.68207555                0.27775097                0.52196052               -0.10666311               -1.44719272               -0.46845954                4.31253113                5.98659275
              11.79675320                0.94298295               27.52485186                0.64706836                0.61623548                0.40596525               -1.93307455               -0.17918380                1.66504610                2.18034920
              12.80338700                0.70608071               27.34599671                0.98068584                0.66338024                0.91591172               -2.50024293               -0.18242011                0.58323873               -1.21632697
               3.00499885                4.10965712               28.44620241                1.00000000               -0.34127332               -0.47703983                1.46956057               -0.04700831                0.03762584                1.75283179
               4.00158612                3.88203281               28.25164742                0.58505556               -0.26248120               -0.22924059                0.82828331                0.00015711                0.22322194               -1.19670246
               4.99974923                3.65388426               28.06078407                0.04967904               -0.06983867                0.03664049                0.21265821               -0.59233772                7.31143797               -4.40349088
               6.00018934                3.41254745               28.00799352                0.00010000                0.14986542               -0.45885839                0.16243717               -1.46828165               15.43497321                0.18261687
               7.00274653                3.16447886               27.97840744                0.00010000                0.30473938               -0.42922245               -0.13619481               -1.88069811               16.96100905                0.75545162
               8.00628413                2.91509041               27.95430105                0.00010000                0.41302477               -0.52015789               -0.39686169               -1.98844583               17.14334211                2.17537576
               9.01100703                2.66586842               27.92643297                0.00010000                0.52598398               -0.53513143               -0.65756360               -1.89916298               16.59535734                3.62315556
              10.01680381                2.41861906               27.88930411                0.06885975                0.63500231               -0.65595221               -0.93188534               -1.53736157               14.65247320                4.99323232
              11.02370708                2.17615104               27.82078483                0.27581409                0.66437678               -0.58317759               -0.91209788               -0.65028969                6.98000077                6.87932099
              12.03009135                1.94526613               27.62815105                0.62396922                0.60049093                0.18562999               -1.54023454               -0.05288635                0.43551291                2.47817544
              13.03571689                1.71592345               27.42790784                0.95898555                0.56255484                0.94133781               -2.20301943               -0.07826243                0.06203438               -0.97328532
               3.23090933                5.10526390               28.38708968                1.00000000               -0.26706352               -0.40165773                1.24095301               -0.04631691                0.02232141                1.63541256
               4.22823870                4.88016968               28.17819050                0.56514506               -0.17717980               -0.14524526                0.55153965                0.00906855                0.13263526               -1.20044518
               5.22736574                4.65469986               27.97146450                0.04101241                0.02708713                0.12266983               -0.12212319               -0.91154892               10.38613333               -4.09836881
               6.22878044                4.40931173               27.96761597                0.00010000                0.19256011               -0.21114920               -0.07703025               -1.98322789               21.12826312               -1.19571407
               7.23121694                4.16045323               27.97431635                0.00010000                0.28898128               -0.34417388               -0.21573267               -2.25206487               21.81620093                0.74703210
               8.23456006                3.91004520               27.98221935                0.00010000                0.39161473               -0.49370720               -0.36854485               -2.36764903               21.90595550                2.36166571
               9.23904923                3.65976305               27.98841366                0.00010000                0.53620356               -0.65456711               -0.53354672               -2.34726429               21.75076196                4.08341739
              10.24528414                3.41085219               27.99070617                0.07653903                0.61800942               -0.83500695               -0.71563293               -1.91355890               19.00965702                6.12675636
              11.25140942                3.17009837               27.93927042                0.28747910                0.53194641               -0.56653673               -0.47680702               -0.79239860                8.35492934                5.29121402
              12.25592306                2.94669555               27.72591629                0.64073091                0.45488507                0.13014814               -1.18428417               -0.02348068                0.14833318                1.94919862
              13.26050712                2.72490747               27.50971325                0.96918998                0.45840583                0.82784791               -1.91415034               -0.04326812                0.01219714               -1.11655964
               3.45426096                6.10162397               28.32754197                1.00000000               -0.19294247               -0.32702218                1.01350365               -0.04574203                0.01980397                1.59644851
               4.45233153                5.87912791               28.10454113                0.54575851               -0.09423797               -0.06375462                0.27655564                0.01352645                0.13970011               -1.20749920
               5.45237620                5.65633766               27.88389382                0.03262982                0.12199417                0.20624412               -0.44354409               -1.17153947               13.25751390               -3.97619155
               6.45477141                5.40832447               27.92321698                0.00010000                0.22977884               -0.00144776               -0.31014207               -2.46906967               26.59820941               -1.47625383
               7.45697177                5.15759538               27.96772830                0.00010000                0.24249565               -0.20499244               -0.31527784               -2.71919052               26.96401642                0.53678491
               8.45962133                4.90521626               28.01216977                0.00010000                0.31414899               -0.44681624               -0.34948091               -2.90129255               27.03923888                2.44098161
               9.46325475                4.65277708               28.05555197                0.00010000                0.42879930               -0.70103864               -0.41330144               -2.96292747               27.01182845                4.39409609
              10.46819731                4.40191892               28.09640251                0.08435242                0.43804914               -0.90678945               -0.51385678               -2.39093653               22.60677714                6.45707807
              11.47201574                4.16482031               28.04827792                0.29943552                0.33076613               -0.50759134               -0.06681214               -0.94752357                9.25024131                4.55522177
              12.47481264                3.94786910               27.81946299                0.65856854                0.32059838                0.09429303               -0.83848019               -0.02544263                0.12213621                1.57275186
              13.47842770                3.73248041               27.58830878                0.98033217                0.36150674                0.69087014               -1.63581034               -0.04176401                0.01103099               -1.37587847
               3.67498660                7.09872346               28.26771255                1.00000000               -0.11910733               -0.25394271                0.78726524               -0.04497432                0.02060381                1.56756941
               4.67379553                6.87889459               28.03076739                0.52653632               -0.01241086                0.01630894                0.00479565                0.01655199                0.16218817               -1.20947268
               5.67473839                6.65882474               27.79659994                0.02438445                0.21728972                0.29108667               -0.75847755               -1.38017684               16.05891145               -3.93417968
               6.67814133                6.40928278               27.87754710                0.00010000                0.26014726                0.19735265               -0.53599393               -2.89857196               31.99801795               -1.58309004
               7.67994133                6.15635338               27.96022975                0.00010000                0.16055968               -0.02926846               -0.41285833               -3.21167901               32.20098773                0.42329945
               8.68135252                5.90110887               28.04280805                0.00010000                0.15733491               -0.34629502               -0.32991480               -3.47853717               32.33307627                2.39613169
               9.68308803                5.64574228               28.12519265                0.00010000                0.20348276               -0.67344734               -0.28780181               -3.61007942               32.42393146                4.48562271
              10.68542217                5.39271640               28.20617559                0.09229808                0.17103691               -0.91394689               -0.29726132               -2.81735228               25.85904691                6.77670352
              11.68650877                5.15994655               28.15347055                0.31151779                0.11659672               -0.48201885                0.33502609               -1.02208645                9.75835181                4.20530566
              12.68775411                4.94858141               27.91016468                0.67652810                0.19702252                0.04080665               -0.49883861               -0.02640367                0.12602555                1.32714155
              13.69044922                4.73872487               27.66447283                0.99155111                0.26951103                0.56073558               -1.36208730               -0.04153864                0.01228896               -1.55215757
               3.89301921                8.09654511               28.20764436                1.00000000               -0.04579228               -0.18284722                0.56263162               -0.04410908                0.02067015                1.53897454
               4.89256129                7.87945409               27.95687901                0.50743984                0.06826299                0.09484381               -0.26257115                0.01869861                0.18908981               -1.20756086
               5.89438447                7.66215939               27.70942171                0.01629878                0.33550236                0.37423540               -1.06640083               -1.53423784               18.81065214               -3.89047224
               6.89927134                7.41227152               27.83103878                0.00010000                0.32638140                0.38648157               -0.74705984               -3.19346324               37.34551308               -1.61303158
               7.90091210                7.15701001               27.95194113                0.00010000                0.06951748                0.14968471               -0.50131805               -3.57592090               37.45352895                0.31501416
               8.90066168                6.89829036               28.07293140                0.00010000               -0.07332305               -0.18441591               -0.30193086               -3.91360383               37.70556297                2.19185929
               9.89944564                6.63930813               28.19563470                0.00010000               -0.15078413               -0.56130551               -0.14645100               -4.16002078               38.05283497                4.32785385
              10.89764600                6.38363998               28.31993425                0.10041295               -0.18683243               -0.86062300               -0.04472463               -3.18358887               28.94101706                6.97241132
              11.89570899                6.15517993               28.25646357                0.32374265               -0.10698829               -0.48077729                0.73150414               -1.06138246                9.94727547                3.98476717
              12.89550624                5.94868523               27.99906892                0.69459830                0.08005141               -0.02474892               -0.16329814               -0.02875435                0.13549986                1.18303306
              13.89731002                5.74369512               27.73912981                1.00000000                0.18037808                0.43561991               -1.09055063               -0.04208205                0.01353629               -1.64162227
               4.10828647                9.09506652               28.14729979                1.00000000                0.02687513               -0.11386590                0.34018075               -0.04225507                0.02847631                1.51980760
               5.10855522                8.88079147               27.88292907                0.48847464                0.14748635                0.17162796               -0.52494775                0.01905334                0.23065196               -1.21964326
               6.11123620                8.66630945               27.62253972                0.00843395                0.54331109                0.45187205               -1.36539673               -1.64977477               21.55495095               -3.72596160
               7.11942144                8.41701241               27.78460302                0.00010000                0.55839378                0.45779527               -0.93846675               -3.26858063               42.63518712               -1.44005284
               8.12240407                8.15934708               27.94267926                0.00010000                0.06804413                0.21311016               -0.57672626               -3.47449047               42.59495104                0.20975145
               9.12078233                7.89742055               28.10044787                0.00010000               -0.39330365                0.05956577               -0.26470669               -3.81590480               43.02889855                1.73216707
              10.11453800                7.63451617               28.26348454                0.00010000               -0.74518648               -0.22512559                0.01091353               -4.33347464               43.89884559                3.63550286
              11.10587860                7.37550394               28.43509792                0.10871382               -0.71510659               -0.64670138                0.25051054               -3.54908300               32.06911112                6.61662857
              12.10023587                7.15033100               28.35790655                0.33611805               -0.36073828               -0.49328752                1.12293810               -1.13103106                9.99767260                3.69857532
              13.09866383                6.94808644               28.08703478                0.71274739               -0.03240352               -0.09862267                0.17003336               -0.03533023                0.17002623                1.14485218
              14.09958780                6.74743727               27.81315333                1.00000000                0.09239669                0.31524095               -0.81907196               -0.04312544                0.02445839               -1.66727509
               4.32072421               10.09426779               28.08691221                1.00000000                0.09752099               -0.04747138                0.11861665               -0.04069946               -0.01394405                1.30330314
               5.32169942                9.88288665               27.80857693                0.46964647                0.22219108                0.24642593               -0.77856309                0.01562070                0.38720398               -1.08616575
               6.32516803                9.67119683               27.53820860                0.00082343                0.95813385                0.51961765               -1.65054395               -1.83036918               24.46308078               -2.78323383
               7.34086210                9.42142743               27.74133037                0.00010000                1.29230567                0.00624148               -1.10309097               -2.53712879               47.79165675               -0.83993565
               8.35101415                9.16127221               27.93269728                0.00010000                0.41561987                0.12646686               -0.63660966               -2.38294106               47.38195298                0.10592957
               9.34917449                8.89948168               28.12224133                0.00010000               -0.81606926                0.30370920               -0.22467551               -2.54807771               47.97407891                0.96883501
              10.33469276                8.63480562               28.32117821                0.00010000               -1.91624908                0.45167351                0.16374913               -3.29581248               49.74055734                2.13510539
              11.31084951                8.37070595               28.54287683                0.11724337               -1.70934455                0.11498719                0.56648048               -3.14932389               35.52852391                4.46136058
              12.30050587                8.14531418               28.45557956                0.34867056               -0.65780755               -0.49370671                1.49826534               -1.31028908               10.41451131                2.60672060
              13.29769336                7.94671278               28.17523773                0.73097338               -0.13800136               -0.17797494                0.50474154               -0.04703053                0.37125114                1.02382444
              14.29774584                7.74999994               27.88701572                1.00000000                0.00524799                0.20171632               -0.54697740               -0.04612800               -0.01829684               -1.41111791
               4.53023477               11.09411709               28.02230883                0.99606136                0.17038205               -0.01507050               -0.10524880                0.11134582                0.63868212                1.09087285
               5.53193859               10.88571998               27.73708770                0.72881509                0.29266300                0.28333371               -1.02286712                0.15315308                1.53852477               -0.93613386
               6.53608803               10.67670180               27.46981392                0.49803228                2.33324466                0.55049691               -1.88724386               -2.33713719               27.67386943               -1.97459827
               7.57860349               10.41713724               27.70711089                0.44489569                3.03014830               -0.42901883               -1.22484908               -1.96713059               52.34339033               -0.51381123
               8.59669100               10.16187641               27.92227938                0.43506714                0.88419411                0.06041986               -0.67942380               -1.11443974               51.47497015                0.01348522
               9.59628737                9.90349474               28.13528546                0.45087065               -0.96467611                0.40130582               -0.19108782               -1.20505123               52.14941690                0.49761746
              10.57739748                9.64354964               28.35945755                0.49085141               -3.19519068                0.87440238                0.27901162               -2.01408112               54.41992608                1.16729747
              11.53238356                9.37780368               28.61525519                0.56147929               -3.96871087                0.70977301                0.79432597               -3.00123455               39.24326452                2.79552421
              12.49802326                9.14045687               28.53537168                0.67844928               -1.96730485               -0.48573138                1.79602921               -1.91209817               12.46984885                1.71439722
              13.49303746                8.94452694               28.26078899                0.87129481               -0.29661742               -0.21858398                0.82751246                0.08514613                1.71273204                0.89252420
              14.49209091                8.75147160               27.96595306                1.00000000               -0.09465471                0.14716558               -0.25262617                0.12897276                0.70334049               -1.15000077
               2.46743185                1.20394784               29.64220057                1.00000000               -0.56828132               -0.62826742                2.14764988               -0.10948970               -1.37880280                1.39947242
               3.46174903                0.95545386               29.47161319                0.99733937               -0.50217024               -0.45011791                1.61050359               -0.06882834               -1.43729607               -0.12991590
               4.45738844                0.70610693               29.29991707                0.66599246               -0.45938258               -0.26898582                1.06068737               -0.18591630               -1.08391406               -1.08394822
               5.45256138                0.45304323               29.13654358                0.51493893               -0.50283744               -0.15240865                0.54974643               -0.28120038                0.78889604               -0.13045585
               6.44733169                0.19146346               29.00337363                0.44942809               -0.38783480               -0.00504119                0.01655492               -0.26010246                3.59456991               -0.11926344
               7.44480469               -0.07952025               28.89791033                0.45066221                0.03696328                0.14539076               -0.55483140               -0.16016872                4.87853819                0.02613423
               8.44807096               -0.35361257               28.79183684                0.51451477                0.51042608                0.30036517               -1.10962950               -0.18677145                3.48544384                0.14900085
               9.45501321               -0.62331526               28.65831626                0.64670914                0.73101092                0.44973959               -1.62088308               -0.20935622                0.89552832                0.22347069
              10.46269118               -0.88691964               28.49924911                0.86337557                0.77324593                0.58064636               -2.11469095               -0.14923191               -1.02749435                0.54832123
              11.47047813               -1.14662220               28.32622415                1.00000000                0.82852612                0.72232146               -2.64544260               -0.07724963               -1.43062238                0.69931309
              12.47926170               -1.40497104               28.15855171                1.00000000                0.87835733                0.90980507               -3.13572804               -0.12869952               -1.14619672               -1.32459533
               2.71483092                2.19766516               29.57776866                1.00000000               -0.48497163               -0.60427400                1.91898896               -0.03346057                0.07310944                1.75283515
               3.70998121                1.95095269               29.40679575                0.81032988               -0.40481634               -0.41118301                1.38546084                0.00288982                0.30778257               -0.42320667
               4.70673460                1.70341707               29.24052916                0.20228027               -0.14550484               -0.21218117                0.89746903               -0.17564958                1.95549278               -2.14035266
               5.70707111                1.45151915               29.10241021                0.00010000                0.21389072               -0.11237784                0.44731495               -0.59967161                4.53289601               -2.12450520
               6.71101241                1.19141305               28.98668131                0.00010000                0.43349533               -0.41016832               -0.02334181               -1.03605782                7.28091677                0.63915673
               7.71574102                0.92193366               28.90180811                0.00010000                0.35441693               -0.20662470               -0.52682593               -1.26510083                8.89013952                0.98458388
               8.71810075                0.64939108               28.81679259                0.00010000                0.19160835                0.05713284               -1.00905701               -1.08453491                7.45936428                1.14752485
               9.71957318                0.38118214               28.70315378                0.17903419                0.23757893                0.26765175               -1.44530927               -0.59047387                4.79249429                2.65354070
              10.72285233                0.11888682               28.56542412                0.50489180                0.45790722                0.45497132               -1.87514727               -0.22982986                2.74887015                2.35684579
              11.72873133               -0.13939898               28.41132716                1.00000000                0.67356094                0.65010415               -2.28529424               -0.04024986                1.09867910                1.16168914
              12.73632355               -0.39587299               28.24062666                1.00000000                0.75922188                0.87712902               -2.80276192               -0.05807008                0.26857742               -1.40222512
               2.96018759                3.19186236               29.52046205                1.00000000               -0.41326645               -0.54948600                1.70086623               -0.04823070                0.22583636                1.99320587
               3.95605493                2.94723020               29.33613754                0.60652909               -0.34392997               -0.31965023                1.10356593               -0.01264230                0.63282678               -0.99349030
               4.95330899                2.70186330               29.15994754                0.06373017               -0.17414802               -0.07305942                0.58504992               -0.26403481                3.26764585               -4.01815548
               5.95257197                2.45079567               29.02835006                0.00010000                0.14435174               -0.38044539                0.27121912               -1.33604746                9.93854855               -1.36791476
               6.95619603                2.18326010               28.98506076                0.00010000                0.44763373               -0.66767595               -0.08835054               -2.15043454               13.60165994                0.95523640
               7.96152464                1.91634726               28.92474113                0.00010000                0.54678778               -0.58018426               -0.46482144               -2.22464311               12.70463786                1.99859320
               8.96713178                1.64753009               28.86155401                0.00010000                0.60916765               -0.34966131               -0.83116145               -1.98283748               12.53765534                2.80874959
               9.97370799                1.38203778               28.79639989                0.06188104                0.57719591               -0.23819902               -1.15699412               -1.27359931                9.33513602                4.55896737
              10.97867570                1.12217978               28.66758393                0.27104228                0.53624718               -0.18165783               -1.45234073               -0.55589876                4.51724448                6.23355505
              11.98443294                0.86637989               28.50554502                0.63079043                0.61863049                0.37415841               -1.91912097               -0.20768076                1.73818198                2.25956456
              12.99104831                0.61257154               28.32105102                0.96818855                0.66153725                0.92212931               -2.47815424               -0.20300641                0.60686688               -1.27204498
               3.20313061                4.18667544               29.46090480                1.00000000               -0.34031986               -0.48084995                1.47085566               -0.04704906                0.03671699                1.78427660
               4.19972742                3.94455968               29.25988732                0.57203757               -0.26210924               -0.22284127                0.81953907                0.00248615                0.23560261               -1.26666601
               5.19788843                3.70195588               29.06283054                0.04709701               -0.03870252                0.05568234                0.19634016               -0.69998630                7.61939153               -4.60414510
               6.19895337                3.44391024               29.00950321                0.00010000                0.22818551               -0.52569769                0.13872745               -1.71733463               15.90781221                0.10263901
               7.20245214                3.17805953               28.97692080                0.00010000                0.40123998               -0.48670985               -0.16131342               -2.20878516               17.33295006                0.72687290
               8.20697817                2.91032997               28.95018070                0.00010000                0.51506699               -0.58257930               -0.42725837               -2.35260105               17.53839451                2.19669674
               9.21275348                2.64239786               28.91969628                0.00010000                0.62366687               -0.59165900               -0.68976671               -2.25667440               16.98944000                3.67939145
              10.21945150                2.37641816               28.87985030                0.06620675                0.73193815               -0.70620145               -0.95767707               -1.86430619               15.19233610                5.05366161
              11.22739224                2.11525366               28.81163003                0.26946869                0.73672256               -0.70035304               -0.91730510               -0.80082329                7.34204458                7.13980493
              12.23418595                1.86808419               28.61274006                0.60911043                0.62439322                0.13613576               -1.54065447               -0.06483215                0.44862473                2.55574747
              13.23988011                1.62256960               28.40589448                0.94770228                0.56941536                0.96011512               -2.20216966               -0.08040221                0.05872672               -1.04660375
               3.44347813                5.18224536               29.39949599                1.00000000               -0.26539202               -0.40519582                1.24008369               -0.04652520                0.02239810                1.66690245
               4.44082421                4.94277338               29.18364716                0.55263632               -0.17597125               -0.13668495                0.53935798                0.01209575                0.14105195               -1.26634011
               5.43995871                4.70297695               28.97013737                0.03864531                0.06487030                0.14413256               -0.14392852               -1.05417663               10.76109507               -4.26611037
               6.44212162                4.44028172               28.96668080                0.00010000                0.28209402               -0.23782966               -0.11111079               -2.29164164               21.77974226               -1.32929466
               7.44560059                4.17352590               28.97197786                0.00010000                0.40063388               -0.38901860               -0.25261602               -2.60562244               22.37784005                0.70335691
               8.45013430                3.90469567               28.97833094                0.00010000                0.51547603               -0.55119227               -0.40925397               -2.74295836               22.46211677                2.37164942
               9.45591011                3.63569691               28.98286248                0.00010000                0.67158829               -0.72004312               -0.57596879               -2.71913177               22.30003018                4.12865604
              10.46356606                3.36791375               28.98334510                0.07374479                0.75415476               -0.91506606               -0.75425897               -2.25718063               19.77105353                6.19327422
              11.47099321                3.10817272               28.93444339                0.28088958                0.61271481               -0.65354992               -0.48774149               -0.96190340                8.85731329                5.49301963
              12.47582036                2.86910260               28.71402080                0.62549223                0.47381178                0.09840668               -1.19607718               -0.02944444                0.15781823                2.00971749
              13.48046944                2.63177384               28.49051956                0.95766377                0.46490816                0.85080154               -1.92879188               -0.04328136                0.01041326               -1.19583162
               3.68114407                6.17857153               29.33766489                1.00000000               -0.19063284               -0.33037447                1.01078548               -0.04598103                0.01992456                1.62877894
               4.67923774                5.94182598               29.10723440                0.53372439               -0.09237567               -0.05368850                0.26148311                0.01649061                0.14884206               -1.26915790
               5.67929656                5.70483853               28.87933358                0.03045924                0.16669206                0.22948318               -0.46949509               -1.33911390               13.70066420               -4.13002719
               6.68257158                5.43915364               28.91991633                0.00010000                0.33145940               -0.00849719               -0.35122102               -2.81988331               27.41003358               -1.59771644
               7.68592574                5.17027916               28.96434447                0.00010000                0.36882051               -0.23845408               -0.36234713               -3.10390895               27.70465061                0.48699040
               8.68994799                4.89930613               29.00840912                0.00010000                0.46135121               -0.50164764               -0.40285253               -3.30454766               27.76142447                2.44744159
               9.69515277                4.62799699               29.05112317                0.00010000                0.59420420               -0.77360078               -0.47155441               -3.36316561               27.71111777                4.44059639
              10.70183208                4.35811683               29.09095068                0.08141481                0.59062766               -0.99142957               -0.57368881               -2.76302912               23.58128621                6.52540869
              11.70696532                4.10218266               29.04754594                0.29259560                0.40819334               -0.56800619               -0.07891767               -1.13256970                9.89859461                4.74284216
              12.70999594                3.87005232               28.81100927                0.64285287                0.33533369                0.07642865               -0.85269166               -0.02966226                0.13483272                1.62916056
              13.71367199                3.63958563               28.57186191                0.96849880                0.36760520                0.71368220               -1.65657538               -0.04123996                0.01092299               -1.45682622
               3.91604960                7.17563787               29.27556657                1.00000000               -0.11625804               -0.25741362                0.78318266               -0.04516668                0.02068656                1.60057171
               4.91488702                6.94169961               29.03073258                0.51496494               -0.01004172                0.02741788               -0.01237967                0.01913131                0.17262100               -1.26537686
               5.91584877                6.70756661               28.78887614                0.02241828                0.26981500                0.31565011               -0.78746129               -1.56736320               16.57027167               -4.07714209
               6.92028332                6.44011178               28.87196272                0.00010000                0.37605799                0.20191085               -0.58227368               -3.28530424               32.96581780               -1.69003006
               7.92336993                6.16875682               28.95582309                0.00010000                0.30210948               -0.05354936               -0.46961244               -3.62854821               33.11477922                0.38039846
               8.92632551                5.89466272               29.03917397                0.00010000                0.32330804               -0.39768178               -0.39739952               -3.91051496               33.22070829                2.40682182
               9.92983609                5.62022489               29.12192127                0.00010000                0.38971488               -0.74493348               -0.36586195               -4.03845971               33.27856390                4.54175167
              10.93411981                5.34808515               29.20275325                0.08921703                0.32851189               -0.99262288               -0.38478204               -3.20190551               27.04135574                6.86997051
              11.93640633                5.09681260               29.15676535                0.30441322                0.18521699               -0.52375715                0.32450996               -1.20867904               10.54271225                4.38607586
              12.93782415                4.87063117               28.90510677                0.66035097                0.20858475                0.03044795               -0.51320321               -0.02995283                0.14164380                1.37969225
              13.94057802                4.64604749               28.65074650                0.97939219                0.27538725                0.58084678               -1.38558469               -0.04090312                0.01285032               -1.63240229
               4.14811725                8.17342325               29.21324706                1.00000000               -0.04256312               -0.18684532                0.55798073               -0.04405519                0.02110705                1.57257619
               5.14769162                7.94237434               28.95416596                0.49633388                0.07099346                0.10649688               -0.28106381                0.02049377                0.20084099               -1.25681205
               6.14953712                7.71115153               28.69860899                0.01452889                0.39918339                0.39889106               -1.09746498               -1.73803029               19.39264982               -4.02112440
               7.15567529                7.44319186               28.82332405                0.00010000                0.46333586                0.39662126               -0.79768457               -3.60454284               38.46829635               -1.70094863
               8.15880384                7.16920817               28.94660621                0.00010000                0.22971649                0.12825037               -0.56726348               -4.01111831               38.53589144                0.28287837
               9.16026962                6.89135249               29.06950753                0.00010000                0.10786473               -0.23167532               -0.38389602               -4.35432349               38.76096325                2.20993221
              10.16096113                6.61309832               29.19367184                0.00010000                0.04683195               -0.62424624               -0.24625017               -4.59658418               39.07545616                4.39817017
              11.16120626                6.33826438               29.31888219                0.09718657               -0.03577068               -0.92705985               -0.16473388               -3.56315932               30.32105585                7.10328550
              12.16024572                6.09170752               29.26373741                0.31636853               -0.05221318               -0.50817292                0.72370411               -1.24098643               10.84674466                4.15917756
              13.16016200                5.87066128               28.99737133                0.67794289                0.08877916               -0.03003075               -0.17662236               -0.03205386                0.15324007                1.23279156
              14.16202130                5.65120256               28.72811210                0.99033960                0.18593087                0.45226732               -1.11498847               -0.04158269                0.01452181               -1.72014368
               4.37726633                9.17190096               29.15068117                1.00000000                0.03022911               -0.11917665                0.33490850               -0.04250680                0.02755723                1.55195228
               5.37756862                8.94382955               28.87758709                0.47784259                0.15021559                0.18362335               -0.54252932                0.01851832                0.24345333               -1.25861794
               6.38027064                8.71554443               28.60873635                0.00685468                0.62836022                0.47422904               -1.39821098               -1.87013698               22.21151467               -3.84187437
               7.39013582                8.44804420               28.77495703                0.00010000                0.73581461                0.45707137               -0.99318978               -3.68540297               43.91367231               -1.50478435
               8.39498693                8.17132183               28.93655304                0.00010000                0.26065342                0.17696435               -0.65065589               -3.88090855               43.84083126                0.18927816
               9.39534889                7.89002921               29.09733468                0.00010000               -0.19972069                0.01514083               -0.35964334               -4.21021523               44.25462611                1.75338461
              10.39099252                7.60773997               29.26299803                0.00010000               -0.55507336               -0.26558788               -0.10954761               -4.72770474               45.10712314                3.71004640
              11.38424743                7.32954396               29.43684483                0.10533776               -0.59014107               -0.68491842                0.09776300               -3.90654417               33.63761042                6.77768108
              12.37918970                7.08664914               29.36911195                0.32847444               -0.32796982               -0.50864817                1.11851021               -1.30178104               10.98805856                3.86118443
              13.37768803                6.87003056               29.08867965                0.69562584               -0.02629511               -0.10038770                0.15858381               -0.03885500                0.19047272                1.19447417
              14.37866380                6.65509283               28.80484991                1.00000000                0.09757663                0.32815949               -0.84332324               -0.04281321                0.02612050               -1.74334520
               4.60340995               10.17103972               29.08806513                0.99161040                0.10085693               -0.05257170                0.11326820               -0.04037435               -0.00807682                1.33373187
               5.60441852                9.94604681               28.80073389                0.45946354                0.22548897                0.25729842               -0.79504138                0.01077853                0.40289068               -1.11389381
               6.60791973                9.72063611               28.52154196                0.00010000                1.08856606                0.53586660               -1.68670359               -2.07429094               25.19969944               -2.86512088
               7.62618984                9.45233329               28.73002567                0.00010000                1.56404672               -0.06662536               -1.16102593               -2.86382820               49.22776191               -0.87296253
               8.63920066                9.17274746               28.92594666                0.00010000                0.67286685                0.06350937               -0.71598455               -2.65947228               48.78266687                0.09540220
               9.63964718                8.89165531               29.11948589                0.00010000               -0.61541848                0.26264445               -0.32860635               -2.79233110               49.36289255                0.98311044
              10.62689229                8.60778657               29.32215023                0.00010000               -1.77404862                0.43847042                0.02829628               -3.55248530               51.14740214                2.18730372
              11.60416620                8.32456601               29.54765973                0.11372130               -1.65843963                0.15765237                0.38659918               -3.40179825               37.28252921                4.59001205
              12.59372350                8.08153456               29.47055683                0.34076446               -0.66125012               -0.49775844                1.49766163               -1.47939102               11.48337765                2.72134233
              13.59094120                7.86865352               29.18024276                0.71336949               -0.13415051               -0.17750866                0.49601920               -0.05141905                0.40137563                1.06844501
              14.59104049                7.65776575               28.88143806                1.00000000                0.00992889                0.21111900               -0.57003991               -0.04616560               -0.01817655               -1.47389583
               4.82644467               11.17084953               29.02124869                0.99125663                0.17431270               -0.01901932               -0.10731926                0.11607109                0.65425209                1.12117227
               5.82818780               10.94897552               28.72682130                0.72386502                0.30268338                0.29287090               -1.04448268                0.14754001                1.57850787               -0.95684438
               6.83249834               10.72626177               28.45076723                0.49740514                2.62800569                0.56256526               -1.92470029               -2.65532980               28.50877211               -2.03070760
               7.88074791               10.44671170               28.69458594                0.44519627                3.49885648               -0.56215933               -1.28349210               -2.22768021               53.93472675               -0.53789597
               8.90247547               10.17259201               28.91509260                0.43524222                1.18576267               -0.01554474               -0.76018193               -1.24399910               53.01292998                0.00193782
               9.90446317                9.89528210               29.13285174                0.45066266               -0.77216786                0.36267919               -0.29773925               -1.32253292               53.67624157                0.50041682
              10.88703211                9.61650937               29.36155680                0.49007848               -3.09998486                0.87228089                0.13841002               -2.11527274               55.98422561                1.19286368
              11.84246347                9.33269701               29.62227095                0.55967201               -4.07588748                0.81309964                0.60446608               -3.16104369               41.16487332                2.88135212
              12.80551436                9.07669397               29.55333935                0.67440942               -2.10175083               -0.48405878                1.79809238               -2.13174474               13.65130299                1.78985057
              13.80042845                8.86648039               29.26903736                0.86234860               -0.29991695               -0.21731385                0.82211432                0.07978733                1.80200046                0.93132036
              14.79951602                8.65931521               28.96333083                1.00000000               -0.09124287                0.15494598               -0.27307840                0.13103623                0.73540040               -1.20036344
               2.62672543                1.28367914               30.66372409                1.00000000               -0.57194645               -0.63114352                2.15725786               -0.10978045               -1.42111984                1.43446896
               3.62100597                1.02002934               30.48774711                0.98784056               -0.50904463               -0.45292341                1.62496609               -0.07026699               -1.49140757               -0.14768000
               4.61654454                0.75546064               30.31048261                0.66241584               -0.49377867               -0.26792953                1.06349593               -0.21770442               -1.12942526               -1.09154987
               5.61113040                0.48635891               30.14200931                0.51410125               -0.57814094               -0.14977858                0.54435320               -0.32495283                0.74831206               -0.13542385
               6.60498172                0.20714044               30.00346891                0.44942556               -0.47109283                0.00016063                0.00439930               -0.29873805                3.51644216               -0.12334862
               7.60170854               -0.08330384               29.89223637                0.45046152                0.00227387                0.15308922               -0.57755896               -0.17954217                4.78046116                0.02546029
               8.60502720               -0.37757091               29.78055081                0.51326106                0.54196853                0.30951821               -1.14439086               -0.20797700                3.40747669                0.15239271
               9.61254791               -0.66677345               29.64187206                0.64328823                0.78669044                0.45996302               -1.66557937               -0.23501426                0.84431226                0.22896986
              10.62076101               -0.94881889               29.47785881                0.85594236                0.81445592                0.59052891               -2.16299064               -0.16062427               -1.08565808                0.54396896
              11.62883703               -1.22624794               29.29953096                1.00000000                0.85301193                0.73076772               -2.69943770               -0.07068410               -1.47962220                0.75439823
              12.63782125               -1.50208821               29.12699076                1.00000000                0.89842189                0.91496181               -3.19194659               -0.13281646               -1.16841521               -1.35892817
               2.88927744                2.27736771               30.59699706                1.00000000               -0.48648829               -0.60732290                1.92669071               -0.03469987                0.08546827                1.79204563
               3.88441255                2.01550010               30.42064540                0.79328979               -0.40373637               -0.41181096                1.38909491                0.00207052                0.34265529               -0.47046968
               4.88120271                1.75278134               30.24947460                0.19689826               -0.11857950               -0.20790378                0.89919902               -0.21579990                2.03327384               -2.22583595
               5.88204096                1.48486113               30.10688380                0.00010000                0.28115045               -0.11606540                0.44779425               -0.71856335                4.61651987               -2.16720825
               6.88682572                1.20714205               29.98641650                0.00010000                0.51139147               -0.46187640               -0.02936506               -1.22999087                7.33215192                0.61920506
               7.89226879                0.91822705               29.89645983                0.00010000                0.39282592               -0.23242654               -0.54266891               -1.50041381                8.93039875                0.99910842
               8.89468224                0.62552427               29.80657352                0.00010000                0.17764821                0.06539460               -1.03534617               -1.28862931                7.52975233                1.18804856
               9.89582176                0.33782618               29.68855070                0.17418402                0.21048863                0.26137539               -1.47678396               -0.69994938                4.88725299                2.71228491
              10.89889201                0.05708640               29.54653590                0.49376956                0.44715469                0.45230013               -1.90913504               -0.26326969                2.85806258                2.44640000
              11.90476485               -0.21894026               29.38843510                1.00000000                0.67206738                0.65046442               -2.29665405               -0.04061377                1.16635939                1.21926631
              12.91233336               -0.49293860               29.21260713                1.00000000                0.75685058                0.87301012               -2.79482417               -0.06527846                0.28359374               -1.43434474
               3.14976665                3.27153269               30.53749002                1.00000000               -0.41329006               -0.55294962                1.70499131               -0.04942196                0.22748732                2.03098064
               4.14563375                3.01179312               30.34715017                0.59225163               -0.34495647               -0.31551147                1.09902306               -0.01351288                0.67536182               -1.06900833
               5.14286752                2.75130256               30.16577196                0.06051109               -0.16176644               -0.05849062                0.57932729               -0.32185252                3.45509808               -4.21875333
               6.14239842                2.48403760               30.03108058                0.00010000                0.20742301               -0.42958168                0.27631495               -1.55926418               10.20253773               -1.43806889
               7.14701598                2.19790292               29.98410050                0.00010000                0.54598095               -0.75214203               -0.10372299               -2.50438255               13.83011588                0.92111718
               8.15331804                1.91204763               29.91998026                0.00010000                0.63197548               -0.63962550               -0.48746640               -2.60790879               12.93175742                2.02206154
               9.15965549                1.62373698               29.85310551                0.00010000                0.68343784               -0.36882480               -0.85907805               -2.35747910               12.78632066                2.87757924
              10.16698680                1.33845405               29.78467465                0.05914962                0.63032827               -0.25395494               -1.18814011               -1.53074236                9.61550103                4.63285637
              11.17226205                1.06022712               29.65302873                0.26422633                0.55314781               -0.24993624               -1.46934481               -0.64632527                4.73354645                6.47219681
              12.17804975                0.78676135               29.48646944                0.61449190                0.61251450                0.34227836               -1.88283385               -0.24102967                1.81256968                2.31356407
              13.18451234                0.51537199               29.29643363                0.95575195                0.64625932                0.92307176               -2.44008680               -0.22647526                0.63317438               -1.34161416
               3.40776813                4.26630872               30.47561952                1.00000000               -0.33957120               -0.48454128                1.47176545               -0.04746880                0.03595904                1.81599714
               4.40437242                4.00918987               30.26803820                0.55893113               -0.26234813               -0.21486571                0.81052462                0.00437083                0.24933700               -1.33956190
               5.40252117                3.75161153               30.06471088                0.04443851               -0.00585491                0.07860298                0.17938200               -0.81169530                7.92939649               -4.81479960
               6.40425532                3.47626949               30.01076807                0.00010000                0.31034354               -0.58624447                0.11309662               -1.96879725               16.38515387                0.00017123
               7.40872804                3.19209921               29.97518118                0.00010000                0.50106120               -0.54031042               -0.18695129               -2.53636634               17.70970311                0.68332727
               8.41427655                2.90543454               29.94575588                0.00010000                0.61990935               -0.63989334               -0.45800959               -2.71758443               17.93683598                2.20433578
               9.42112623                2.61814778               29.91263764                0.00010000                0.72201155               -0.64138505               -0.72200409               -2.61536422               17.39181568                3.72296962
              10.42871678                2.33274708               29.87015057                0.06347009                0.82659902               -0.74183811               -0.98297900               -2.19613005               15.75012277                5.10332964
              11.43765821                2.05208768               29.80243872                0.26301088                0.80413029               -0.80921300               -0.91999250               -0.96119202                7.71807324                7.39034806
              12.44479939                1.78790530               29.59733796                0.59419763                0.64621811                0.09296689               -1.54691076               -0.08056623                0.46193847                2.61067426
              13.45058257                1.52552284               29.38386445                0.93644316                0.57831869                0.98257083               -2.21859157               -0.07796989                0.05294789               -1.15499507
               3.66305496                5.26184186               30.41189136                1.00000000               -0.26366060               -0.40898759                1.23855202               -0.04699117                0.02256559                1.69899623
               4.66041835                5.00749580               30.18897766                0.54001526               -0.17504828               -0.12652710                0.52623934                0.01500112                0.15045722               -1.33417858
               5.65955399                4.75287462               29.96858593                0.03620898                0.10582200                0.16934102               -0.16716214               -1.19983559               11.13627668               -4.43926755
               6.66253479                4.47231271               29.96539375                0.00010000                0.37848050               -0.25906357               -0.14746713               -2.60360206               22.43446966               -1.47323825
               7.66712360                4.18709671               29.96926403                0.00010000                0.51914938               -0.43046264               -0.29089563               -2.96094999               22.94665034                0.64575022
               8.67291778                3.89924976               29.97403427                0.00010000                0.64560328               -0.60562389               -0.45034774               -3.11964279               23.02551980                2.36681545
               9.68003567                3.61090928               29.97689428                0.00010000                0.81032577               -0.78087815               -0.61726740               -3.09115738               22.86022152                4.15737715
              10.68912430                3.32361729               29.97562099                0.07086009                0.89221595               -0.98640686               -0.78849106               -2.60914706               20.55580662                6.23880909
              11.69787999                3.04404286               29.92951559                0.27417750                0.69394845               -0.73662434               -0.49763364               -1.13628919                9.37702915                5.68847276
              12.70300327                2.78862069               29.70199475                0.61018143                0.49189446                0.07305187               -1.20969249               -0.03127612                0.16874616                2.05969727
              13.70771788                2.53502341               29.47113741                0.94615366                0.47146122                0.87970482               -1.95331321               -0.04181271                0.00982624               -1.29265120
               3.91552043                6.25812896               30.34775767                1.00000000               -0.18807396               -0.33445697                1.00728069               -0.04629522                0.02009912                1.66219060
               4.91363969                6.00665933               30.10977079                0.52157351               -0.09064385               -0.04201546                0.24508454                0.01947056                0.15885519               -1.33175157
               5.91370755                5.75499835               29.87450392                0.02823312                0.21607548                0.25659357               -0.49738834               -1.51057121               14.14317151               -4.28745577
               6.91796120                5.47108822               29.91619256                0.00010000                0.44322236               -0.01191275               -0.39477797               -3.17662290               28.22370344               -1.72628775
               7.92257200                5.18348996               29.96048135                0.00010000                0.50549604               -0.26985521               -0.41116345               -3.49320460               28.45163846                0.42509052
               8.92807112                4.89332206               30.00411272                0.00010000                0.61817784               -0.55514304               -0.45668783               -3.71045055               28.49047583                2.43784861
               9.93493555                4.60253022               30.04612088                0.00010000                0.76645752               -0.84403202               -0.52794756               -3.76293848               28.41956864                4.46644594
              10.94340027                4.31301894               30.08492874                0.07839081                0.74967400               -1.07165009               -0.62768334               -3.14470572               24.58827402                6.56656795
              11.94992903                4.03735519               30.04669956                0.28561604                0.48965237               -0.62831323               -0.08959546               -1.32615450               10.57702375                4.92884054
              12.95319331                3.78936634               29.80240916                0.62709439                0.35059242                0.05962576               -0.86814797               -0.03178446                0.15057547                1.68117607
              13.95694088                3.54311694               29.55517727                0.95667257                0.37475668                0.74016184               -1.68443723               -0.03949695                0.01132315               -1.54691644
               4.16506832                7.25515272               30.28337620                1.00000000               -0.11299408               -0.26234654                0.77829198               -0.04556583                0.02090183                1.63522751
               5.16393838                7.00665549               30.03051980                0.50327266               -0.00773212                0.04019996               -0.03098477                0.02151352                0.18375013               -1.32114142
               6.16491368                6.75800649               29.78085071                0.02037976                0.32861731                0.34391735               -0.81890194               -1.76046024               17.08035291               -4.22247858
               7.17051073                6.47207446               29.86590163                0.00010000                0.50559948                0.20850092               -0.63133321               -3.68140243               33.93351398               -1.80295387
               8.17502567                6.18169960               29.95083750                0.00010000                0.45788919               -0.07761603               -0.52865158               -4.05265525               34.03227750                0.32594206
               9.17966851                5.88814690               30.03486006                0.00010000                0.50271773               -0.44968862               -0.46578248               -4.34633741               34.11211562                2.40076157
              10.18508002                5.59402864               30.11787541                0.00010000                0.58683482               -0.81677234               -0.44230399               -4.46590345               34.13737006                4.57463768
              11.19140521                5.30218429               30.19847995                0.08604832                0.49647371               -1.07024172               -0.46671335               -3.59753855               28.26836166                6.93061325
              12.19500950                5.03147659               30.15996075                0.29717721                0.26003120               -0.56691541                0.31507358               -1.40726875               11.37323826                4.56700462
              13.19660583                4.78981320               29.89990061                0.64411991                0.22086266                0.02009178               -0.52863586               -0.03234566                0.16050670                1.42910230
              14.19942675                4.54982664               29.63676113                0.96726896                0.28209197                0.60359537               -1.41438628               -0.03975394                0.01379848               -1.71923410
               4.41160356                8.25288203               30.21880397                1.00000000               -0.03873762               -0.19326105                0.55259523               -0.04399790                0.02068812                1.60792213
               5.41121619                8.00746333               29.95125773                0.48511114                0.07379076                0.11978409               -0.30099516                0.02126950                0.21286767               -1.30363010
               6.41307938                7.76187670               29.68747241                0.01268756                0.47119241                0.42662490               -1.13146208               -1.95111062               19.97228456               -4.15478696
               7.42064003                7.47525824               29.81508509                0.00010000                0.61835357                0.40703214               -0.85210200               -4.02857919               39.58898507               -1.79512405
               8.42544645                7.18193764               29.94059586                0.00010000                0.40876466                0.10462957               -0.63635038               -4.45562868               39.61873617                0.23977031
               9.42881533                6.88432829               30.06525348                0.00010000                0.30668228               -0.28185081               -0.46771420               -4.79907622               39.81553261                2.21183422
              10.43158009                6.58619477               30.19070970                0.00010000                0.25931102               -0.68949684               -0.34571232               -5.03119493               40.09443449                4.44479848
              11.43400155                6.29161411               30.31663957                0.09386344                0.12873259               -0.99521320               -0.28145355               -3.95331033               31.75986937                7.19904112
              12.43415475                6.02601688               30.27093765                0.30887358                0.00974010               -0.53706602                0.71661650               -1.43466031               11.81155901                4.33455818
              13.43419635                5.78976818               29.99553647                0.66125931                0.09820874               -0.03543531               -0.19095661               -0.03492725                0.17428977                1.28052500
              14.43611892                5.55518884               29.71683004                0.97790261                0.19225713                0.47088812               -1.14379134               -0.04078630                0.01582445               -1.80371660
               4.65502577                9.25128750               30.15399796                0.99544223                0.03433387               -0.12535608                0.32779746               -0.04255323                0.03065383                1.58848269
               5.65536911                9.00905118               29.87207849                0.46707127                0.15353933                0.19556183               -0.56032536                0.01578513                0.25586116               -1.29740516
               6.65809656                8.76653899               29.59457550                0.00521128                0.72545466                0.49934196               -1.43726256               -2.10226038               22.86431459               -3.96336110
               7.66987820                8.48021510               29.76473922                0.00010000                0.93732431                0.45405141               -1.05304560               -4.11870957               45.18985061               -1.57614540
               8.67684304                8.18379219               29.92966614                0.00010000                0.47758256                0.13515281               -0.72875371               -4.29722011               45.08468002                0.15960397
               9.67942985                7.88250989               30.09325500                0.00010000                0.01636336               -0.03507323               -0.45764277               -4.60700193               45.47441138                1.76127861
              10.67717031                7.58023871               30.26129358                0.00010000               -0.34564832               -0.31009228               -0.23188807               -5.11714948               46.30247536                3.76432133
              11.67251689                7.28228003               30.43705318                0.10187616               -0.45040449               -0.72670131               -0.05575155               -4.27057419               35.27854950                6.90617274
              12.66816222                7.02073527               30.38027676                0.32070706               -0.28907809               -0.52516303                1.11467036               -1.48699414               12.06366569                4.02554668
              13.66673532                6.78910450               30.09020645                0.67847116               -0.01962638               -0.10221056                0.14622086               -0.04237864                0.21428909                1.24306959
              14.66776969                6.55924440               29.79628686                0.98856225                0.10343678                0.34261312               -0.87132425               -0.04236987                0.02811395               -1.82329430
               4.89522515               10.25037491               30.08917757                0.98169483                0.10552537               -0.05570483                0.11153535               -0.04259298               -0.00036444                1.37331786
               5.89628040               10.01137457               29.79267610                0.44913888                0.23225486                0.26785523               -0.82134705                0.00548616                0.41966823               -1.15121728
               6.89987024                9.77186353               29.50447452                0.00010000                1.23661188                0.55490587               -1.73163365               -2.33165085               25.93775612               -2.95279329
               7.92101264                9.48433927               29.71810986                0.00010000                1.86685105               -0.14781590               -1.22528506               -3.20641965               50.66336821               -0.91087885
               8.93720726                9.18464069               29.91837759                0.00010000                0.96080698               -0.00844573               -0.80022663               -2.94358454               50.18015694                0.07943133
               9.94022878                8.88362683               30.11566921                0.00010000               -0.38701502                0.21307397               -0.43648453               -3.03648084               50.74174529                0.98974018
              10.92946696                8.57999292               30.32174413                0.00010000               -1.60676383                0.41775327               -0.11108310               -3.80271358               52.53209048                2.22747684
              11.90809350                8.27708008               30.55060881                0.11011122               -1.59382845                0.19641304                0.20112955               -3.65488602               39.12047526                4.69785551
              12.89759039                8.01551362               30.48553279                0.33273250               -0.66269283               -0.50232241                1.49775064               -1.66177164               12.65508806                2.83760824
              13.89483964                7.78772397               30.18515811                0.69573590               -0.12993446               -0.17701834                0.48659933               -0.05609235                0.43502418                1.11298071
              14.89499171                7.56204111               29.87561492                0.99919193                0.01520622                0.22171924               -0.59643131               -0.04617110               -0.01773490               -1.53918384
               5.13217460               11.25017340               30.02016245                0.98639520                0.18156083               -0.02015084               -0.11173760                0.11843319                0.66884326                1.16334139
               6.13399021               11.01440828               29.71619805                0.71884461                0.31621187                0.30337136               -1.08068945                0.14416611                1.63005552               -0.99458510
               7.13849884               10.77763711               29.43131992                0.49673830                2.94912210                0.57735717               -1.97136875               -2.99461527               29.35475201               -2.08944405
               8.19297265               10.47725878               29.68144104                0.44548385                4.00924772               -0.70804835               -1.34845121               -2.50468991               55.52613167               -0.56479347
               9.21868379               10.18362328               29.90707575                0.43540914                1.51876770               -0.10174123               -0.84549992               -1.37671813               54.54731009               -0.01228117
              10.22334800                9.88677136               30.12933068                0.45045670               -0.55105034                0.31445371               -0.40813182               -1.43955253               55.19144791                0.49922698
              11.20766279                9.58859377               30.36222575                0.48929017               -2.97247685                0.86008487               -0.00634418               -2.20857165               57.52261152                1.21194995
              12.16389847                9.28620829               30.62734451                0.55782181               -4.16899420                0.91282070                0.40726764               -3.31475066               43.17463032                2.95389274
              13.12428290                9.01068882               30.57133353                0.67031636               -2.24062369               -0.48247992                1.80122290               -2.36295722               14.94430470                1.86655332
              14.11908599                8.78556413               30.27723127                0.85339100               -0.30354549               -0.21598376                0.81640462                0.07413343                1.89616904                0.97050409
              15.11821199                8.56367879               29.96049149                1.00000000               -0.08740022                0.16376837               -0.29640561                0.13349473                0.76844192               -1.25231415
               2.79096341                1.36609128               31.68534573                1.00000000               -0.58010482               -0.63511368                2.17085313               -0.11073975               -1.45374092                1.47448212
               3.78516236                1.08670368               31.50411252                0.97818506               -0.52128382               -0.45634511                1.64550872               -0.07052589               -1.54620129               -0.17939486
               4.78053773                0.80629194               31.32118699                0.65875822               -0.53105184               -0.26809443                1.07650271               -0.24350206               -1.18791111               -1.10802812
               5.77454132                0.52058577               31.14743065                0.51321223               -0.65521267               -0.14820585                0.54309846               -0.36770337                0.70010021               -0.13935520
               6.76743348                0.22310131               31.00346162                0.44940733               -0.56046553                0.00642563               -0.00410484               -0.33759161                3.43490838               -0.12804215
               7.76333201               -0.08745795               30.88635915                0.45025725               -0.04243375                0.16298919               -0.59510001               -0.19957724                4.67649974                0.02486172
               8.76658480               -0.40261015               30.76894902                0.51197081                0.56297171                0.32074984               -1.17212150               -0.22974826                3.32210471                0.15578447
               9.77459145               -0.71209315               30.62500468                0.63980008                0.83671540                0.47183889               -1.70275731               -0.26277388                0.78538780                0.23618669
              10.78331911               -1.01339445               30.45598930                0.84841149                0.85811419                0.60393473               -2.21035980               -0.18146078               -1.15514344                0.53338477
              11.79175373               -1.30934250               30.27223539                1.00000000                0.88273421                0.73903705               -2.75453931               -0.07603758               -1.54492167                0.82828105
              12.80097380               -1.60338233               30.09471278                1.00000000                0.92200653                0.93795800               -3.26052303               -0.13622523               -1.21013434               -1.35189415
               3.06924361                2.35974014               31.61630248                1.00000000               -0.48868367               -0.61158851                1.93598982               -0.03730884                0.10096900                1.83478100
               4.06435677                2.08214023               31.43457765                0.77607789               -0.40409687               -0.41232249                1.39748869               -0.00056366                0.38165508               -0.52857005
               5.06116167                1.80361100               31.25851314                0.19141717               -0.09485801               -0.20199928                0.90863557               -0.25468550                2.11243324               -2.32284313
               6.06245961                1.51910371               31.11136609                0.00010000                0.34588799               -0.12178698                0.44916352               -0.83462889                4.69835109               -2.20908550
               7.06807943                1.22316557               30.98609401                0.00010000                0.58661809               -0.50917717               -0.03525701               -1.42332966                7.38029485                0.59185143
               8.07419197                0.91417194               30.89095473                0.00010000                0.42627457               -0.25248066               -0.55839182               -1.73727257                8.96489843                1.00782869
               9.07660492                0.60059735               30.79608566                0.00010000                0.15819452                0.08138528               -1.06232541               -1.49838506                7.59645771                1.22542382
              10.07735586                0.29262524               30.67361810                0.16921928                0.17621320                0.25940931               -1.51275803               -0.82245571                4.98015622                2.76944500
              11.08012918               -0.00735510               30.52724142                0.48250944                0.43157169                0.45576747               -1.95065901               -0.31723225                2.97817567                2.53236228
              12.08598729               -0.30195213               30.36539408                0.97938188                0.67610927                0.65454066               -2.34592539               -0.05609692                1.26318310                1.30956048
              13.09365137               -0.59400275               30.18473018                1.00000000                0.76640739                0.89321324               -2.83125471               -0.06458012                0.34038024               -1.45063254
               3.34541705                3.35385951               31.55456188                1.00000000               -0.41368198               -0.55730444                1.70967516               -0.05178605                0.22738664                2.07061442
               4.34128023                3.07845723               31.35811800                0.57788345               -0.34682532               -0.30996419                1.09511481               -0.01707592                0.71992793               -1.15038863
               5.33848054                2.80225196               31.17153408                0.05724523               -0.14930233               -0.03825444                0.57356559               -0.38611874                3.65552441               -4.43226862
               6.33829418                2.51815003               31.03387636                0.00010000                0.27090613               -0.47516119                0.28293811               -1.78038284               10.47006597               -1.52586993
               7.34389866                2.21291777               30.98298630                0.00010000                0.64302982               -0.83015104               -0.11933312               -2.85393194               14.05153044                0.87345280
               8.35115478                1.90749243               30.91499181                0.00010000                0.71325681               -0.69046321               -0.51066624               -2.99168772               13.15964001                2.03383671
               9.35816380                1.59901756               30.84437245                0.00010000                0.74700051               -0.37644371               -0.88761186               -2.74036040               13.03774343                2.93886179
              10.36609479                1.29309504               30.77263709                0.05632131                0.66940210               -0.25434134               -1.22236773               -1.79998254                9.90149511                4.70550413
              11.37155184                0.99572090               30.63819703                0.25729844                0.55923248               -0.30355660               -1.49210260               -0.74547971                4.98498335                6.71572430
              12.37727944                0.70374831               30.46788834                0.59818480                0.61157903                0.33622478               -1.89118337               -0.26136279                1.93241588                2.35943690
              13.38378342                0.41448194               30.27224928                0.94337080                0.65039853                0.93843299               -2.47516068               -0.21490133                0.68522523               -1.45639618
               3.61901243                4.34859405               31.49034011                1.00000000               -0.33896321               -0.48861900                1.47214407               -0.04832086                0.03529137                1.84917940
               4.61562280                4.07594095               31.27609782                0.54567703               -0.26329682               -0.20500062                0.80117643                0.00552068                0.26405785               -1.41453333
               5.61374649                3.80284591               31.06641818                0.04173543                0.02816733                0.10732965                0.16151052               -0.92764235                8.24057086               -5.03411791
               6.61618615                3.50960049               31.01176514                0.00010000                0.39559481               -0.63787871                0.08530550               -2.22223167               16.86758398               -0.12563754
               7.62165839                3.20656255               30.97318178                0.00010000                0.60361397               -0.58885196               -0.21361512               -2.86217043               18.09361006                0.62521089
               8.62825842                2.90036267               30.94102051                0.00010000                0.72683576               -0.69086463               -0.48962916               -3.08172018               18.34156993                2.19921625
               9.63619511                2.59306848               30.90525619                0.00010000                0.81972224               -0.68281766               -0.75500488               -2.97301177               17.80622664                3.75623399
              10.64465287                2.28753841               30.86019072                0.06064784                0.91856063               -0.75916403               -1.00942465               -2.52643094               16.33355192                5.14713396
              11.65456632                1.98657376               30.79323018                0.25641473                0.86730656               -0.90197803               -0.92980636               -1.10789336                8.11417717                7.64337068
              12.66199900                1.70477236               30.58180184                0.57922170                0.66598838                0.07385171               -1.56292576               -0.07569133                0.47962597                2.63057272
              13.66788609                1.42476591               30.36152265                0.92519524                0.58870853                1.00630305               -2.25599530               -0.07078418                0.04843204               -1.30253973
               3.88975684                5.34408713               31.42426703                1.00000000               -0.26180544               -0.41317786                1.23612088               -0.04762076                0.02280263                1.73300334
               4.88713878                5.07435722               31.19417194                0.52729192               -0.17443417               -0.11460695                0.51201060                0.01786114                0.16070579               -1.40346063
               5.88626815                4.80439855               30.96679413                0.03371725                0.14970666                0.19893619               -0.19196716               -1.34865242               11.51122936               -4.61740111
               6.89013292                4.50539246               30.96373146                0.00010000                0.48124602               -0.27402395               -0.18621571               -2.91878754               23.09318604               -1.62694693
               7.89589307                4.20114073               30.96615995                0.00010000                0.64407641               -0.46775234               -0.33086050               -3.31686757               23.52503433                0.57403145
               8.90301444                3.89367514               30.96932398                0.00010000                0.78173755               -0.65626804               -0.49232591               -3.49599832               23.59966524                2.34740424
               9.91152782                3.58536120               30.97051713                0.00010000                0.95232190               -0.83618477               -0.65822154               -3.46151840               23.43714347                4.17071261
              10.92206088                3.27791176               30.96757528                0.06789553                1.03161015               -1.04745913               -0.81997027               -2.96569311               21.36934003                6.26650186
              11.93216003                2.97768134               30.92449072                0.26734365                0.77562911               -0.81297218               -0.50813248               -1.31136794                9.92073655                5.87498682
              12.93757346                2.70522534               30.68982695                0.59481976                0.51103060                0.04988066               -1.22649651               -0.02712972                0.18556686                2.10251273
              13.94238064                2.43460800               30.45145329                0.93465809                0.48071757                0.91288330               -1.99072473               -0.03792676                0.01090171               -1.39475073
               4.15751983                6.34033049               31.35781050                1.00000000               -0.18512298               -0.33955044                1.00242651               -0.04698843                0.02023248                1.69762855
               5.15566860                6.07364881               31.11213609                0.50930966               -0.08908088               -0.02836938                0.22731378                0.02214365                0.16954994               -1.39438877
               6.15573821                5.80682464               30.86938581                0.02593779                0.26998118                0.28749980               -0.52740410               -1.68614757               14.58503906               -4.44827753
               7.16106822                5.50412001               30.91202077                0.00010000                0.56500751               -0.01161414               -0.44079586               -3.53916213               29.04023767               -1.86210343
               8.16703836                5.19720750               30.95612120                0.00010000                0.65248804               -0.29897885               -0.46195338               -3.88593631               29.20765111                0.35049584
               9.17411798                4.88723731               30.99927537                0.00010000                0.78448807               -0.60689791               -0.51127893               -4.11736221               29.23061742                2.41171139
              10.18272812                4.57634478               31.04056422                0.00010000                0.94504468               -0.91161884               -0.58281849               -4.16061538               29.14383202                4.47154411
              11.19301887                4.26658923               31.07839701                0.07527016                0.91486268               -1.14625857               -0.67585052               -3.53448179               25.63261346                6.57985599
              12.20102537                3.97031432               31.04575403                0.27852403                0.57554359               -0.68833665               -0.09973331               -1.52644273               11.28800913                5.11075185
              13.20452975                3.70576997               30.79364631                0.61128757                0.36684337                0.04302813               -0.88566498               -0.03151549                0.17121157                1.72669942
              14.20836224                3.44302358               30.53817317                0.94488666                0.38324951                0.77010185               -1.72037022               -0.03702409                0.01213395               -1.64311676
               4.42218044                7.33729612               31.29113241                1.00000000               -0.10929229               -0.26852786                0.77254623               -0.04544474                0.02112389                1.67286300
               5.42108751                7.07378983               31.03011288                0.49146448               -0.00532184                0.05471205               -0.05165305                0.02321848                0.19556010               -1.37575756
               6.42207400                6.81014855               30.77249810                0.01828408                0.39396481                0.37531846               -0.85262307               -1.96062033               17.58889943               -4.37072464
               7.42896681                6.50516018               30.85933605                0.00010000                0.64915234                0.21658877               -0.68343040               -4.08620374               34.90270788               -1.92305011
               8.43505705                6.19516115               30.94525006                0.00010000                0.62815532               -0.10162798               -0.59009432               -4.48255933               34.95656628                0.25869565
               9.44152992                5.88153718               31.02985832                0.00010000                0.69532755               -0.50215391               -0.53504382               -4.78419325               35.01203294                2.37669234
              10.44896360                5.56712883               31.11307519                0.00010000                0.79358945               -0.88843301               -0.51678384               -4.89074896               35.00722890                4.58266138
              11.45740171                5.25498659               31.19341898                0.08278570                0.67434154               -1.14586296               -0.54176513               -4.00287003               29.54418425                6.95594188
              12.46245043                4.96391460               31.16306682                0.28982034                0.34160956               -0.61158224                0.30590879               -1.61730274               12.25068602                4.74567288
              13.46423390                4.70608591               30.89453405                0.62785938                0.23412615                0.00979813               -0.54575679               -0.03394582                0.18382268                1.47414999
              14.46713295                4.45001003               30.62245878                0.95516993                0.28990550                0.62894635               -1.44922803               -0.03816595                0.01512332               -1.81108479
               4.68362350                8.33495994               31.22429897                0.99850757               -0.03429633               -0.19995494                0.54368871               -0.04479302                0.02058619                1.64630237
               5.68328054                8.07474305               30.94814606                0.47376280                0.07659803                0.13366200               -0.32013568                0.01959284                0.22454448               -1.34757926
               6.68515546                7.81433101               30.67597974                0.01079019                0.55255039                0.45632765               -1.17018427               -2.17345326               20.54961990               -4.29432019
               7.69433154                7.50845179               30.80628201                0.00010000                0.79273536                0.41681748               -0.91059496               -4.46403427               40.71008446               -1.89767147
               8.70101017                7.19517494               30.93387921                0.00010000                0.60674470                0.07855165               -0.70856561               -4.90749233               40.70587491                0.18397456
               9.70646644                6.87719423               31.06015324                0.00010000                0.52267847               -0.33490613               -0.55298364               -5.24595267               40.87413147                2.19569283
              10.71146374                6.55857612               31.18675759                0.00010000                0.48546294               -0.75684354               -0.44399287               -5.46210062               41.11615607                4.46494227
              11.71617570                6.24367197               31.31325312                0.09045272                0.30581314               -1.06442072               -0.39196238               -4.35299542               33.26116780                7.25491684
              12.71758000                5.95808268               31.27806974                0.30125195                0.07898513               -0.56748385                0.70956056               -1.64233640               12.84230748                4.50935483
              13.71775540                5.70596594               30.99355220                0.64452463                0.10853322               -0.04077968               -0.20685336               -0.03751812                0.19957765                1.32529612
              14.71975066                5.45560250               30.70523627                0.96549597                0.19952643                0.49160138               -1.17759374               -0.03972782                0.01746370               -1.89182040
               4.94171835                9.33329702               31.15723712                0.98508589                0.03899541               -0.13091737                0.32344010               -0.04428970                0.04022247                1.63475231
               5.94210830                9.07646307               30.86638059                0.45618055                0.15889248                0.20799252               -0.58348565                0.01062368                0.26825230               -1.34022092
               6.94489620                8.81927510               30.57999110                0.00350871                0.83669439                0.52524125               -1.48334569               -2.34404559               23.51583924               -4.09471059
               7.95884219                8.51349653               30.75389612                0.00010000                1.16342774                0.44810501               -1.11830010               -4.56601601               46.46821821               -1.65626561
               8.96816475                8.19673218               30.92197796                0.00010000                0.71837451                0.08757737               -0.81084202               -4.72115926               46.33102799                0.11888748
               9.97320968                7.87483906               31.08818183                0.00010000                0.25395470               -0.09099001               -0.55799619               -5.00455651               46.69285328                1.75388821
              10.97324385                7.55199196               31.25836027                0.00010000               -0.11872197               -0.35860949               -0.35463002               -5.50050640               47.48977364                3.79499732
              11.97083524                7.23369817               31.43572980                0.09832371               -0.29670562               -0.77200917               -0.20691805               -4.64078384               36.99600829                6.99607751
              12.96730974                6.95256493               31.39140536                0.31283103               -0.24357681               -0.54263620                1.11074183               -1.68659487               13.22656746                4.19055457
              13.96596371                6.70527031               31.09160407                0.66127479               -0.01222373               -0.10388097                0.13243288               -0.04593561                0.24226006                1.29006102
              14.96706526                6.45984206               30.78742342                0.97583686                0.11015551                0.35874713               -0.90375288               -0.04174973                0.03052267               -1.90703352
               5.19640560               10.33234159               31.09029583                0.97165835                0.11093319               -0.05752081                0.11247643               -0.04226936                0.00261087                1.42193992
               6.19751493               10.07890290               30.78430695                0.43870687                0.24177501                0.27884260               -0.85598296                0.00086884                0.43771351               -1.19661489
               7.20124110                9.82483583               30.48690929                0.00010000                1.40196071                0.57535005               -1.78569340               -2.60174162               26.68262159               -3.04999197
               8.22555414                9.51741389               30.70551997                0.00010000                2.20016764               -0.23715388               -1.29603348               -3.56184093               52.10506073               -0.95527022
               9.24524445                9.19692649               30.90994213                0.00010000                1.27806956               -0.08910562               -0.88908247               -3.23360845               51.57947210                0.05679193
              10.25111553                8.87537443               31.11075620                0.00010000               -0.13249766                0.15523205               -0.54744602               -3.27950611               52.11478513                0.98742520
              11.24259450                8.55140393               31.31992857                0.00010000               -1.41642422                0.38965869               -0.25255787               -4.04579916               53.89720971                2.25315824
              12.22278705                8.22823179               31.55168232                0.10641856               -1.51592673                0.23026484                0.01280502               -3.90804589               41.04627147                4.78005669
              13.21227596                7.94722995               31.50051184                0.32459274               -0.66137486               -0.50706802                1.49780758               -1.85697578               13.93394582                2.95486743
              14.20955955                7.70388832               31.18997474                0.67807675               -0.12518969               -0.17630846                0.47597049               -0.06111711                0.47294312                1.15712833
              15.20977217                7.46277745               30.86950943                0.98615829                0.02126156                0.23368673               -0.62686407               -0.04612866               -0.01692101               -1.60702463
               5.44775034               11.33214660               31.01901394                0.98148510                0.18811011               -0.01949866               -0.11677006                0.12380660                0.68693057                1.20515469
               6.44963144               11.08203993               30.70520751                0.71377059                0.33000208                0.31370249               -1.11771041                0.14342617                1.69034933               -1.03684181
               7.45435038               10.83078210               30.41133986                0.49604752                3.29416382                0.59462725               -2.02937853               -3.35339546               30.21575611               -2.15657836
               8.51551472               10.50875345               30.66761691                0.44574700                4.55908290               -0.86604389               -1.41983773               -2.79554418               57.12628807               -0.59504414
               9.54553204               10.19495007               30.89818261                0.43557506                1.88136991               -0.19764157               -0.93534651               -1.51172849               56.08322365               -0.02984328
              10.55314211                9.87794370               31.12468911                0.45024125               -0.30307643                0.25692661               -0.52150138               -1.55558887               56.69906518                0.49337463
              11.53947051                9.55978513               31.36142992                0.48848624               -2.81469059                0.83811999               -0.15351848               -2.29441019               59.03661905                1.22324260
              12.49684830                9.23830347               31.63041630                0.55592665               -4.24784098                1.00716798                0.20519079               -3.46195281               45.27601258                3.00976031
              13.45451369                8.94242357               31.58936381                0.66615840               -2.38272173               -0.48063849                1.80466414               -2.60419339               16.35404485                1.94430734
              14.44919387                8.70174414               31.28536546                0.84441244               -0.30746309               -0.21441753                0.80982939                0.06804310                1.99585243                1.00994888
              15.44836443                8.46451580               30.95740271                0.99633386               -0.08294395                0.17383496               -0.32337062                0.13639153                0.80252681               -1.30586590
               2.96011705                1.45125529               32.70714115                1.00000000               -0.58763575               -0.64081120                2.18941699               -0.11147014               -1.48461663                1.51435058
               3.95424069                1.15551117               32.52065728                0.96840119               -0.53244300               -0.45879470                1.66254289               -0.07094627               -1.60018294               -0.21637509
               4.94946819                0.85864776               32.33201266                0.65504132               -0.56914618               -0.26703819                1.08734050               -0.27103761               -1.24798614               -1.12318252
               5.94285777                0.55570092               32.15287128                0.51228917               -0.73583975               -0.14672161                0.54608496               -0.40971217                0.64819896               -0.14353935
               6.93475139                0.23931482               32.00338681                0.44938182               -0.65533157                0.01395842               -0.00946543               -0.37577683                3.35237835               -0.13289228
               7.92975113               -0.09199778               31.88033437                0.45003127               -0.09638147                0.17487446               -0.60808771               -0.21976876                4.57388786                0.02443814
               8.93282376               -0.42872851               31.75710838                0.51066515                0.57321256                0.33378240               -1.19366843               -0.25151232                3.24010377                0.16012683
               9.94121539               -0.75927656               31.60781691                0.63626418                0.88018316                0.48592206               -1.73325830               -0.29097193                0.72865228                0.24301751
              10.95042743               -1.08065543               31.43365162                0.84079605                0.89998666                0.61813424               -2.25615415               -0.21094517               -1.22042978                0.53508634
              11.95921512               -1.39599969               31.24444018                1.00000000                0.91181820                0.75976852               -2.81080874               -0.09280968               -1.61064123                0.87574152
              12.96866379               -1.70916090               31.06178030                1.00000000                0.94486712                0.96731428               -3.33402944               -0.13562310               -1.25859381               -1.36844081
               3.25474647                2.44484718               32.63571685                1.00000000               -0.49114779               -0.61739726                1.94805727               -0.03814094                0.11774085                1.87782130
               4.24983499                2.15092322               32.44859517                0.75869758               -0.40417681               -0.41229937                1.40570101               -0.00251939                0.42395935               -0.59284118
               5.24666293                1.85597738               32.26764731                0.18584298               -0.07039383               -0.19478072                0.91768011               -0.29690290                2.19373184               -2.42387645
               6.24842712                1.55423370               32.11586707                0.00010000                0.40900199               -0.12898818                0.45104872               -0.95166080                4.78055416               -2.24814485
               7.25484297                1.23945440               31.98571136                0.00010000                0.65739966               -0.55153070               -0.04112996               -1.61514953                7.42697639                0.55888120
               8.26157511                0.90975097               31.88529199                0.00010000                0.45525270               -0.26718160               -0.57402862               -1.97357687                8.99692123                1.01276536
               9.26394803                0.57460932               31.78532701                0.00010000                0.13470091                0.10360981               -1.08972834               -1.71134945                7.66212538                1.26424075
              10.26426913                0.24558266               31.65829554                0.16417874                0.13657567                0.26340352               -1.55251753               -0.95533360                5.07883926                2.83022248
              11.26667954               -0.07447409               31.50752272                0.47110850                0.41353143                0.46041348               -1.99999191               -0.38508137                3.09622366                2.63999997
              12.27253976               -0.38840201               31.34151659                0.95560988                0.68946114                0.67710070               -2.43260487               -0.07914830                1.36032922                1.40020538
              13.28046876               -0.69948775               31.15598203                1.00000000                0.79290084                0.93062423               -2.92839198               -0.06701570                0.40958396               -1.50012036
               3.54720215                3.43890735               32.57168353                1.00000000               -0.41420449               -0.56300133                1.71520195               -0.05361315                0.22579253                2.11137066
               4.54306010                3.14726518               32.36905246                0.56345400               -0.34912515               -0.30389805                1.09188749               -0.02073448                0.76632637               -1.23654540
               5.54021964                2.85475215               32.17724327                0.05391183               -0.13562880               -0.01541274                0.56839332               -0.45708459                3.86832565               -4.65630384
               6.54034753                2.55312116               32.03673934                0.00010000                0.33557482               -0.51660302                0.28949979               -2.00258256               10.74130372               -1.62930773
               7.54693114                2.22828420               31.98171383                0.00010000                0.73885774               -0.90123146               -0.13560863               -3.19803334               14.26707474                0.81410297
               8.55512468                1.90265859               31.90976693                0.00010000                0.79169668               -0.73321357               -0.53492866               -3.37410458               13.39158682                2.03640053
               9.56276507                1.57334369               31.83535327                0.00010000                0.80337177               -0.37407698               -0.91764007               -3.12672755               13.29628537                2.99651765
              10.57119212                1.24599151               31.76022730                0.05344451                0.69726967               -0.24155490               -1.26067043               -2.08230709               10.21498448                4.78846722
              11.57671047                0.92855284               31.62318668                0.25026767                0.57268515               -0.34322546               -1.52498435               -0.83990499                5.26107280                6.97560441
              12.58264582                0.61754232               31.44864577                0.58188772                0.63922515                0.34900785               -1.97172446               -0.27707885                2.05319410                2.44215569
              13.58949497                0.30945159               31.24693041                0.93104928                0.68491510                0.98778943               -2.59303783               -0.22703218                0.72620534               -1.57472548
               3.83695854                4.43358715               32.50506240                1.00000000               -0.33830377               -0.49379088                1.47233690               -0.04923756                0.03452879                1.88445023
               4.83357550                4.14484526               32.28406173                0.53234603               -0.26466377               -0.19384323                0.79124545                0.00636191                0.27935347               -1.49151676
               5.83166527                3.85566912               32.06794109                0.03897046                0.06339521                0.14034118                0.14251485               -1.04720965                8.55218941               -5.26143206
               6.83484341                3.54390164               32.01247418                0.00010000                0.48398054               -0.68015068                0.05545239               -2.47770927               17.35598462               -0.27455090
               7.84134488                3.22142977               31.97090887                0.00010000                0.70950620               -0.63231431               -0.24190358               -3.18571622               18.48683409                0.55310726
               8.84903353                2.89508669               31.93596330                0.00010000                0.83678378               -0.73577993               -0.52287959               -3.44363873               18.75544362                2.18243735
               9.85808055                2.56712778               31.89753754                0.00010000                0.91901513               -0.71640875               -0.79001263               -3.32864819               18.23766518                3.78087960
              10.86741383                2.24075157               31.84996207                0.05775174                1.01250403               -0.76252382               -1.03921292               -2.85604895               16.94362511                5.19119464
              11.87833063                1.91866141               31.78384260                0.24970830                0.93427988               -0.97670496               -0.95507767               -1.24204168                8.54079229                7.89476477
              12.88609943                1.61857815               31.56607944                0.56421483                0.68894788                0.06420720               -1.59432960               -0.06435798                0.51794501                2.65822670
              13.89210959                1.32026804               31.33874454                0.91397757                0.60101581                1.05131419               -2.31444855               -0.07159864                0.05299326               -1.42958387
               4.12370118                5.42903153               32.43661377                1.00000000               -0.25958147               -0.41854990                1.23244084               -0.04855343                0.02290568                1.76933406
               5.12110537                5.14338831               32.19921787                0.51444456               -0.17410591               -0.10073210                0.49658386                0.02036585                0.17147798               -1.47338059
               6.12021907                4.85755897               31.96474659                0.03116540                0.19636613                0.23298504               -0.21847065               -1.50058944               11.88566407               -4.80028514
               7.12503269                4.53951814               31.96166944                0.00010000                0.59063503               -0.28300440               -0.22732665               -3.23669497               23.75653713               -1.79001757
               8.13203177                4.21563792               31.96264682                0.00010000                0.77606045               -0.50100064               -0.37302323               -3.67248023               24.11525063                0.48819261
               9.14055390                3.88794299               31.96418775                0.00010000                0.92477354               -0.70323688               -0.53599562               -3.87077438               24.18789822                2.31377378
              10.15052724                3.55901552               31.96372985                0.00010000                1.09918046               -0.88623678               -0.70006089               -3.82959782               24.03560592                4.17014873
              11.16253751                3.23074104               31.95922158                0.06485184                1.17579055               -1.09896047               -0.85140972               -3.32739418               22.21633825                6.27927408
              12.17404305                2.90901874               31.91935294                0.26038793                0.86072595               -0.88336406               -0.52376850               -1.49026451               10.49427421                6.05649897
              13.17975203                2.61882647               31.67746482                0.57942105                0.53200903                0.03075393               -1.25020972               -0.02209484                0.21188174                2.13391180
              14.18468323                2.33047787               31.43132292                0.92319648                0.49311999                0.94905383               -2.04005224               -0.03384657                0.01180336               -1.50216994
               4.40727390                6.42521616               32.36780620                1.00000000               -0.18185205               -0.34550065                0.99648162               -0.04712030                0.02088891                1.73670935
               5.40545538                6.14283062               32.11431706                0.49694232               -0.08751257               -0.01289684                0.20747308                0.02455951                0.18115685               -1.45668501
               6.40552365                5.86032882               31.86395584                0.02357367                0.32875907                0.32195463               -0.55943508               -1.86698165               15.02575157               -4.61242551
               7.41203056                5.53824156               31.90737665                0.00010000                0.69733886               -0.00829610               -0.48950856               -3.90694176               29.86088853               -2.00575576
               8.41947043                5.21140976               31.95124229                0.00010000                0.81049429               -0.32612055               -0.51519239               -4.28083179               29.97527777                0.26269146
               9.42824045                4.88102196               31.99388714                0.00010000                0.96100610               -0.65700600               -0.56725198               -4.52382881               29.98587036                2.36890225
              10.43869055                4.54940304               32.03446451                0.00010000                1.13111384               -0.97635096               -0.63711445               -4.55564519               29.89017856                4.45632932
              11.45086272                4.21877236               32.07141173                0.07208319                1.08746824               -1.21470114               -0.71950243               -3.93245856               26.71766204                6.56636044
              12.46043991                3.90099412               32.04470490                0.27131710                0.66678406               -0.74722021               -0.11248440               -1.73570120               12.03332416                5.28593861
              13.46419840                3.61919323               31.78469586                0.59544158                0.38449678                0.02819242               -0.90706413               -0.03033568                0.19872549                1.76456857
              14.46812985                3.33924911               31.52076986                0.93311730                0.39314435                0.80319861               -1.76438139               -0.03458532                0.01341658               -1.74230454
               4.68752986                7.42212152               32.29882712                1.00000000               -0.10459646               -0.27563931                0.76217016               -0.04675314                0.01947490                1.71227324
               5.68648389                7.14313038               32.02948674                0.47956511               -0.00306802                0.07067112               -0.07203561                0.02237338                0.20680189               -1.42615403
               6.68746849                6.86399806               31.76379825                0.01611989                0.46645159                0.40842342               -0.88975700               -2.16829913               18.09618071               -4.52468955
               7.69581292                6.53935222               31.85223302                0.00010000                0.80831183                0.22515965               -0.73898850               -4.49854277               35.87524299               -2.05188419
               8.70363473                6.20911551               31.93903562                0.00010000                0.81355604               -0.12602666               -0.65428647               -4.91635324               35.89113542                0.17765698
               9.71208404                5.87480287               32.02415918                0.00010000                0.90146009               -0.55516586               -0.60544067               -5.22239422               35.92521220                2.33391862
              10.72166393                5.53948850               32.10753973                0.00010000                1.01066074               -0.95972549               -0.58956295               -5.31215332               35.89506226                4.56503444
              11.73229726                5.20644702               32.18764465                0.07945249                0.86221092               -1.21853659               -0.60966042               -4.41820624               30.87081699                6.94476735
              12.73890815                4.89407434               32.16607892                0.28234714                0.42965349               -0.65643394                0.29485137               -1.83973951               13.17437306                4.92000480
              13.74089033                4.61939032               31.88898548                0.61155604                0.24858036                0.00054253               -0.56579945               -0.03547631                0.21291880                1.51362141
              14.74387976                4.34654185               31.60777657                0.94309655                0.29894311                0.65693388               -1.49040917               -0.03633689                0.01673958               -1.90713656
               4.96432111                8.41970337               32.22967775                0.98771740               -0.02948119               -0.20679171                0.53702274               -0.04526131                0.03043128                1.69359151
               5.96402630                8.14424404               31.94485502                0.46230051                0.08073554                0.14777427               -0.34170349                0.01451050                0.23653605               -1.39264966
               6.96593582                7.86849729               31.66406873                0.00881856                0.64579807                0.48585855               -1.21490980               -2.40349863               21.12529098               -4.44398829
               7.97694226                7.54274475               31.79687319                0.00010000                0.98784449                0.42498054               -0.97350907               -4.90826433               41.83605472               -2.01051672
               8.98569271                7.20888923               31.92642455                0.00010000                0.82386558                0.04957588               -0.78401343               -5.36414752               41.80162516                0.11416014
               9.99341957                6.86991864               32.05419381                0.00010000                0.75553118               -0.39090867               -0.63947099               -5.69300630               41.94193376                2.16035044
              11.00080334                6.53020853               32.18182984                0.00010000                0.72465915               -0.82604093               -0.54040658               -5.88815701               42.14771297                4.45691636
              12.00791276                6.19440163               32.30880032                0.08697367                0.49492424               -1.13373165               -0.49478636               -4.76241895               34.82606352                7.26717394
              13.01070182                5.88786545               32.28512886                0.29351700                0.15543077               -0.59850382                0.70099003               -1.86431966               13.93746686                4.68238973
              14.01102137                5.61920408               31.99139941                0.62777550                0.11991155               -0.04535716               -0.22521272               -0.04027622                0.23009777                1.36639903
              15.01310005                5.35238779               31.69327816                0.95312364                0.20786805                0.51443638               -1.21682799               -0.03854520                0.01942394               -1.98411577
               5.23754329                9.41798568               32.16046676                0.97461702                0.04368882               -0.13332387                0.32638149               -0.04328082                0.04881242                1.69589710
               6.23798018                9.14608586               31.86040877                0.44516911                0.16772623                0.21856532               -0.61526879                0.00622338                0.28137201               -1.39360877
               7.24089781                8.87371523               31.56490858                0.00172653                0.96377630                0.55088214               -1.53657469               -2.59300983               24.17190850               -4.23838599
               8.25725570                8.54785183               31.74237322                0.00010000                1.41400394                0.43841592               -1.18910256               -5.02347290               47.75439640               -1.74718665
               9.26917789                8.21010702               31.91344930                0.00010000                0.98244545                0.03413306               -0.89672876               -5.14996860               47.58502303                0.06585547
              10.27690461                7.86698470               32.08209508                0.00010000                0.51199577               -0.15252932               -0.66001217               -5.40104402               47.91526838                1.72991541
              11.27941781                7.52296768               32.25420098                0.00010000                0.12436777               -0.41110449               -0.47635480               -5.87653069               48.67496854                3.80012868
              12.27939197                7.18377238               32.43291482                0.09468517               -0.12992519               -0.82034533               -0.35277685               -5.01702571               38.79212312                7.04135093
              13.27681930                6.88210426               32.40249159                0.30482227               -0.19147540               -0.56064650                1.10553508               -1.90070712               14.47686213                4.35577136
              14.27556246                6.61848317               32.09285511                0.64405342               -0.00389333               -0.10494674                0.11646079               -0.04970736                0.27532302                1.33504278
              15.27674144                6.35683057               31.77821180                0.96316483                0.11789777                0.37667659               -0.94116853               -0.04106734                0.03330638               -1.99454007
               5.50725513               10.41703689               32.09142710                0.96152339                0.11660844               -0.05726986                0.11305850               -0.04301541               -0.00025370                1.47605935
               6.50842121               10.14861535               31.77555644                0.42815636                0.25272632                0.28922299               -0.89311673               -0.00154277                0.45906215               -1.24709325
               7.51230966                9.87951494               31.46876066                0.00010000                1.58298987                0.59645819               -1.84861815               -2.87977665               27.44052572               -3.15846579
               8.54008101                9.55151307               31.69218919                0.00010000                2.56254095               -0.33439098               -1.37306512               -3.92715426               53.55943521               -1.00759341
               9.56356048                9.20957189               31.90059594                0.00010000                1.62285133               -0.17807843               -0.98222761               -3.52734174               52.98647096                0.02670093
              10.57253804                8.86686805               32.10472029                0.00010000                0.14622801                0.08941719               -0.66058858               -3.52040290               53.48717485                0.97528534
              11.56648504                8.52198644               32.31669298                0.00010000               -1.20511911                0.35441240               -0.39421458               -4.28115834               55.24670785                2.26274877
              12.54843566                8.17799472               32.55086491                0.10263522               -1.42540744                0.25815759               -0.17500969               -4.16205351               43.06398394                4.83181827
              13.53797689                7.87665252               32.51548894                0.31633084               -0.65673719               -0.51166185                1.49691732               -2.06471171               15.32284000                3.07302964
              14.53530091                7.61710515               32.19467752                0.66040952               -0.11964913               -0.17507473                0.46339965               -0.06647563                0.51607782                1.20070728
              15.53558390                7.35992132               31.86307764                0.97317541                0.02829920                0.24721663               -0.66201480               -0.04605373               -0.01571112               -1.67746901
               5.77352607               11.41684028               32.01782705                0.97651951                0.19452049               -0.01966076               -0.11894195                0.13009804                0.70925257                1.24768505
               6.77547128               11.15187032               31.69384384                0.70862548                0.34392433                0.32549775               -1.15723363                0.14521183                1.75933481               -1.07811689
               7.78040456               10.88564440               31.39073234                0.49531928                3.65921942                0.61294613               -2.09530602               -3.72582541               31.09616288               -2.23354023
               8.84865566               10.54116401               31.65304429                0.44598277                5.14357566               -1.03490548               -1.49798630               -3.09748184               58.74256420               -0.62924359
               9.88327607               10.20654546               31.88836881                0.43573497                2.27131669               -0.30264326               -1.02961939               -1.64798908               57.62684791               -0.05111528
              10.89408200                9.86877304               32.11890065                0.45003520               -0.03040488                0.19049875               -0.63717854               -1.67008054               58.20430071                0.48242546
              11.88266797                9.53005593               32.35915539                0.48766051               -2.62985873                0.80694824               -0.30124918               -2.37358155               60.52923008                1.22554572
              12.84148482                9.18893553               32.63144832                0.55399287               -4.31266663                1.09408152                0.00118082               -3.60432829               47.47310417                3.04585357
              13.79641464                8.87187103               32.60742681                0.66194659               -2.52603424               -0.47814904                1.80722153               -2.85391740               17.88477675                2.02315421
              14.79096414                8.61498168               32.29342786                0.83544454               -0.31133157               -0.21234680                0.80156446                0.06151666                2.10207499                1.04959801
              15.79018801                8.36177491               31.95402408                0.98974884               -0.07761296                0.18535833               -0.35481815                0.13973321                0.83773259               -1.36105680
               3.13423881                1.53922688               33.72913407                1.00000000               -0.59516227               -0.64726914                2.20992097               -0.11235063               -1.51368542                1.55366175
               4.12828719                1.22650040               33.53736337                0.95850492               -0.54374004               -0.46121743                1.67880223               -0.07156352               -1.65427280               -0.25687003
               5.12336401                0.91255900               33.34293380                0.65125646               -0.60780169               -0.26561307                1.09635627               -0.29881086               -1.31016393               -1.13652951
               6.11613116                0.59172340               33.15835235                0.51133510               -0.81730261               -0.14506433                0.54974319               -0.45068251                0.59497767               -0.14808274
               7.10701796                0.25579437               33.00327231                0.44933996               -0.75214736                0.02217995               -0.01342538               -0.41278336                3.27079993               -0.13747587
               8.10108821               -0.09688443               32.87419739                0.44982423               -0.15568106                0.18791100               -0.61945418               -0.23930940                4.47668728                0.02451770
               9.10390434               -0.45584489               32.74507565                0.50933713                0.57665230                0.34821571               -1.21359144               -0.27132766                3.16684244                0.16523777
              10.11262125               -0.80819005               32.59033951                0.63266008                0.91914581                0.50093597               -1.76450175               -0.31793462                0.68016107                0.25187994
              11.12228725               -1.15043494               32.41086622                0.83308777                0.93954832                0.63447706               -2.30430797               -0.23498705               -1.28077885                0.54062396
              12.13141222               -1.48598050               32.21601922                1.00000000                0.94172083                0.78268802               -2.87842960               -0.10374792               -1.67262791                0.91328167
              13.14112167               -1.81915460               32.02803219                1.00000000                0.97094499                0.99993354               -3.42177246               -0.13836027               -1.30276653               -1.39009764
               3.44584178                2.53275419               33.65526362                1.00000000               -0.49362881               -0.62427548                1.96191364               -0.03878565                0.13560117                1.92048084
               4.44090550                2.22188823               33.46269167                0.74115685               -0.40386909               -0.41203177                1.41354343               -0.00457509                0.47038302               -0.66250777
               5.43776440                1.90990287               33.27686674                0.18020086               -0.04494262               -0.18634447                0.92580296               -0.34096520                2.27837222               -2.52990365
               6.44000664                1.59027276               33.12038707                0.00010000                0.47148189               -0.13833132                0.45267692               -1.06840813                4.86202665               -2.28408388
               7.44719404                1.25601617               32.98527141                0.00010000                0.72540486               -0.58960279               -0.04691900               -1.80417353                7.47273670                0.52099475
               8.45451474                0.90499468               32.87947416                0.00010000                0.48249166               -0.27832176               -0.58964310               -2.20600139                9.02808992                1.01478945
               9.45684387                0.54763727               32.77429110                0.00010000                0.11110969                0.12911365               -1.11752265               -1.92252856                7.72989945                1.30550199
              10.45673694                0.19681930               32.64256775                0.15902807                0.09943665                0.26939523               -1.59415902               -1.08938147                5.18350237                2.89871942
              11.45883261               -0.14409017               32.48724158                0.45959232                0.39988182                0.46740278               -2.05888215               -0.44526782                3.21616897                2.76178399
              12.46473457               -0.47815362               32.31674198                0.93177651                0.70397802                0.70045373               -2.51964316               -0.09388643                1.45848200                1.48587402
              13.47291217               -0.80915527               32.12616234                1.00000000                0.81775958                0.96897601               -3.03288580               -0.06933560                0.47901790               -1.55322184
               3.75519502                3.52674137               33.58886592                1.00000000               -0.41480110               -0.57006915                1.72179523               -0.05503240                0.22313491                2.15226751
               4.75104701                3.21825977               33.37995575                0.54892087               -0.35174231               -0.29715122                1.08856029               -0.02417906                0.81540857               -1.32735869
               5.74816018                2.90883211               33.18290195                0.05054523               -0.11986606                0.01055424                0.56292327               -0.53447799                4.09418681               -4.89181792
               6.74864969                2.58895678               33.03966636                0.00010000                0.40261946               -0.55466906                0.29558156               -2.22491934               11.01519360               -1.74781945
               7.75621257                2.24400231               32.98027412                0.00010000                0.83486934               -0.96622317               -0.15315709               -3.53478637               14.47725752                0.74324036
               8.76534708                1.89754914               32.90429323                0.00010000                0.87082883               -0.77020409               -0.56098761               -3.75205181               13.62907247                2.03039905
               9.77362914                1.54673739               32.82601965                0.00010000                0.86069942               -0.36638900               -0.95067513               -3.51227649               13.56583649                3.05208600
              10.78256107                1.19719785               32.74742368                0.05047768                0.73628408               -0.22256412               -1.30639010               -2.36704477               10.55099420                4.88498427
              11.78835482                0.85891311               32.60769735                0.24314375                0.60192607               -0.38035155               -1.58062298               -0.93685439                5.55341451                7.26147999
              12.79459959                0.52802857               32.42845385                0.56558907                0.66917116                0.36357361               -2.06325709               -0.29834055                2.16722855                2.54499543
              13.80173825                0.20022492               32.22038853                0.91879721                0.71386599                1.04684989               -2.70809911               -0.24518615                0.75377351               -1.67463111
               4.06170435                4.52135281               33.51978684                1.00000000               -0.33731659               -0.50056843                1.47219667               -0.05017394                0.03358554                1.92082008
               5.05833118                4.21594521               33.29192273                0.51892753               -0.26632558               -0.18127450                0.78047553                0.00748285                0.29510228               -1.57026468
               6.05637784                3.91011395               33.06926848                0.03614438                0.10034356                0.17729945                0.12223656               -1.16980664                8.86410570               -5.49727952
               7.06033805                3.57917938               33.01287419                0.00010000                0.57640590               -0.71335688                0.02349047               -2.73542554               17.85085687               -0.44697938
               8.06790595                3.23669170               32.96834371                0.00010000                0.82002897               -0.67155732               -0.27241537               -3.50607886               18.89081986                0.46671743
               9.07673863                2.88959060               32.93056292                0.00010000                0.95218386               -0.77611819               -0.55879378               -3.80199567               19.18032357                2.15426635
              10.08694963                2.54030949               32.88945594                0.00010000                1.02408403               -0.74500902               -0.82845538               -3.68228028               18.68742731                3.79849649
              11.09722031                2.19236802               32.83940646                0.05477421                1.11575831               -0.75751321               -1.07481485               -3.19016039               17.57769068                5.23857000
              12.10926480                1.84830280               32.77412863                0.24288602                1.01178221               -1.04820482               -0.99464550               -1.39013606                8.99085243                8.15648635
              13.11745596                1.52911785               32.54991525                0.54915558                0.71754781                0.06292940               -1.64701777               -0.06397651                0.56665451                2.70767210
              14.12361575                1.21178173               32.31523368                0.90277993                0.61597963                1.11571790               -2.39299657               -0.07549884                0.05818216               -1.53692691
               4.36500675                5.51673000               33.44891585                1.00000000               -0.25712253               -0.42507387                1.22783145               -0.04899560                0.02348639                1.80896088
               5.36243553                5.21463428               33.20410362                0.50149948               -0.17384404               -0.08494811                0.47921640                0.02295043                0.18326262               -1.54386678
               6.36152987                4.91237810               32.96242472                0.02854514                0.24639501                0.27052569               -0.24669461               -1.65644098               12.25918143               -4.98764006
               7.36736343                4.57468964               32.95918492                0.00010000                0.70749482               -0.28690324               -0.27095014               -3.55727185               24.42536649               -1.96300403
               8.37567977                4.23057117               32.95869949                0.00010000                0.91629760               -0.53095870               -0.41806190               -4.02676990               24.71905031                0.38782070
               9.38568938                3.88202677               32.95860407                0.00010000                1.07631734               -0.74733350               -0.58237973               -4.24297151               24.79270333                2.26620452
              10.39720611                3.53183721               32.95651592                0.00010000                1.25375861               -0.93240042               -0.74427035               -4.19608573               24.65845652                4.15728532
              11.41076455                3.18204759               32.95054709                0.06173183                1.32980807               -1.14373239               -0.88523747               -3.69883858               23.09618459                6.28212313
              12.42380228                2.83794902               32.91401535                0.25332431                0.95382868               -0.94978422               -0.55008899               -1.68087489               11.09624723                6.23798297
              13.42984112                2.52928716               32.66482276                0.56397447                0.55491165                0.02114183               -1.28449071               -0.02132052                0.24972663                2.16378928
              14.43490051                2.22253928               32.41065225                0.91176095                0.50593841                0.99710500               -2.09924265               -0.03144779                0.01386481               -1.60660090
               4.66491589                6.51285133               33.37774014                1.00000000               -0.17737905               -0.35299828                0.98590674               -0.04831127                0.01942864                1.77689369
               5.66314210                6.21424624               33.11628555                0.48448381               -0.08611163                0.00472594                0.18697757                0.02450169                0.19218695               -1.51536018
               6.66319366                5.91552447               32.85819711                0.02115534                0.39287239                0.35818859               -0.59386557               -2.05417331               15.46547537               -4.78233786
               7.67099955                5.57344131               32.90223060                0.00010000                0.84198831               -0.00318435               -0.54144428               -4.27905291               30.68692652               -2.15855377
               8.68003342                5.22607253               32.94581735                0.00010000                0.98068083               -0.35195713               -0.57153574               -4.67617795               30.75712891                0.16113897
               9.69061316                4.87464393               32.98793033                0.00010000                1.14868404               -0.70589450               -0.62547661               -4.92851924               30.75972944                2.30966856
              10.70300710                4.52166148               33.02782193                0.00010000                1.32592836               -1.03865094               -0.69199829               -4.94886461               30.66341576                4.42216483
              11.71713173                4.16949337               33.06400696                0.06881510                1.27003108               -1.27771246               -0.76123280               -4.34200320               27.84342428                6.52973377
              12.72840772                3.82930711               33.04350434                0.26400131                0.76537793               -0.80291397               -0.13228551               -1.95789520               12.81154800                5.45652490
              13.73243929                3.52954069               32.77550503                0.57955777                0.40374208                0.01838137               -0.93491362               -0.03148925                0.23450522                1.79638381
              14.73648257                3.23172383               32.50288554                0.92138117                0.40432778                0.84098638               -1.81607664               -0.03243332                0.01502396               -1.84387607
               4.96125070                7.50967004               33.30637581                0.98960020               -0.09982769               -0.28296000                0.75426235               -0.04603945                0.02897630                1.76106075
               5.96025243                7.21472880               33.02867217                0.46753788                0.00003156                0.08608906               -0.09262126                0.01750043                0.21934152               -1.47667710
               6.96125133                6.91954187               32.75470296                0.01390280                0.54909382                0.44082194               -0.93178628               -2.38266952               18.60228548               -4.68843605
               7.97123430                6.57462595               32.84455628                0.00010000                0.98511288                0.23299704               -0.79848516               -4.91562867               36.85472757               -2.19113526
               8.98095359                6.22353202               32.93216433                0.00010000                1.01478699               -0.15140383               -0.72172007               -5.35142219               36.83966743                0.08213703
               9.99153004                5.86790888               33.01774950                0.00010000                1.12128924               -0.60892901               -0.67745239               -5.65905877               36.85629816                2.27249757
              11.00337938                5.51106419               33.10128393                0.00010000                1.23744064               -1.03041414               -0.66110450               -5.73055829               36.80732025                4.52259096
              12.01627886                5.15649334               33.18122578                0.07603480                1.06088414               -1.28740466               -0.67171726               -4.84536150               32.24813402                6.89857286
              13.02459706                4.82189074               33.16896385                0.27477435                0.52578833               -0.69946563                0.27878271               -2.07580096               14.14170687                5.09041027
              14.02679462                4.52965479               32.88321806                0.59522925                0.26442467               -0.00582010               -0.59040714               -0.03814869                0.24907608                1.54802132
              15.02988555                4.23935900               32.59265060                0.93107346                0.30909310                0.68805641               -1.53796432               -0.03462529                0.01865483               -2.00662281
               5.25387758                8.50719213               33.23503942                0.97681593               -0.02573068               -0.21022137                0.54246471               -0.04441734                0.04122947                1.76065794
               6.25362028                8.21596802               32.94131199                0.45075149                0.08827636                0.15803393               -0.37006231                0.00951327                0.24948161               -1.44782731
               7.25564311                7.92434090               32.65168155                0.00679814                0.75382700                0.51367928               -1.26550549               -2.63740904               21.70509719               -4.60644159
               8.26869682                7.57810125               32.78681183                0.00010000                1.20394683                0.43054220               -1.04119902               -5.35706762               42.97178965               -2.13532456
               9.27972205                7.22304445               32.91819894                0.00010000                1.06015034                0.01729416               -0.86283448               -5.82230703               42.91082911                0.02965453
              10.28989982                6.86246535               33.04736382                0.00010000                1.00447177               -0.44989953               -0.72712524               -6.13789640               43.02452245                2.10559863
              11.29981148                6.50105320               33.17594946                0.00010000                0.97490624               -0.89663961               -0.63417663               -6.30879841               43.19628806                4.42050397
              12.30939795                6.14374528               33.30335740                0.08340596                0.69593855               -1.20163676               -0.59010086               -5.18135803               36.45494625                7.23521715
              13.31373025                5.81531780               33.29208954                0.28569169                0.24050503               -0.62852343                0.68842298               -2.10056868               15.09424118                4.85362074
              14.31420805                5.52942428               32.98904794                0.61099518                0.13256870               -0.04808676               -0.24724331               -0.04387546                0.26698893                1.40395654
              15.31638163                5.24548496               32.68089971                0.94079508                0.21735790                0.53963894               -1.26179461               -0.03730996                0.02173472               -2.08036878
               5.54281057                9.50546561               33.16376475                0.96405439                0.04833483               -0.13448196                0.33152095               -0.04440108                0.04859976                1.76514954
               6.54329392                9.21788948               32.85407521                0.43405108                0.17796764                0.22789744               -0.64958453                0.00460897                0.29680163               -1.45281570
               7.54636992                8.92981545               32.54925961                0.00010000                1.10477404                0.57509250               -1.59730487               -2.84384616               24.83968746               -4.39686729
               8.56538940                8.58323680               32.73011406                0.00010000                1.68867163                0.42448468               -1.26522951               -5.48633983               49.05423729               -1.84985607
               9.58014336                8.22387791               32.90404339                0.00010000                1.26869849               -0.02517305               -0.98619223               -5.58025919               48.85233946               -0.00003948
              10.59076337                7.85891089               33.07498158                0.00010000                0.78900601               -0.21953907               -0.76309316               -5.79421726               49.14752770                1.68894998
              11.59592348                7.49313139               33.24883317                0.00010000                0.38118618               -0.46743479               -0.59539549               -6.24388734               49.86504824                3.77862837
              12.59838709                7.13246060               33.42867427                0.09096749                0.04916033               -0.87053173               -0.49096298               -5.39691570               40.66736708                7.03871280
              13.59690668                6.80932027               33.41351606                0.29672204               -0.13185692               -0.57812363                1.09734128               -2.12888250               15.81245632                4.52140566
              14.59574995                6.52869305               33.09393328                0.62682753                0.00556608               -0.10472855                0.09732214               -0.05420636                0.31448312                1.37809058
              15.59701800                6.25015178               32.76860005                0.95054685                0.12680497                0.39654166               -0.98402395               -0.04032321                0.03652226               -2.08582311
               5.82814183               10.50450249               33.09255700                0.95129091                0.12207794               -0.05825997                0.11457755               -0.04309015               -0.00093170                1.53135508
               6.82936261               10.22052597               32.76644461                0.41749351                0.26385167                0.30066625               -0.93075415               -0.00204104                0.48475809               -1.29923339
               7.83341887                9.93584275               32.44993692                0.00010000                1.77724768                0.61762336               -1.91862503               -3.16158820               28.21388226               -3.27800940
               8.86490757                9.58659095               32.67805866                0.00010000                2.95119499               -0.43892131               -1.45583280               -4.29808153               55.03356290               -1.06820025
               9.89244277                9.22254099               32.89029757                0.00010000                1.99272117               -0.27479503               -1.07923297               -3.82235494               54.40706918               -0.01114294
              10.90476199                8.85807457               33.09754443                0.00010000                0.44706295                0.01602968               -0.77501561               -3.75791505               54.86476095                0.95297306
              11.90138403                8.49170450               33.31204428                0.00010000               -0.97456154                0.31199158               -0.53407295               -4.50779810               56.58586319                2.25530573
              12.88527076                8.12633465               33.54818212                0.09877308               -1.32319368                0.27965580               -0.35798597               -4.41486535               45.17477099                4.84904190
              13.87492015                7.80375533               33.53045019                0.30796454               -0.64891754               -0.51546748                1.49354220               -2.28409646               16.82197610                3.19245379
              14.87229241                7.52732971               33.19924273                0.64271887               -0.11312245               -0.17288149                0.44796386               -0.07256964                0.56533179                1.24382522
              15.87265770                7.25341579               32.85626914                0.96024000                0.03652947                0.26250035               -0.70255313               -0.04595997               -0.01403366               -1.75067433
               6.10990181               11.50430041               33.01663510                0.97150385                0.20110301               -0.02020799               -0.11918046                0.13623608                0.73231466                1.29464744
               7.11191284               11.22390280               32.68206284                0.70343192                0.35856893                0.33768277               -1.19983382                0.14839779                1.83614244               -1.12401618
               8.11707319               10.94216792               32.36943374                0.49455145                4.04083468                0.63251676               -2.16762987               -4.10678980               31.99933106               -2.31706080
               9.19272953               10.57445837               32.63765719                0.44620182                5.75697262               -1.21325785               -1.58235688               -3.40709942               60.38078637               -0.66767932
              10.23221264               10.21838201               32.87759022                0.43589145                2.68560141               -0.41589865               -1.12821417               -1.78435717               59.18449251               -0.07610319
              11.24644156                9.85923149               33.11194553                0.44980427                0.26473989                0.11569174               -0.75451968               -1.78258219               59.71313341                0.46621026
              12.23750744                9.49937123               33.35540493                0.48680950               -2.42012986                0.76667231               -0.44778152               -2.44654748               62.00473772                1.21833575
              13.19803896                9.13805372               33.63043991                0.55201145               -4.36388740                1.17190703               -0.20042088               -3.74119514               49.76756524                3.05887660
              14.15022969                8.79901092               33.62550824                0.65769009               -2.67004316               -0.47444085                1.80735567               -3.10996124               19.53838744                2.10338751
              15.14463810                8.52523542               33.30139674                0.82645718               -0.31515200               -0.20942910                0.79059026                0.05411240                2.21603826                1.08962202
              16.14392665                8.25540179               32.95030635                0.98319627               -0.07114509                0.19859969               -0.39169387                0.14353106                0.87429762               -1.41807642
               3.31338473                1.63006942               34.75133957                1.00000000               -0.60292249               -0.65444724                2.23193883               -0.11345881               -1.54189970                1.59306881
               4.30735551                1.29971717               34.55423333                0.94845740               -0.55543997               -0.46364782                1.69561337               -0.07250498               -1.70924049               -0.30111020
               5.30227594                0.96805127               34.35393979                0.64739168               -0.64683529               -0.26401232                1.10472304               -0.32646211               -1.37356286               -1.14796826
               6.29441880                0.62866983               34.16386615                0.51031623               -0.89767944               -0.14318098                0.55223502               -0.48979106                0.54181053               -0.15303516
               7.28432235                0.27256710               34.00311831                0.44928845               -0.84686316                0.03053859               -0.01874318               -0.44771285                3.19122349               -0.14177018
               8.27748154               -0.10206096               33.86794529                0.44958675               -0.21519270                0.20118750               -0.63312794               -0.25751891                4.38546391                0.02511110
               9.28001849               -0.48385464               33.73283655                0.50802476                0.57732502                0.36299996               -1.23731040               -0.28832907                3.10148385                0.17125332
              10.28902804               -0.85869543               33.57252688                0.62900041                0.95568259                0.51683077               -1.80187904               -0.34088650                0.63727559                0.26162235
              11.29913214               -1.22259367               33.38756546                0.82528933                0.97842747                0.65241396               -2.35957818               -0.25455368               -1.33859905                0.54529935
              12.30859659               -1.57917958               33.18687159                1.00000000                0.97251865                0.80604210               -2.95355044               -0.11226858               -1.73256621                0.94561185
              13.31858252               -1.93322315               32.99334485                1.00000000                0.99859267                1.03146176               -3.51707151               -0.14176699               -1.34635081               -1.41138107
               3.64260240                2.62352495               34.67495513                1.00000000               -0.49628646               -0.63199725                1.97706932               -0.03940294                0.15446985                1.96304027
               4.63763953                2.29508069               34.47686604                0.72346265               -0.40337066               -0.41151087                1.42140991               -0.00685323                0.52106301               -0.73728738
               5.63453498                1.96541115               34.28616337                0.17446030               -0.01882764               -0.17686110                0.93336438               -0.38629179                2.36725423               -2.64063350
               6.63726298                1.62723802               34.12492061                0.00010000                0.53378144               -0.14960912                0.45356004               -1.18391219                4.94404219               -2.31737496
               7.64521061                1.27287249               33.98477298                0.00010000                0.79271209               -0.62451917               -0.05327843               -1.98800199                7.51866014                0.47749642
               8.65311722                0.89995091               33.87349913                0.00010000                0.51209095               -0.28806116               -0.60597959               -2.43090332                9.06017817                1.01270276
               9.65545243                0.51977536               33.76297656                0.00010000                0.09357346                0.15376042               -1.14608279               -2.12725824                7.80085879                1.34720191
              10.65498869                0.14647288               33.62641236                0.15381043                0.06881269                0.27739547               -1.63747741               -1.21693130                5.29315130                2.96782182
              11.65682869               -0.21606953               33.46634508                0.44795440                0.38999741                0.47445356               -2.12070033               -0.49878018                3.33779928                2.88615170
              12.66278864               -0.57111916               33.29112373                0.90789562                0.71898613                0.72242737               -2.60274958               -0.10681857                1.55740832                1.56921639
              13.67120841               -0.92290853               33.09532432                1.00000000                0.84197691                1.00553841               -3.13246796               -0.07300748                0.55240582               -1.60715308
               3.96948519                3.61742948               34.60611943                1.00000000               -0.41529476               -0.57856613                1.72895845               -0.05644786                0.21949266                2.19249934
               4.96533224                3.29148695               34.39082367                0.53435384               -0.35462091               -0.28943003                1.08488881               -0.02795221                0.86754968               -1.42264814
               5.96239277                2.96451405               34.18850173                0.04713216               -0.10265085                0.03948084                0.55644771               -0.61741872                4.33428135               -5.13916854
               6.96327923                2.62567765               34.04265097                0.00010000                0.47283205               -0.58972656                0.30116215               -2.44575002               11.29271815               -1.88289530
               7.97184941                2.26007672               33.97865069                0.00010000                0.93406884               -1.02668629               -0.17279747               -3.86189502               14.68230036                0.65958191
               8.98196060                1.89217781               33.89854718                0.00010000                0.95509719               -0.80448628               -0.58980112               -4.12228024               13.87252099                2.01411516
               9.99095136                1.51922057               33.81633977                0.00010000                0.92868520               -0.35869562               -0.98782613               -3.88961044               13.84173162                3.10312396
              11.00053431                1.14685248               33.73409950                0.04743158                0.78986144               -0.20366605               -1.36124365               -2.65094481               10.89792707                4.99182819
              12.00674859                0.78689540               33.59157422                0.23592463                0.63824526               -0.42286676               -1.64392463               -1.03866569                5.84943564                7.56073454
              13.01329921                0.43526896               33.40738063                0.54930251                0.69762561                0.37409272               -2.14769759               -0.32344738                2.27587268                2.66384120
              14.02070110                0.08688762               33.19276843                0.90660300                0.74018861                1.10871526               -2.81170426               -0.26673619                0.78028726               -1.75937856
               4.29335849                4.61195363               34.53450633                1.00000000               -0.33625754               -0.50860112                1.47186098               -0.05064481                0.03312219                1.95848965
               5.28999591                4.28929209               34.29967124                0.50543324               -0.26812861               -0.16694003                0.76807020                0.00883261                0.31233856               -1.65109894
               6.28799592                3.96620077               34.07038582                0.03326956                0.13947017                0.21817441                0.10072922               -1.29599919                9.17636998               -5.74191651
               7.29278532                3.61544349               34.01294399                0.00010000                0.67383142               -0.73879984               -0.01074310               -2.99379905               18.35232077               -0.64459978
               8.30147254                3.25233876               33.96546057                0.00010000                0.93712257               -0.70780133               -0.30596995               -3.82190421               19.30626722                0.36492763
               9.31152777                2.88386119               33.92478742                0.00010000                1.07565041               -0.81390715               -0.59847904               -4.15531899               19.61656674                2.11404242
              10.32298555                2.51260144               33.88096843                0.00010000                1.13835981               -0.77126642               -0.87158587               -4.03298157               19.15483730                3.80922346
              11.33429496                2.14239956               33.82846578                0.05172857                1.23266699               -0.75347428               -1.11597667               -3.53504257               18.23003685                5.29399825
              12.34763889                1.77547313               33.76394969                0.23595684                1.10162510               -1.12463549               -1.04627506               -1.55465656                9.45335830                8.43238240
              13.35632747                1.43636269               33.53313909                0.53405636                0.74987373                0.06217533               -1.71050409               -0.06984493                0.61921858                2.78016742
              14.36263637                1.09926578               33.29088461                0.89161349                0.63089014                1.19031857               -2.47714805               -0.07966907                0.06168388               -1.62461272
               4.61379536                5.60725745               34.46117040                1.00000000               -0.25336113               -0.43297816                1.21861882               -0.05027276                0.02235854                1.84846755
               5.61126175                5.28814815               34.20880220                0.48847644               -0.17369865               -0.06686129                0.46049555                0.02331598                0.19500556               -1.61257744
               6.61032139                4.96887754               33.95981270                0.02588068                0.30017498                0.31015272               -0.27670021               -1.81771562               12.63198464               -5.18138527
               7.61726525                4.61090165               33.95625043                0.00010000                0.83361190               -0.28721832               -0.31761732               -3.87966595               25.10034468               -2.14745955
               8.62699363                4.24592069               33.95428558                0.00010000                1.06631424               -0.55855341               -0.46679859               -4.37806220               25.33778435                0.27198899
               9.63859154                3.87589967               33.95254016                0.00010000                1.23798602               -0.78956472               -0.63261513               -4.61113811               25.41557742                2.20474939
              10.65175335                3.50379524               33.94884444                0.00010000                1.41851158               -0.97615596               -0.79223254               -4.56099997               25.30661053                4.13376791
              11.66696177                3.13178300               33.94151683                0.05852771                1.49694869               -1.18556093               -0.92299945               -4.08193598               24.00395814                6.27898541
              12.68169232                2.76440269               33.90835116                0.24615215                1.05739480               -1.01485043               -0.58929510               -1.88683091               11.71932893                6.42570403
              13.68810967                2.43651247               33.65177500                0.54850525                0.58046106                0.01814548               -1.32988021               -0.02644257                0.29627514                2.20187185
              14.69330155                2.11069399               33.38933806                0.90034644                0.51918799                1.05537322               -2.16656519               -0.03020073                0.01653582               -1.70420440
               4.93057164                6.60329406               34.38752434                0.99075691               -0.17294917               -0.36070054                0.97811670               -0.04785464                0.02802837                1.82607341
               5.92884215                6.28795486               34.11805661                0.47190791               -0.08417657                0.02111259                0.16756218                0.01957890                0.20525896               -1.57335181
               6.92888811                5.97240382               33.85207853                0.01868324                0.46533511                0.39336801               -0.63181076               -2.24735230               15.90468173               -4.96215130
               7.93814885                5.60969912               33.89654776                0.00010000                1.00125863                0.00233206               -0.59714394               -4.65276414               31.52075275               -2.32222364
               8.94891328                5.24116769               33.93981157                0.00010000                1.16408047               -0.37720153               -0.63176073               -5.06939990               31.55572760                0.04528806
               9.96143046                4.86806989               33.98137761                0.00010000                1.34844733               -0.75401741               -0.68696045               -5.32952469               31.55507153                2.23457228
              10.97588223                4.49307832               34.02062455                0.00010000                1.53091684               -1.09912273               -0.74880866               -5.34004168               31.46652365                4.37125708
              11.99204879                4.11868834               34.05618707                0.06547156                1.46452886               -1.33574805               -0.80338065               -4.76419773               29.00681591                6.47514466
              13.00517280                3.75517612               34.04205919                0.25656794                0.87292563               -0.85526712               -0.16276793               -2.19525308               13.61817097                5.62799292
              14.00950731                3.43672560               33.76599759                0.56365449                0.42482512                0.01476793               -0.97078814               -0.03637206                0.27929912                1.82753165
              15.01366931                3.12037324               33.48444833                0.90969885                0.41619981                0.88506129               -1.87450247               -0.03092390                0.01711442               -1.94564267
               5.24351667                7.60004344               34.31391237                0.97829321               -0.09730958               -0.28832367                0.76231123               -0.04585710                0.04071323                1.83242698
               6.24254357                7.28857040               34.02763431                0.45543932                0.00567108                0.09647933               -0.11624318                0.01165588                0.23284752               -1.53508983
               7.24363009                6.97674490               33.74516252                0.01161311                0.64512645                0.47039975               -0.97878879               -2.59861477               19.11206445               -4.86539262
               8.25544610                6.61094829               33.83626332                0.00010000                1.18023857                0.23906783               -0.86235103               -5.33282131               37.84543468               -2.34220045
               9.26723486                6.23837666               33.92460121                0.00010000                1.23221545               -0.17822139               -0.79291977               -5.78424747               37.80600604               -0.02805923
              10.28009041                5.86081932               34.01061013                0.00010000                1.35496023               -0.66356802               -0.75172798               -6.09174168               37.80965042                2.19323996
              11.29433407                5.48181278               34.09431764                0.00010000                1.47448041               -1.10044787               -0.73224476               -6.14489932               37.74922655                4.45771253
              12.30958002                5.10506804               34.17421030                0.07253598                1.27079691               -1.35154322               -0.72941739               -5.28463162               33.67433169                6.82159128
              13.31975000                4.74729734               34.17165458                0.26707995                0.63025426               -0.73952345                0.25449556               -2.32684577               15.14843649                5.26051695
              14.32218510                4.43680783               33.87717734                0.57888972                0.28188913               -0.00788066               -0.62110660               -0.04292267                0.29339953                1.57972980
              15.32538779                4.12839522               33.57701729                0.91908195                0.32026828                0.72288576               -1.59171477               -0.03316552                0.02092583               -2.10889294
               5.55260058                8.59752759               34.24052704                0.96583977               -0.02267691               -0.21361754                0.55334602               -0.04542906                0.04180949                1.83727309
               6.55237381                8.28988445               33.93745377                0.43909456                0.09686744                0.16632587               -0.39970729                0.00810048                0.26366462               -1.50848630
               7.55453792                7.98181182               33.63875862                0.00469888                0.87434288                0.53888055               -1.32218162               -2.86906775               22.29569573               -4.78399574
               8.56986066                7.61448048               33.77604921                0.00010000                1.44096867                0.43297916               -1.11361961               -5.80489949               44.12271892               -2.27266610
               9.58335730                7.23760326               33.90916786                0.00010000                1.31494182               -0.01845302               -0.94516824               -6.27798227               44.03841403               -0.06941047
              10.59615950                6.85479853               34.03965131                0.00010000                1.26891133               -0.51181140               -0.81602871               -6.57794635               44.12759615                2.03223684
              11.60873552                6.47106937               34.16914631                0.00010000                1.23560498               -0.96836768               -0.72543134               -6.72245148               44.26875693                4.35736370
              12.62087160                6.09165748               34.29699831                0.07974394                0.90802860               -1.26730638               -0.67652652               -5.61036545               38.14759432                7.16146546
              13.62689610                5.74038565               34.29889732                0.27773886                0.33396891               -0.65628078                0.66921078               -2.35150420               16.30835930                5.02574658
              14.62755098                5.43656799               33.98645454                0.59421702                0.14675584               -0.04788176               -0.27421470               -0.04858367                0.31160818                1.43925473
              15.62983121                5.13483096               33.66804227                0.92851327                0.22802348                0.56747327               -1.31265961               -0.03617524                0.02443105               -2.18030693
               5.85789436                9.59577109               34.16709718                0.95341626                0.05269911               -0.13669729                0.33671672               -0.04438229                0.05078298                1.83467436
               6.85842135                9.29189692               33.84741708                0.42283916                0.18791727                0.23793003               -0.68297339                0.00570338                0.31627754               -1.51394461
               7.86165271                8.98752251               33.53296249                0.00010000                1.25676556                0.59843993               -1.66416964               -3.09268598               25.52158281               -4.56900067
               8.88355667                8.61960787               33.71706863                0.00010000                1.98522265                0.40627318               -1.34624397               -5.94919786               50.37432690               -1.96422241
               9.90135716                8.23800760               33.89372546                0.00010000                1.57543567               -0.09005319               -1.07895507               -6.00829890               50.13843328               -0.07839844
              10.91506538                7.85058309               34.06683321                0.00010000                1.08344637               -0.29174847               -0.86673935               -6.18175563               50.39598353                1.63162596
              11.92302609                7.46244543               34.24229307                0.00010000                0.64955230               -0.52742838               -0.71067616               -6.60160539               51.06767829                3.73069326
              12.92805642                7.07972191               34.42309556                0.08716457                0.23916606               -0.92237854               -0.61794152               -5.78100671               42.62247728                6.98836374
              13.92780941                6.73417173               34.42443842                0.28853612               -0.06441496               -0.59381226                1.08391963               -2.37060068               17.22910151                4.68912517
              14.92676813                6.43585019               34.09480156                0.60959958                0.01644669               -0.10248988                0.07392389               -0.05947117                0.36091934                1.42001798
              15.92813834                6.13974469               33.75853133                0.93795477                0.13702185                0.41852901               -1.03274938               -0.03959004                0.04021019               -2.18087129
               6.15946127               10.59479364               34.09371865                0.94096833                0.12751820               -0.05970270                0.11826384               -0.04393274               -0.00246597                1.59039580
               7.16073645               10.29464305               33.75694136                0.40670858                0.27559896                0.31283173               -0.97057977               -0.00194475                0.51419956               -1.35529074
               8.16497325                9.99378062               33.43038816                0.00010000                1.98275828                0.63935214               -1.99358495               -3.44464944               29.00580878               -3.40635029
               9.20039162                9.62260594               33.66307253                0.00010000                3.36214233               -0.54972445               -1.54367268               -4.67100848               56.53226928               -1.13662262
              10.23221610                9.23580220               33.87901128                0.00010000                2.38474684               -0.37847468               -1.17958852               -4.11609842               55.84711126               -0.05637318
              11.24808656                8.84896356               34.08921997                0.00010000                0.76742511               -0.06440341               -0.88987319               -3.99084129               56.25384899                0.92087286
              12.24756460                8.46052080               34.30601152                0.00010000               -0.72806957                0.26279485               -0.67007606               -4.72556976               57.92149075                2.23036344
              13.23352517                8.07320991               34.54370519                0.09482834               -1.21044010                0.29377876               -0.53134121               -4.66674992               47.37833329                4.83002120
              14.22335580                7.72850941               34.54535979                0.29949337               -0.63682836               -0.51745333                1.48575900               -2.51377839               18.42845344                3.31399164
              15.22078860                7.43451819               34.20363680                0.62504883               -0.10526847               -0.16920477                0.42863617               -0.07946004                0.62202703                1.28701580
              16.22125043                7.14320154               33.84902658                0.94737054                0.04618310                0.27971298               -0.74915780               -0.04584513               -0.01184773               -1.82678961
               6.45731689               11.59457704               34.01544344                0.96644564                0.20785957               -0.02166057               -0.11856634                0.14321359                0.75741239                1.34400474
               7.45939549               11.29815356               33.66984716                0.69819228                0.37399695                0.35105032               -1.24458837                0.15252906                1.92071679               -1.17256107
               8.46479683               11.00030955               33.34737975                0.49376765                4.43597123                0.65289388               -2.24597249               -4.49465068               32.92666080               -2.40738501
               9.54811491               10.60861338               33.62139715                0.44639283                6.39403707               -1.39925566               -1.67233765               -3.72124334               62.04587300               -0.70952231
              10.59267757               10.23043810               33.86580453                0.43603697                3.12075202               -0.53640951               -1.23086853               -1.91977057               60.76200456               -0.10453761
              11.61052995                9.84929503               34.10381026                0.44959812                0.57953881                0.03314642               -0.87292742               -1.89249941               61.23198032                0.44501272
              12.60426835                9.46770133               34.35019975                0.48595275               -2.18985666                0.71805258               -0.59106784               -2.51450231               63.46921690                1.20134602
              13.56673282                9.08559749               34.62743991                0.54999328               -4.40213943                1.23875776               -0.39489954               -3.87316783               52.15858233                3.04676151
              14.51622556                8.72382266               34.64357392                0.65336122               -2.81230123               -0.46867447                1.80307489               -3.36959327               21.31360885                2.18589810
              15.51048679                8.43246610               34.30923967                0.81747813               -0.31854059               -0.20520921                0.77567100                0.04563375                2.33925492                1.13045219
              16.50985475                8.14533895               33.94619020                0.97666550               -0.06320467                0.21374077               -0.43493503                0.14771651                0.91231404               -1.47713881
               3.49761330                1.72385715               35.77377285                1.00000000               -0.61111425               -0.66220092                2.25583532               -0.11483226               -1.56973232                1.63357970
               4.49150216                1.37521277               35.57127564                0.93830912               -0.56766835               -0.46606324                1.71332598               -0.07359871               -1.76563999               -0.34918016
               5.48625994                1.02515247               35.36502826                0.64347940               -0.68566546               -0.26242158                1.11264872               -0.35345223               -1.43883781               -1.15733775
               6.47778885                0.66655377               35.16939705                0.50927626               -0.97483236               -0.14133324                0.55266290               -0.52623963                0.48805417               -0.15833422
               7.46676329                0.28964962               35.00289745                0.44923095               -0.93548030                0.03840940               -0.02781078               -0.47963852                3.11241134               -0.14579373
               8.45907924               -0.10748989               34.86153483                0.44937423               -0.27054323                0.21367288               -0.65225592               -0.27392506                4.29793765                0.02609033
               9.46135242               -0.51269985               34.72032944                0.50665712                0.57793062                0.37779343               -1.26829609               -0.30239516                3.04096055                0.17754374
              10.47063786               -0.91072857               34.55430193                0.62531219                0.99090714                0.53316970               -1.84678180               -0.36005953                0.59765252                0.27127316
              11.48117057               -1.29708820               34.36367465                0.81741822                1.01718213                0.67123015               -2.42087879               -0.27153286               -1.39468564                0.54819180
              12.49098150               -1.67557255               34.15694821                1.00000000                1.00387760                0.82942109               -3.03185960               -0.12044673               -1.79136998                0.97419499
              13.50124812               -2.05134115               33.95769076                1.00000000                1.02666188                1.06192411               -3.61326269               -0.14576059               -1.39003640               -1.43256078
               3.84510935                2.71723514               35.69480501                1.00000000               -0.49908410               -0.64084967                1.99335918               -0.04014483                0.17404854                2.00574694
               4.84011851                2.37055214               35.49111987                0.70566656               -0.40272183               -0.41055837                1.42951540               -0.00966715                0.57598133               -0.81714720
               5.83705492                2.02252825               35.29553403                0.16864345                0.00796842               -0.16630886                0.94068483               -0.43265702                2.46074650               -2.75614818
               6.84027788                1.66514043               35.12945827                0.00010000                0.59669067               -0.16391353                0.45337804               -1.29641482                5.02748094               -2.34804236
               7.84898873                1.29003371               34.98420584                0.00010000                0.86184224               -0.65716247               -0.06123342               -2.16472579                7.56559274                0.42681201
               8.85751472                0.89464684               34.86735457                0.00010000                0.54795431               -0.29834836               -0.62413505               -2.64632221                9.09385199                1.00394541
               9.85994782                0.49107809               34.75136944                0.00010000                0.08583578                0.17539214               -1.17697646               -2.32423414                7.87523810                1.38461435
              10.85923144                0.09460312               34.60981820                0.14849579                0.04647053                0.28547859               -1.68227754               -1.34033472                5.40588710                3.03094465
              11.86087723               -0.29037590               34.44482757                0.43617810                0.38360316                0.48057021               -2.18299392               -0.54948133                3.46009813                3.00915928
              12.86690350               -0.66727834               34.26468699                0.88402443                0.73409415                0.74312947               -2.68347562               -0.12023356                1.65780314                1.65106926
              13.87555911               -1.04072191               34.06351298                1.00000000                0.86556053                1.04091006               -3.22770282               -0.07834301                0.62932350               -1.66176886
               4.19017640                3.71104015               35.62344509                1.00000000               -0.41606967               -0.58817537                1.73754732               -0.05747348                0.21569793                2.23273363
               5.18601570                3.36700161               35.40165352                0.51971886               -0.35789487               -0.28037227                1.08067401               -0.03169530                0.92338144               -1.52261786
               6.18301850                3.02182629               35.19403090                0.04366973               -0.08303027                0.07182038                0.54912845               -0.70742680                4.58966063               -5.39847159
               7.18435510                2.66327550               35.04568960                0.00010000                0.54719316               -0.62262562                0.30611048               -2.66440415               11.57472161               -2.03619925
               8.19396236                2.27650637               34.97681817                0.00010000                1.03766629               -1.08391705               -0.19534568               -4.17666074               14.88202980                0.56048592
               9.20510842                1.88654315               34.89249721                0.00010000                1.04745479               -0.83841862               -0.62247704               -4.48254965               14.12103072                1.98397774
              10.21491146                1.49080800               34.80626313                0.00010000                1.00883657               -0.35444005               -1.02988661               -4.25709722               14.12071551                3.14539192
              11.22528515                1.09498100               34.72019881                0.04433029                0.85754715               -0.18862360               -1.42077885               -2.93382222               11.24983368                5.09974417
              12.23206240                0.71252320               34.57481885                0.22862888                0.68188392               -0.47252959               -1.70656047               -1.14547660                6.15101836                7.86332317
              13.23892283                0.33929004               34.38549990                0.53305297                0.72529942                0.38025828               -2.22592290               -0.35221223                2.38375715                2.79133291
              14.24656839               -0.03052295               34.16415444                0.89449396                0.76455595                1.17208756               -2.90758710               -0.29133473                0.80609286               -1.83614927
               4.53203698                4.70547163               35.54922406                1.00000000               -0.33385092               -0.51794010                1.46735409               -0.05199703                0.03169109                1.99313280
               5.52869847                4.36494469               35.30728413                0.49181513               -0.27022439               -0.15021245                0.75448829                0.00853362                0.33036533               -1.73239662
               6.52663249                4.02396466               35.07128306                0.03034321                0.18056267                0.26156955                0.07837433               -1.42769713                9.48922682               -5.99736909
               7.53230972                3.65268792               35.01265933                0.00010000                0.77776875               -0.75694114               -0.04776716               -3.25334760               18.86097191               -0.87011233
               8.54218786                3.26835537               34.96222431                0.00010000                1.06261903               -0.74232122               -0.34347303               -4.13130442               19.73355637                0.24589327
               9.55356210                2.87787847               34.91859334                0.00010000                1.20900776               -0.85057864               -0.64306445               -4.50162183               20.06383935                2.06012203
              10.56636802                2.48398929               34.87202422                0.00010000                1.26388455               -0.79757732               -0.92020278               -4.37988139               19.63860371                3.81237491
              11.57883979                2.09083065               34.81708693                0.04859619                1.36453172               -0.75374991               -1.16244745               -3.88819718               18.89569237                5.35599396
              12.59365865                1.70017350               34.75320312                0.22893007                1.20328063               -1.20848001               -1.10679890               -1.73177726                9.92346333                8.71696226
              13.60290541                1.34032682               34.51570517                0.51895200                0.78498652                0.05880288               -1.77674785               -0.07983829                0.67585935                2.86828472
              14.60935838                0.98271984               34.26569072                0.88046924                0.64529789                1.27072067               -2.56077704               -0.08386242                0.06421263               -1.69837362
               4.87019033                5.70068135               35.47328822                0.99125821               -0.24969826               -0.44203991                1.21260367               -0.04965293                0.03089234                1.89497623
               5.86769334                5.36399736               35.21331353                0.47537696               -0.17344976               -0.04988011                0.44367442                0.01854752                0.20989973               -1.68100629
               6.86672133                5.02705768               34.95689071                0.02315297                0.36020456                0.34834764               -0.30907124               -1.98485149               13.00515600               -5.38609750
               7.87489744                4.64813667               34.95283258                0.00010000                0.97121982               -0.28519821               -0.36784785               -4.20129509               25.78287387               -2.34545556
               8.88614573                4.26165994               34.94936351                0.00010000                1.22723160               -0.58463546               -0.52012975               -4.72374179               25.97266632                0.13959789
               9.89944207                3.86953157               34.94595177                0.00010000                1.41079617               -0.83065348               -0.68784719               -4.97319878               26.05728465                2.12922181
              10.91436165                3.47485645               34.94067127                0.00010000                1.59474621               -1.01879324               -0.84519188               -4.92327413               25.97997312                4.10047698
              11.93133699                3.07990600               34.93208710                0.05526288                1.67845161               -1.22639263               -0.96579046               -4.47546185               24.93353222                6.27229542
              12.94793068                2.68835360               34.90222945                0.23888052                1.17213677               -1.08049732               -0.64129556               -2.10689653               12.35716446                6.62191782
              13.95477973                2.34046610               34.63822515                0.53300526                0.60872108                0.01810816               -1.38321404               -0.03657066                0.35075910                2.25006046
              14.96010510                1.99489147               34.36732094                0.88897181                0.53253781                1.12059555               -2.23838241               -0.02921373                0.01921369               -1.79458702
               5.20441191                6.69663083               35.39730247                0.97902809               -0.17188189               -0.36827376                0.98949450               -0.04683614                0.04069139                1.89891319
               6.20269309                6.36394709               35.11963680                0.45925616               -0.08078817                0.03162423                0.14929302                0.01333307                0.22002471               -1.63678860
               7.20279614                6.03093161               34.84556089                0.01615387                0.54942358                0.42481223               -0.67366837               -2.44104223               16.34687021               -5.15562556
               8.21368156                5.64698396               34.89028772                0.00010000                1.17609926                0.00719115               -0.65698118               -5.02310414               32.36571495               -2.49827355
               9.22631813                5.25666266               34.93318213                0.00010000                1.36100295               -0.40226962               -0.69659455               -5.45686951               32.37346252               -0.08513981
              10.24090162                4.86126540               34.97419112                0.00010000                1.56049914               -0.80157956               -0.75273140               -5.72423413               32.37397888                2.14444211
              11.25752811                4.46361342               35.01284575                0.00010000                1.74658942               -1.15798871               -0.80897783               -5.72802569               32.30105117                4.30595379
              12.27583341                4.06630280               35.04793935                0.06204360                1.67162581               -1.38960365               -0.84737469               -5.19791496               30.20234220                6.40770848
              13.29096063                3.67856356               35.04024898                0.24903547                0.99013593               -0.90453269               -0.20575207               -2.44728680               14.44733324                5.80529106
              14.29563612                3.34068899               34.75608927                0.54772314                0.44813704                0.01631678               -1.01485685               -0.04558136                0.33344956                1.86221760
              15.29992337                3.00513175               34.46539549                0.89803241                0.42872430                0.93478690               -1.93873246               -0.02977026                0.01963188               -2.04650231
               5.53462108                7.69331588               35.32162204                0.96689200               -0.09618562               -0.29390231                0.77928055               -0.04618312                0.04313671                1.91555640
               6.53365922                7.36462984               35.02634731                0.44323666                0.01212707                0.10342186               -0.13955796                0.01034779                0.24684930               -1.59842426
               7.53486362                7.03555393               34.73512719                0.00928459                0.75225405                0.49647067               -1.03031445               -2.80919485               19.63113720               -5.05733381
               8.54870431                6.64828050               34.82730926                0.00010000                1.39316363                0.24293313               -0.93062135               -5.74394911               38.85198338               -2.50556371
               9.56272689                6.25361455               34.91630594                0.00010000                1.46511584               -0.20653291               -0.86831748               -6.21052064               38.79373472               -0.15245730
              10.57800662                5.85349998               35.00271494                0.00010000                1.60184223               -0.71891962               -0.82897438               -6.51730959               38.78880403                2.09770692
              11.59476374                5.45169668               35.08663904                0.00010000                1.72109667               -1.16941886               -0.80391732               -6.55372731               38.72470588                4.37316509
              12.61242856                5.05211393               35.16663743                0.06897558                1.49175089               -1.41067311               -0.78384825               -5.73341563               35.14424263                6.72024726
              13.62459876                4.67026295               35.17405376                0.25931306                0.74356738               -0.77573333                0.21918424               -2.59204581               16.18840042                5.43490500
              14.62729990                4.34079243               34.87079593                0.56253235                0.30127047               -0.00519143               -0.65890038               -0.05083037                0.34701074                1.61190403
              15.63062417                4.01358720               34.56081630                0.90713718                0.33242634                0.76165140               -1.65143024               -0.03195177                0.02364966               -2.21334468
               5.86086031                8.69075278               35.24610634                0.95478333               -0.01983196               -0.21741917                0.56384952               -0.04545836                0.04347522                1.91441994
               6.86066199                8.36601553               34.93331784                0.42732469                0.10506392                0.17465780               -0.42781563                0.01015893                0.28149915               -1.57149339
               7.86296159                8.04086103               34.62523792                0.00256494                1.00399805                0.56259894               -1.38369342               -3.09432485               22.89980109               -4.97525153
               8.88074195                7.65184262               34.76453944                0.00010000                1.69633192                0.43242645               -1.19041978               -6.24601816               45.29425687               -2.42214143
               9.89688823                7.25253200               34.89929557                0.00010000                1.58656731               -0.05740130               -1.03106776               -6.72675347               45.18890135               -0.18198956
              10.91247330                6.84688701               35.03104325                0.00010000                1.54756956               -0.57626198               -0.90633031               -7.00990760               45.25593517                1.94210202
              11.92783962                6.44022504               35.16144083                0.00010000                1.50627619               -1.04083121               -0.81436447               -7.12733570               45.37161898                4.27027044
              12.94259882                6.03808934               35.28982687                0.07604169                1.13007930               -1.32964686               -0.75320571               -6.04567077               39.89734976                7.05067218
              13.95044121                5.66304889               35.30547376                0.26969509                0.43482174               -0.68113208                0.64111971               -2.61601086               17.57211975                5.20236269
              14.95129526                5.34058516               34.98356365                0.57740870                0.16267900               -0.04406390               -0.30723847               -0.05542884                0.36536000                1.47442391
              15.95369479                5.02036478               34.65464652                0.91628236                0.23995276                0.59814220               -1.36966272               -0.03511258                0.02767003               -2.28370629
               6.18318642                9.68896749               35.17049909                0.94265089                0.05677391               -0.13943166                0.34442554               -0.04511034                0.05259769                1.90797958
               7.18375416                9.36812300               34.84041574                0.41152957                0.19818058                0.24872752               -0.71782227                0.00767594                0.33881099               -1.57916283
               8.18715003                9.04680590               34.51597621                0.00010000                1.41794022                0.62187313               -1.73493621               -3.33758449               26.22034497               -4.75264996
               9.21211297                8.65692903               34.70318918                0.00010000                2.29987013                0.38436756               -1.43159931               -6.40757514               51.71897625               -2.08916745
              10.23314744                8.25246652               34.88246429                0.00010000                1.90012299               -0.15987720               -1.17470901               -6.43024818               51.44849917               -0.16801736
              11.25011543                7.84197474               35.05764680                0.00010000                1.39336299               -0.36860126               -0.97049672               -6.56105210               51.66641490                1.55962898
              12.26101470                7.43088005               35.23461965                0.00010000                0.92879332               -0.59099771               -0.82129718               -6.94823759               52.29103072                3.65890550
              13.26869129                7.02552099               35.41631544                0.08330939                0.43840095               -0.97493071               -0.73092714               -6.16747084               44.65128745                6.89131063
              14.26978272                6.65664030               35.43519445                0.28024329                0.00920711               -0.60746173                1.06281983               -2.62467132               18.71876592                4.86210962
              15.26887544                6.33991115               35.09541176                0.59235693                0.02899762               -0.09766213                0.04520974               -0.06596787                0.41616425                1.46233687
              16.27036267                6.02555005               34.74794507                0.92542125                0.14872333                0.44281705               -1.08785365               -0.03879045                0.04450496               -2.27978640
               6.50164710               10.68796415               35.09492228                0.93056491                0.13300038               -0.06182780                0.12317107               -0.04459805               -0.00388292                1.65263724
               7.50297710               10.37099008               34.74703302                0.39584046                0.28783889                0.32584904               -1.01196434               -0.00144823                0.54768281               -1.41477344
               8.50740387               10.05329849               34.41006523                0.00010000                2.19763667                0.66155671               -2.07298938               -3.72768671               29.81764277               -3.54303869
               9.54692983                9.65952997               34.64718521                0.00010000                3.79168376               -0.66551732               -1.63585513               -5.04273958               58.05976569               -1.21183722
              10.58323755                9.24933446               34.86670580                0.00010000                2.79544487               -0.48808895               -1.28282329               -4.40614002               57.31183492               -0.10809916
              11.60283873                8.83951498               35.07974696                0.00010000                1.10455369               -0.15117820               -1.00431365               -4.21794257               57.66091338                0.88003423
              12.60532862                8.42840509               35.29864275                0.00010000               -0.46747878                0.20708099               -0.80030813               -4.93384181               59.26169399                2.18966954
              13.59348915                8.01859072               35.53755530                0.09080903               -1.08855030                0.29992659               -0.69044726               -4.91801432               49.67114317                4.77339059
              14.58355762                7.65089966               35.56016537                0.29094327               -0.62114988               -0.51698461                1.47178263               -2.75197084               20.13596768                3.43965736
              15.58106616                7.33863192               35.20781546                0.60736161               -0.09582144               -0.16362115                0.40441175               -0.08735251                0.68764462                1.33121273
              16.58164119                7.02922112               34.84128598                0.93455347                0.05750304                0.29908614               -0.80255465               -0.04561972               -0.00906337               -1.90607409
               6.81624260               11.68773094               35.01426377                0.96135057                0.21482565               -0.02332159               -0.11706713                0.15045517                0.78395989                1.39665391
               7.81839086               11.37463998               34.65717107                0.69287901                0.39069025                0.36498975               -1.29168576                0.15668138                2.01284987               -1.22441610
               8.82405641               11.06003704               34.32451429                0.49295470                4.84156725                0.67385507               -2.32918774               -4.88581128               33.87979655               -2.50389580
               9.91522221               10.64361868               34.60421043                0.44656806                7.04916080               -1.59112925               -1.76751502               -4.03737736               63.74166332               -0.75426022
              10.96503963               10.24270474               34.85297285                0.43618315                3.57318678               -0.66297128               -1.33724488               -2.05316724               62.36458112               -0.13575397
              11.98668594                9.83895118               35.09448699                0.44937082                0.91112479               -0.05638041               -0.99167941               -1.99943246               62.76760382                0.41950558
              12.98326212                9.43502167               35.34358358                0.48508694               -1.94247511                0.66165807               -0.72927843               -2.57823290               64.93020140                1.17551444
              13.94783644                9.03151952               35.62254192                0.54793762               -4.42800088                1.29287992               -0.57686115               -4.00132444               54.64487577                3.00818734
              14.89470210                8.64630061               35.66156974                0.64900673               -2.95147608               -0.45990456                1.79186878               -3.62959075               23.20615851                2.27199052
              15.88880692                8.33663873               35.31691016                0.80850321               -0.32151217               -0.19931871                0.75562195                0.03563412                2.47374814                1.17266798
              16.88827186                8.03153177               34.94160765                0.97016311               -0.05350575                0.23106472               -0.48551969                0.15237145                0.95233041               -1.53851264
               3.68698450                1.82067669               36.79645628                1.00000000               -0.61972008               -0.67090429                2.28204358               -0.11624353               -1.59830207                1.67532180
               4.68078730                1.45304511               36.58849985                0.92808333               -0.58033648               -0.46852427                1.73179418               -0.07490228               -1.82446132               -0.40130769
               5.67537777                1.08389297               36.37619276                0.63950963               -0.72383027               -0.26074303                1.11939610               -0.37984554               -1.50722143               -1.16448293
               6.66631070                0.70538071               36.17491940                0.50819489               -1.04724922               -0.13960853                0.54991956               -0.55991767                0.43201473               -0.16406371
               7.65443279                0.30703443               36.00256209                0.44915703               -1.01511987                0.04535661               -0.04229332               -0.50862886                3.03217010               -0.14986949
               8.64600830               -0.11317863               35.85490017                0.44916108               -0.31810911                0.22460699               -0.67886462               -0.28867328                4.21115507                0.02708764
               9.64807061               -0.54238376               35.70747063                0.50525907                0.58137911                0.39177220               -1.30754204               -0.31389726                2.98304578                0.18340897
              10.65763588               -0.96430249               35.53559124                0.62157587                1.02607743                0.54973923               -1.89856692               -0.37635359                0.56128654                0.28037649
              11.66859215               -1.37393568               35.33914788                0.80948314                1.05586032                0.69051285               -2.48570225               -0.28656712               -1.44798999                0.54908790
              12.67875309               -1.77517324               35.12623439                1.00000000                1.03522675                0.85237725               -3.11035196               -0.12853491               -1.84856786                0.99994361
              13.68929669               -2.17351880               34.92107960                1.00000000                1.05436021                1.09112123               -3.70713685               -0.14993440               -1.43349523               -1.45285118
               4.05345365                2.81396765               36.71482231                1.00000000               -0.50235100               -0.65057975                2.01189294               -0.04088934                0.19496502                2.04946059
               5.04843014                2.44835987               36.50545635                0.68774717               -0.40210655               -0.40873863                1.43841847               -0.01276774                0.63549750               -0.90247941
               6.04541152                2.08128554               36.30497707                0.16274738                0.03553241               -0.15486908                0.94796842               -0.48015541                2.55911062               -2.87665375
               7.04914079                1.70398462               36.13398817                0.00010000                0.66073241               -0.18140520                0.45198127               -1.40609236                5.11255057               -2.37666052
               8.05862617                1.30748800               35.98354831                0.00010000                0.93449386               -0.68832318               -0.07169632               -2.33337851                7.61397922                0.36693262
               9.06783066                0.88906744               35.86101643                0.00010000                0.59337001               -0.31013849               -0.64598752               -2.85130393                9.12846774                0.98532293
              10.07049357                0.46153396               35.73943703                0.00010000                0.09088185                0.19286927               -1.21167832               -2.51395399                7.95176881                1.41372285
              11.06964830                0.04119490               35.59276681                0.14310381                0.03341459                0.29405661               -1.72990501               -1.46125660                5.52052491                3.08405244
              12.07116186               -0.36703055               35.42268520                0.42431923                0.38054988                0.48609940               -2.24581610               -0.59843327                3.58240884                3.12949930
              13.07725930               -0.76664947               35.23745422                0.86012310                0.74905214                0.76253443               -2.76197895               -0.13456787                1.75970222                1.73197035
              14.08614290               -1.16260759               35.03077026                1.00000000                0.88836016                1.07528476               -3.31870174               -0.08495211                0.70944348               -1.71671759
               4.41738228                3.80766510               36.64087038                1.00000000               -0.41682243               -0.59972505                1.74541738               -0.05854949                0.20923071                2.26875329
               5.41321405                3.44487034               36.41243715                0.50504023               -0.36161851               -0.26878581                1.07562125               -0.03777135                0.98266839               -1.62764344
               6.41014991                3.08079559               36.19948430                0.04017720               -0.06138333                0.10540197                0.54250477               -0.80619977                4.86124626               -5.67073955
               7.41198639                2.70175260               36.04877318                0.00010000                0.62662436               -0.65431797                0.30969208               -2.88024476               11.86089224               -2.20977603
               8.42268240                2.29326797               35.97474378                0.00010000                1.14749365               -1.13883571               -0.22184566               -4.47752512               15.07563900                0.44270200
               9.43493626                1.88061860               35.88609764                0.00010000                1.14908369               -0.87291846               -0.66030607               -4.83101872               14.37373475                1.93586565
              10.44566407                1.46147362               35.79574204                0.00010000                1.10194970               -0.35465754               -1.07750753               -4.61347476               14.40102711                3.17415731
              11.45697526                1.04157864               35.70568392                0.04116913                0.94018944               -0.17818730               -1.48447515               -3.21528501               11.60683910                5.20329694
              12.46446786                0.63578631               35.55744301                0.22126570                0.73317562               -0.52838343               -1.76834823               -1.25865657                6.46055634                8.16193085
              13.47163877                0.24007744               35.36286217                0.51684307                0.75230097                0.38263045               -2.30038468               -0.38508284                2.49220548                2.92304994
              14.47951388               -0.15201311               35.13461669                0.88245515                0.78751103                1.23696956               -2.99741002               -0.31872428                0.83151446               -1.90928700
               4.77787218                4.80197315               36.56385342                0.99119506               -0.33279591               -0.52932619                1.46692389               -0.04988394                0.04014785                2.03314956
               5.77454422                4.44298415               36.31476101                0.47817943               -0.27334611               -0.13474886                0.74533478                0.00318184                0.35391858               -1.81651630
               6.77240526                4.08339358               36.07195331                0.02735581                0.22596454                0.30410868                0.05418143               -1.56651658                9.80453158               -6.26691911
               7.77906351                3.69089826               36.01198864                0.00010000                0.89022033               -0.76942304               -0.08775562               -3.51093767               19.37750590               -1.12640093
               8.79020966                3.28471128               35.95859110                0.00010000                1.19705641               -0.77565745               -0.38585636               -4.43219080               20.17300148                0.10735332
               9.80300464                2.87160907               35.91192613                0.00010000                1.35271862               -0.88661383               -0.69370658               -4.83886302               20.52148497                1.99061683
              10.81726404                2.45444081               35.86256437                0.00010000                1.40126367               -0.82451865               -0.97532722               -4.72122549               20.13746621                3.80602995
              11.83102991                2.03763115               35.80521683                0.04540843                1.51129424               -0.76010762               -1.21488498               -4.24700242               19.57111897                5.42211900
              12.84748992                1.62240178               35.74181371                0.22180647                1.31635726               -1.29955621               -1.17524014               -1.91991574               10.39997233                9.00288537
              13.85735706                1.24100314               35.49760413                0.50380280                0.82297964                0.05260671               -1.84418239               -0.09376971                0.73869708                2.96479623
              14.86394951                0.86213180               35.23966907                0.86937230                0.65924558                1.35552934               -2.64279684               -0.08811538                0.06625729               -1.76417611
               5.13436259                5.79707857               36.48542248                0.97911544               -0.25053350               -0.45173169                1.22884336               -0.04808962                0.04500726                1.96599398
               6.13185726                5.44217536               36.21767569                0.46220616               -0.17285646               -0.03994152                0.43162514                0.01195943                0.22758082               -1.75358153
               7.13090547                5.08687776               35.95363127                0.02038437                0.42963344                0.38306293               -0.34380430               -2.15209446               13.38110707               -5.60550472
               8.14044993                4.68636414               35.94889348                0.00010000                1.12111516               -0.28206482               -0.42189214               -4.51722731               26.47548476               -2.55862568
               9.15332777                4.27775482               35.94388299                0.00010000                1.39897754               -0.60944075               -0.57877799               -5.06041712               26.62470930               -0.01034192
              10.16842948                3.86288633               35.93878322                0.00010000                1.59448561               -0.87067582               -0.74918567               -5.32648970               26.71807334                2.03940278
              11.18521748                3.44498325               35.93194060                0.00010000                1.78223762               -1.06055877               -0.90447961               -5.28094296               26.67770442                4.05794210
              12.20407423                3.02637649               35.92220102                0.05191290                1.87400390               -1.26694849               -1.01508212               -4.87627819               25.87945149                6.26365495
              13.22269756                2.60979519               35.89552525                0.23151085                1.29795602               -1.14720766               -0.70595959               -2.33836392               13.00593624                6.82578247
              14.23003335                2.24112958               35.62411072                0.51749286                0.63983394                0.01980197               -1.44248443               -0.05124866                0.41434610                2.30608622
              15.23549424                1.87509748               35.34457042                0.87763885                0.54608856                1.19080173               -2.31296712               -0.02821057                0.02179778               -1.88022982
               5.48671681                6.79293851               36.40731423                0.96723277               -0.17325946               -0.37639371                1.01367033               -0.04700586                0.04425258                1.98650545
               6.48498422                6.44218532               36.12104247                0.44651188               -0.07711141                0.03727581                0.13387562                0.01172373                0.23455394               -1.70460138
               7.48517458                6.09105484               35.83860516                0.01357207                0.64288434                0.45217194               -0.71866946               -2.62714718               16.79654612               -5.36402484
               8.49784190                5.68525696               35.88340814                0.00010000                1.36522756                0.01105813               -0.72084236               -5.38376397               33.22534426               -2.68719390
               9.51247914                5.27252247               35.92587968                0.00010000                1.57022560               -0.42703731               -0.76656476               -5.83426510               33.21228108               -0.22990225
              10.52924642                4.85419556               35.96632298                0.00010000                1.78379404               -0.84824989               -0.82377816               -6.10944620               33.21778270                2.04047297
              11.54815502                4.43322963               36.00444499                0.00010000                1.97229966               -1.21511213               -0.87381709               -6.11075782               33.16778380                4.22903253
              12.56869241                4.01229218               36.03923958                0.05856514                1.89072662               -1.43955096               -0.89496889               -5.63980447               31.42355109                6.33269882
              13.58596955                3.59945763               36.03794414                0.24143289                1.11686889               -0.95122572               -0.26248090               -2.71155265               15.29332195                5.99107528
              14.59102979                3.24139918               35.74570045                0.53178962                0.47399728                0.02209747               -1.06659475               -0.05901817                0.39778247                1.90202238
              15.59544949                2.88594784               35.44567368                0.88642193                0.44197065                0.98899093               -2.00783810               -0.02884385                0.02234350               -2.14668734
               5.83492887                7.78955070               36.32949798                0.95542614               -0.09534554               -0.29997861                0.79654191               -0.04646856                0.04478960                1.99984986
               6.83397541                7.44292087               36.02484316                0.43093590                0.01810053                0.11004137               -0.16104753                0.01292508                0.26376594               -1.66457555
               7.83529088                7.09592120               35.72455623                0.00688631                0.86658030                0.52014611               -1.08493962               -3.00989023               20.16233501               -5.26281234
               8.85130702                6.68658530               35.81765089                0.00010000                1.62064997                0.24503814               -1.00291395               -6.14304434               39.87810588               -2.68055267
               9.86770388                6.26921407               35.90723487                0.00010000                1.71131892               -0.23586732               -0.94818413               -6.62558009               39.80574056               -0.28989942
              10.88553339                5.84592133               35.99403065                0.00010000                1.86009117               -0.77434184               -0.90987049               -6.93232706               39.79671528                1.98814025
              11.90490570                5.42068101               36.07823930                0.00010000                1.97583752               -1.23677356               -0.87717856               -6.95532955               39.73700848                4.27326152
              12.92505014                4.99758547               36.15853334                0.06531788                1.72269063               -1.46496333               -0.83613521               -6.19085358               36.65215458                6.60196988
              13.93935951                4.59077067               36.17603826                0.25142786                0.86563173               -0.80827060                0.17083001               -2.86908902               17.25494921                5.61771448
              14.94236278                4.24157153               35.86399933                0.54615150                0.32302631                0.00207284               -0.70429225               -0.06188721                0.41144676                1.64720595
              15.94582004                3.89487730               35.54398868                0.89523977                0.34572580                0.80401140               -1.71708235               -0.03095359                0.02684531               -2.31981002
               6.17904709                8.78693894               36.25180403                0.94364560               -0.01748703               -0.22179749                0.57659696               -0.04607265                0.04517696                1.99443964
               7.17887222                8.44438615               35.92889746                0.41550083                0.11326318                0.18388051               -0.45654912                0.01319276                0.30212298               -1.63810746
               8.18131235                8.10145776               35.61108475                0.00033838                1.14079637                0.58605012               -1.44817337               -3.31165642               23.51937682               -5.17804996
               9.20168814                7.69015773               35.75224081                0.00010000                1.96595796                0.42967225               -1.27109999               -6.67557677               46.48976417               -2.58242137
              10.22063151                7.26780512               35.88854651                0.00010000                1.87224001               -0.09885270               -1.12053313               -7.16416749               46.36608248               -0.30639918
              11.23913294                6.83870872               36.02152470                0.00010000                1.83763887               -0.64246827               -0.99826417               -7.43030230               46.41417486                1.83794221
              12.25738429                6.40849416               36.15285902                0.00010000                1.78263640               -1.11296939               -0.90083227               -7.52217193               46.51114169                4.16359319
              13.27478567                5.98299292               36.28193419                0.07225503                1.36087097               -1.38828886               -0.82168442               -6.48723566               41.69935903                6.91077988
              14.28460171                5.58329222               36.31171971                0.26156875                0.54498711               -0.70241803                0.60184352               -2.89116961               18.87733319                5.38744140
              15.28568541                5.24144063               35.98030977                0.56061536                0.18085852               -0.03632019               -0.34718940               -0.06430674                0.42974270                1.51187704
              16.28821888                4.90202807               35.64064902                0.90409920                0.25334625                0.63160981               -1.43315414               -0.03416674                0.03142227               -2.39056490
               6.51911300                9.78511475               36.17398569                0.93186784                0.06074455               -0.14286200                0.35363093               -0.04587389                0.05445432                1.98478161
               7.51972045                9.44659848               35.83306064                0.40011179                0.20865827                0.26030554               -0.75364724                0.01012015                0.36477845               -1.64800291
               8.52328617                9.10764220               35.49826376                0.00010000                1.58638349                0.64620036               -1.80903179               -3.57790858               26.93698338               -4.94669018
               9.55144812                8.69517875               35.68843664                0.00010000                2.62916837                0.35951108               -1.52071436               -6.85734856               53.09158970               -2.22341803
              10.57586953                8.26723702               35.87023128                0.00010000                2.23950979               -0.23367340               -1.27322513               -6.84236249               52.78699844               -0.26715274
              11.59623831                7.83307196               36.04742328                0.00010000                1.71542653               -0.44923313               -1.07404554               -6.92902363               52.96486123                1.47550379
              12.61017806                7.39842162               36.22586713                0.00010000                1.21345313               -0.65719466               -0.92605585               -7.28232097               53.54362984                3.56678885
              13.62050737                6.96981969               36.40847702                0.07936722                0.64551684               -1.02708420               -0.82980081               -6.55297810               46.74853744                6.75311063
              14.62308840                6.57672231               36.44569482                0.27182551                0.09167104               -0.61824758                1.03219644               -2.88806388               20.27225200                5.04413341
              15.62234080                6.24084512               36.09570575                0.57514850                0.04367179               -0.08982950                0.01022823               -0.07386762                0.48215433                1.50694350
              16.62396184                5.90750950               35.73677425                0.91296988                0.16210416                0.46947022               -1.14978217               -0.03810065                0.04936789               -2.38257826
               6.85516214               10.78408170               36.09618207                0.92005967                0.13850296               -0.06438094                0.12931968               -0.04551951               -0.00551911                1.71849964
               7.85654716               10.44959226               35.73670207                0.38487564                0.30058900                0.33953241               -1.05491620               -0.00092051                0.58532208               -1.47767964
               8.86117392               10.11438177               35.38892837                0.00010000                2.41995954                0.68456554               -2.15616262               -4.00885377               30.65122985               -3.68739696
               9.90494636                9.69734795               35.63035543                0.00010000                4.23585655               -0.78505055               -1.73191136               -5.41043041               59.61937145               -1.29309898
              10.94589105                9.26313166               35.85335481                0.00010000                3.22107596               -0.60240411               -1.38858785               -4.69003928               58.80613179               -0.16514742
              11.96936787                8.82972406               36.06913370                0.00010000                1.45495476               -0.24334370               -1.11765306               -4.43742001               59.09278501                0.83212689
              12.97499014                8.39535027               36.29000535                0.00010000               -0.19712288                0.14541768               -0.92284655               -5.13167255               60.61609093                2.13500643
              13.96542542                7.96245123               36.52989625                0.08672586               -0.95875737                0.29841483               -0.83176432               -5.16431029               52.04780345                4.68167407
              14.95581499                7.57092727               36.57479544                0.28230249               -0.60022702               -0.51342931                1.44956477               -2.99575503               21.93542166                3.57222430
              15.95342088                7.23964404               36.21172503                0.58971421               -0.08434378               -0.15575394                0.37430955               -0.09633721                0.76391575                1.37769683
              16.95412812                6.91141747               35.83297549                0.92179643                0.07072420                0.32079265               -0.86339428               -0.04542998               -0.00575077               -1.98868845
               7.18718150               11.78382713               36.01310209                0.95621152                0.22204726               -0.02545716               -0.11493337                0.15813661                0.81226474                1.45244277
               8.18940197               11.45338913               35.64401345                0.68755627                0.40859506                0.37968759               -1.34093597                0.16079974                2.11314472               -1.27925199
               9.19535340               11.12133351               35.30079599                0.49211253                5.25438244                0.69517471               -2.41631936               -5.27762146               34.86014313               -2.60610934
              10.29448962               10.67947774               35.58604685                0.44673387                7.71696209               -1.78702116               -1.86741436               -4.35290247               65.47091232               -0.80131878
              11.34969264               10.25518894               35.83905963                0.43633102                4.03908408               -0.79427176               -1.44704643               -2.18347307               63.99704134               -0.16901469
              12.37527130                9.82820509               36.08397667                0.44915175                1.25623992               -0.15189683               -1.11012342               -2.10260579               64.32686429                0.39075097
              13.37481744                9.40132997               36.33561419                0.48418200               -1.68135651                0.59797043               -0.86019096               -2.63812547               66.39749705                1.14188732
              14.34164417                8.97578799               36.61590268                0.54585124               -4.44184751                1.33367540               -0.74145132               -4.12193702               57.21892965                2.94427642
              15.28598049                8.56645372               36.67941130                0.64460800               -3.08601621               -0.44735406                1.77137177               -3.88634761               25.20786749                2.36258894
              16.27992385                8.23773004               36.32435211                0.79953339               -0.32370526               -0.19139985                0.72938559                0.02387817                2.62232939                1.21714460
              17.27950638                7.91392535               35.93647981                0.96369842               -0.04174628                0.25078792               -0.54432868                0.15735691                0.99456931               -1.60250568
               3.88156012                1.92063151               37.81941372                1.00000000               -0.62836730               -0.68212659                2.30995252               -0.11774429               -1.62863641                1.71964249
               4.87527645                1.53327362               37.60591152                0.91772286               -0.59320846               -0.47083653                1.75045629               -0.07713997               -1.88715988               -0.45758121
               5.86969595                1.14429420               37.38741618                0.63548964               -0.76083131               -0.25905626                1.12397624               -0.40599760               -1.58017744               -1.16960674
               6.86005982                0.74513495               37.18039544                0.50705958               -1.11350119               -0.13815078                0.54300481               -0.59093802                0.37246026               -0.17051544
               7.84742593                0.32467978               37.00205158                0.44909470               -1.08330047                0.05108912               -0.06328266               -0.53436659                2.94867077               -0.15419194
               8.83839381               -0.11918065               36.84795754                0.44891600               -0.35518302                0.23364775               -0.71375950               -0.30205797                4.12335225                0.02755065
               9.84032226               -0.57296448               36.69417860                0.50387070                0.58962613                0.40456128               -1.35500995               -0.32352243                2.92707406                0.18847117
              10.85018633               -1.01947218               36.51633059                0.61778764                1.06226753                0.56636753               -1.95631292               -0.39008719                0.52888361                0.28863805
              11.86156762               -1.45318109               36.31396061                0.80146048                1.09460453                0.71000417               -2.55247840               -0.30001892               -1.49688961                0.54812945
              12.87207842               -1.87801332               36.09474117                1.00000000                1.06600928                0.87466108               -3.18681507               -0.13651313               -1.90317795                1.02313487
              13.88288780               -2.29977949               35.88354802                1.00000000                1.08093781                1.11861420               -3.79605399               -0.15380769               -1.47617217               -1.47191368
               4.26774057                2.91381025               37.73504287                1.00000000               -0.50668715               -0.66237010                2.03562097               -0.04113244                0.21628554                2.09226065
               5.26267370                2.52856525               37.51988824                0.66969283               -0.40176354               -0.40647683                1.44872477               -0.01639572                0.69951272               -0.99446784
               6.25970530                2.14170364               37.31449340                0.15678952                0.06419726               -0.14294686                0.95558782               -0.53001795                2.66285176               -3.00254643
               7.26395765                1.74375345               37.13849789                0.00010000                0.72673786               -0.20277244                0.44917705               -1.51296591                5.19943935               -2.40504112
               8.27424006                1.32519067               36.98277192                0.00010000                1.01188560               -0.71810840               -0.08589803               -2.49364289                7.66283348                0.29547201
               9.28419536                0.88315583               36.85443482                0.00010000                0.64963730               -0.32342987               -0.67340095               -3.04592443                9.16295357                0.95452818
              10.28723281                0.43108113               36.72713587                0.00010000                0.10992034                0.20641389               -1.25209453               -2.69704383                8.02893188                1.43176959
              11.28639377               -0.01380851               36.57522010                0.13765096                0.03025956                0.30345499               -1.78195515               -1.58137791                5.63584212                3.12523658
              12.28783800               -0.44608105               36.39991125                0.41233881                0.38093623                0.49072011               -2.30978555               -0.64652736                3.70494108                3.24719421
              13.29401249               -0.86926671               36.20944741                0.83620707                0.76389467                0.78072237               -2.83826174               -0.14987291                1.86302989                1.81188844
              14.30311589               -1.28859335               35.99713894                1.00000000                0.91034000                1.10859976               -3.40507154               -0.09257134                0.79229141               -1.77170718
               4.65122747                3.90738411               37.65835344                0.99681545               -0.41723240               -0.61138636                1.75238303               -0.05979450                0.20709410                2.30585604
               5.64705514                3.52514408               37.42316595                0.49031149               -0.36600362               -0.25947102                1.07521253               -0.04728014                1.04930548               -1.73558904
               6.64390739                3.14143526               37.20488100                0.03665054               -0.03708383                0.13878361                0.53699595               -0.91371964                5.14977962               -5.95988205
               7.64631347                2.74107951               37.05188344                0.00010000                0.71216456               -0.68569186                0.31046788               -3.09266288               12.15041114               -2.40668318
               8.65815068                2.31031761               36.97238126                0.00010000                1.26356971               -1.19137227               -0.25349979               -4.76292030               15.26239724                0.30283349
               9.67158486                1.87435075               36.87929109                0.00010000                1.25975190               -0.90752988               -0.70470185               -5.16653216               14.62926641                1.86672017
              10.68334572                1.43116380               36.78471298                0.00010000                1.20680492               -0.35849081               -1.13235785               -4.95799977               14.68119613                3.18600252
              11.69572096                0.98659692               36.69050931                0.03794798                1.03747766               -0.17177840               -1.55377586               -3.49557087               11.96869948                5.29799601
              12.70409528                0.55663331               36.53945189                0.21382737                0.79361531               -0.58849886               -1.83151627               -1.37814971                6.77899106                8.45171567
              13.71159326                0.13760112               36.33949221                0.50063562                0.77971852                0.38204564               -2.37338013               -0.42146557                2.60089734                3.05643059
              14.71968965               -0.27760750               36.10420624                0.87049982                0.80963822                1.30379726               -3.08260378               -0.34897397                0.85642248               -1.98087629
               5.03102475                4.90158252               37.57856254                0.97867647               -0.33478017               -0.54218479                1.48452937               -0.05284019                0.05639021                2.09111686
               6.02767695                4.52337583               37.32219082                0.46448977               -0.27646338               -0.12499101                0.74057611               -0.00610948                0.37975020               -1.90298284
               7.02549548                4.14447931               37.07236669                0.02432008                0.27725449                0.34302342                0.02988300               -1.70589642               10.12245817               -6.55476192
               8.03322204                3.73003961               37.01090421                0.00010000                1.01074609               -0.77674199               -0.13080935               -3.76370663               19.90383310               -1.41605011
               9.04571041                3.30136323               36.95450718                0.00010000                1.33982456               -0.80765423               -0.43393957               -4.72174446               20.62413235               -0.05240249
              10.06001853                2.86500523               36.90471920                0.00010000                1.50581202               -0.92139863               -0.75159014               -5.16454262               20.98851584                1.90397209
              11.07582665                2.42391132               36.85251768                0.00010000                1.54971534               -0.85145603               -1.03841850               -5.05485486               20.64996616                3.78884212
              12.09101284                1.98275593               36.79278923                0.04213365                1.67220765               -0.77202849               -1.27523961               -4.60709654               20.25324721                5.49020834
              13.10927080                1.54214897               36.72969832                0.21460218                1.44055744               -1.39472487               -1.25310134               -2.11686473               10.88194197                9.28311690
              14.11982399                1.13837420               36.47882152                0.48867056                0.86414259                0.04451875               -1.91391733               -0.11190783                0.80961071                3.06516317
              15.12655365                0.73748260               36.21283478                0.85830959                0.67296643                1.44448766               -2.72364149               -0.09255895                0.06788802               -1.82606446
               5.40658405                5.89654042               37.49786509                0.96695948               -0.25478810               -0.46485434                1.26172884               -0.04882998                0.04892003                2.05268544
               6.40403616                5.52264426               37.22194603                0.44895469               -0.17291799               -0.03441154                0.42549166                0.00857992                0.24407742               -1.83156359
               7.40312569                5.14829573               36.95001463                0.01753898                0.50596253                0.41234217               -0.37989143               -2.31168377               13.76294486               -5.83924370
               8.41415542                4.72554467               36.94439474                0.00010000                1.28122440               -0.27784713               -0.47936900               -4.82196578               27.18011421               -2.78797888
               9.42875017                4.29416453               36.93778795                0.00010000                1.57952507               -0.63252455               -0.64321500               -5.38416909               27.29423892               -0.17827662
              10.44574592                3.85592278               36.93096805                0.00010000                1.78738785               -0.90889013               -0.81766229               -5.66782093               27.39744413                1.93537750
              11.46449793                3.41413468               36.92258167                0.00010000                1.97977279               -1.10079693               -0.97167184               -5.63129455               27.39837553                4.00698525
              12.48534137                2.97115635               36.91178546                0.04851284                2.08208890               -1.30657326               -1.07286525               -5.28017158               26.83640580                6.25457363
              13.50613971                2.52873881               36.88811026                0.22406630                1.43400563               -1.21384591               -0.78443131               -2.57847288               13.66281384                7.03557469
              14.51402149                2.13849150               36.60937546                0.50198905                0.67409831                0.02333162               -1.50752044               -0.07091531                0.48879051                2.36757642
              15.51962167                1.75128226               36.32106160                0.86634545                0.56001899                1.26485734               -2.38974748               -0.02741786                0.02418449               -1.96359865
               5.77784047                6.89228543               37.41757588                0.95539608               -0.17472341               -0.38586739                1.03840529               -0.04765954                0.04583168                2.07519942
               6.77609323                6.52268760               37.12231431                0.43374474               -0.07395332                0.04195426                0.12090943                0.01404222                0.25092721               -1.77510197
               7.77636140                6.15272615               36.83118750                0.01094056                0.74103461                0.47611793               -0.76470454               -2.80140149               17.25565473               -5.58530485
               8.79091393                5.72448267               36.87587088                0.00010000                1.56437531                0.01460514               -0.78822124               -5.72905199               34.10166240               -2.88839885
               9.80764891                5.28871274               36.91785084                0.00010000                1.78890183               -0.45073971               -0.84195549               -6.19717317               34.07309269               -0.38833200
              10.82669196                4.84682743               36.95771555                0.00010000                2.01591398               -0.89308577               -0.90102115               -6.48133890               34.08702122                1.92424268
              11.84796719                4.40189538               36.99536941                0.00010000                2.20566543               -1.26934010               -0.94481822               -6.48498403               34.06651985                4.14341798
              12.87080527                3.95662446               37.03003997                0.05499714                2.11995025               -1.48488201               -0.94844422               -6.08460073               32.66450810                6.25595415
              13.89036619                3.51787205               37.03499936                0.23372159                1.25284826               -0.99485729               -0.33477960               -2.98457934               16.15180883                6.18781300
              14.89586224                3.13884083               36.73475737                0.51583843                0.50287919                0.03178660               -1.12588752               -0.07676897                0.47427224                1.94744728
              15.90042378                2.76277974               36.42523873                0.87486317                0.45615397                1.04667058               -2.08158095               -0.02807448                0.02530964               -2.24715335
               6.14482653                7.88882307               37.33755288                0.94390647               -0.09502350               -0.30657823                0.81525345               -0.04714609                0.04659784                2.08604076
               7.14387629                7.52348334               37.02312636                0.41860295                0.02380313                0.11741499               -0.18231082                0.01627605                0.28325356               -1.73416955
               8.14530259                7.15781809               36.71342839                0.00443295                0.98557507                0.54331726               -1.14117178               -3.20011009               20.70672957               -5.47892211
               9.16358779                6.72583677               36.80725098                0.00010000                1.85796798                0.24628867               -1.07865946               -6.52533994               40.92551798               -2.86610641
              10.18246195                6.28514973               36.89734226                0.00010000                1.96743516               -0.26525659               -1.03269967               -7.02493097               40.84378889               -0.43885182
              11.20293650                5.83806107               36.98451753                0.00010000                2.12696349               -0.82871040               -0.99515650               -7.33247684               40.83536974                1.86727236
              12.22500122                5.38874788               37.06909546                0.00010000                2.23680935               -1.30131512               -0.95336591               -7.34582920               40.78874152                4.16297198
              13.24767268                4.94145871               37.14991472                0.06163152                1.96152667               -1.51316022               -0.88835576               -6.64930854               38.19061497                6.47452393
              14.26423175                4.50884167               37.17747036                0.24346424                0.99528679               -0.83654438                0.10796545               -3.15426899               18.34136795                5.81317568
              15.26757842                4.13912723               36.85671008                0.52980337                0.34753064                0.01377236               -0.75759685               -0.07637140                0.48864399                1.68749604
              16.27118236                3.77221567               36.52647465                0.88339221                0.36039460                0.84940865               -1.78879983               -0.03010806                0.03041475               -2.42868521
               6.50757700                8.88615387               37.25763828                0.93243458               -0.01532621               -0.22689913                0.59093747               -0.04684265                0.04677674                2.07780387
               7.50742373                8.52503590               36.92418686                0.40356367                0.12143895                0.19374914               -0.48573142                0.01669979                0.32581533               -1.70815238
               8.51000578                8.16359250               36.59627445                0.00010000                1.28258740                0.61051972               -1.51479863               -3.52081746               24.15494133               -5.39114375
               9.53307548                7.72940844               36.73911744                0.00010000                2.24601076                0.42546405               -1.35524383               -7.08977204               47.71119008               -2.75232840
              10.55492599                7.28340760               36.87688491                0.00010000                2.16844010               -0.14172855               -1.21364520               -7.58581988               47.57275170               -0.44069207
              11.57644428                6.83025322               37.01107797                0.00010000                2.13634851               -0.70926246               -1.09225944               -7.83491110               47.60645370                1.72304532
              12.59765296                6.37586908               37.14342419                0.00010000                2.06405126               -1.18391920               -0.98582918               -7.90298124               47.69280169                4.04321894
              13.61772531                5.92636126               37.27339318                0.06839011                1.59796655               -1.44187813               -0.88263428               -6.92831180               43.54757005                6.75006475
              14.62961229                5.50114117               37.31751063                0.25334251                0.66177488               -0.71972115                0.54905566               -3.17388539               20.21608527                5.58608251
              15.63096081                5.13911628               36.97661986                0.54382035                0.20162235               -0.02462351               -0.39471138               -0.07562924                0.50697070                1.55379149
              16.63364474                4.77976792               36.62598344                0.89197213                0.26839314                0.66781724               -1.50349521               -0.03330344                0.03573861               -2.50084355
               6.86612561                9.88428509               37.17757170                0.92096677                0.06460437               -0.14680642                0.36423478               -0.04669032                0.05638119                2.06568058
               7.86677166                9.52735833               36.82534280                0.38862056                0.21940416                0.27238905               -0.79039289                0.01284534                0.39430735               -1.72049280
               8.87051370                9.17002848               36.47979558                0.00010000                1.76027934                0.67129107               -1.88603980               -3.81214687               27.67275307               -5.15090545
               9.90197725                8.73434605               36.67277490                0.00010000                2.96935359                0.33246710               -1.61324041               -7.29489918               54.49451907               -2.36587769
              10.92990077                8.28231516               36.85699978                0.00010000                2.58997777               -0.31022254               -1.37449817               -7.24071567               54.15781522               -0.37399169
              11.95377680                7.82387582               37.03616589                0.00010000                2.04663937               -0.53245445               -1.17746526               -7.28230348               54.29738029                1.38229427
              12.97083356                7.36506949               37.21609853                0.00010000                1.50287776               -0.72554573               -1.02472744               -7.60098691               54.83413179                3.45921792
              13.98383436                6.91262115               37.39971942                0.07537167                0.85827322               -1.07813612               -0.91393840               -6.93462103               48.90832825                6.58193914
              14.98799902                6.49444724               37.45583838                0.26335546                0.18023646               -0.62567536                0.99026493               -3.15807076               21.87964221                5.23918413
              15.98743908                6.13863476               37.09561633                0.55790551                0.06070003               -0.07883908               -0.03183832               -0.08358071                0.56094641                1.55580033
              16.98921302                5.78557201               36.72494942                0.90055203                0.17739372                0.49869421               -1.21922892               -0.03724835                0.05511110               -2.48941718
               7.22049671               10.88321774               37.09750867                0.90951106                0.14405343               -0.06726692                0.13654401               -0.04642713               -0.00721672                1.78817146
               8.22193724               10.53048368               36.72593470                0.37385253                0.31392031                0.35369336               -1.09925824               -0.00056119                0.62741611               -1.54406990
               9.22677512               10.17701832               36.36694197                0.00010000                2.64767878                0.70755601               -2.24203791               -4.28568649               31.50794043               -3.83925984
              10.27489082                9.73605778               36.61254698                0.00010000                4.69033971               -0.90682973               -1.83157668               -5.77078001               61.21390470               -1.37967431
              11.32058191                9.27720315               36.83893405                0.00010000                3.65765336               -0.72001799               -1.49678788               -4.96518912               60.33442851               -0.22637521
              12.34804389                8.81960413               37.05739390                0.00010000                1.81529919               -0.33977749               -1.22966334               -4.64765581               60.55675405                0.77893335
              13.35688789                8.36135816               37.28018582                0.00010000                0.08056254                0.07861307               -1.03655816               -5.31765545               61.99588158                2.06971430
              14.34965514                7.90479853               37.52092001                0.08255249               -0.82253150                0.28855161               -0.95172319               -5.40734690               54.50240429                4.55951412
              15.34043726                7.48862766               37.58915666                0.27355711               -0.57453565               -0.50632853                1.41675200               -3.24240137               23.81568037                3.71408598
              16.33816442                7.13753950               37.21530165                0.57204599               -0.07059990               -0.14536412                0.33749260               -0.10699741                0.85322212                1.42784430
              17.33902527                6.78974180               36.82401809                0.90911990                0.08608411                0.34505020               -0.93246553               -0.04502862               -0.00165461               -2.07511131
               7.57066520               11.88293975               37.01196511                0.95101556                0.22946613               -0.02779936               -0.11210369                0.16609318                0.84211086                1.51157909
               8.57295986               11.53443219               36.63035235                0.68215861                0.42803354                0.39485140               -1.39206225                0.16425409                2.22200688               -1.33734629
               9.57922587               11.18417960               36.27618790                0.49122760                5.67084774                0.71612846               -2.50640086               -5.66606190               35.86900900               -2.71340084
              10.68637681               10.71620945               36.56686215                0.44684897                8.39123857               -1.98483272               -1.97166197               -4.66464083               67.23590669               -0.85025465
              11.74705064               10.26791480               36.82403192                0.43646234                4.51459321               -0.92883495               -1.56008263               -2.30958660               65.66363299               -0.20353482
              12.77666868                9.81708027               37.07228452                0.44893295                1.61177040               -0.25238646               -1.22795458               -2.20117360               65.91744718                0.35980807
              13.77928605                9.36664175               37.32637976                0.48328691               -1.41253777                0.52835916               -0.98244586               -2.69458922               67.88289604                1.10243605
              14.74841792                8.91839218               37.60771290                0.54372981               -4.44380072                1.35936444               -0.88357930               -4.23977572               59.87824294                2.85747999
              15.69041003                8.48432067               37.69699718                0.64014864               -3.21164616               -0.43069862                1.73997166               -4.13595828               27.30934377                2.45982523
              16.68418500                8.13572748               37.33149788                0.79057340               -0.32510931               -0.18120195                0.69615688                0.00967444                2.78842860                1.26483940
              17.68390784                7.79247302               36.93072108                0.95727492               -0.02771520                0.27312177               -0.61210711                0.16281191                1.03977912               -1.66966042
               4.08141616                2.02381124               38.84265533                1.00000000               -0.63745189               -0.69380968                2.33962279               -0.11987320               -1.65989698                1.76970410
               5.07504164                1.61594005               38.62350897                0.90726299               -0.60629272               -0.47239686                1.76877641               -0.08042065               -1.95373064               -0.51889627
               6.06929031                1.20634639               38.39867229                0.63137777               -0.79585733               -0.25766032                1.12591762               -0.43186905               -1.65810611               -1.17289761
               7.05912450                0.78576549               38.18577950                0.50591936               -1.17231039               -0.13696938                0.53172311               -0.61916763                0.30899692               -0.17806484
               8.04584410                0.34250992               38.00129644                0.44895814               -1.13880877                0.05578373               -0.09086831               -0.55720222                2.86121205               -0.15915474
               9.03634832               -0.12558217               37.84062498                0.44870331               -0.38025330                0.24066266               -0.75682598               -0.31419490                4.03303154                0.02707804
              10.03823903               -0.60452889               37.68037043                0.50248056                0.60416118                0.41638591               -1.41072048               -0.33153960                2.87193781                0.19244080
              11.04843155               -1.07630874               37.49646498                0.61395628                1.10023753                0.58296588               -2.01959317               -0.40145233                0.50119663                0.29588918
              12.06024379               -1.53487437               37.28809831                0.79338618                1.13352851                0.72964290               -2.62028032               -0.31175617               -1.53976158                0.54527303
              13.07110212               -1.98412303               37.06249809                1.00000000                1.09578776                0.89602848               -3.25940536               -0.14421814               -1.95381874                1.04388674
              14.08215954               -2.43013892               36.84515852                1.00000000                1.10574247                1.14389662               -3.87742771               -0.15697671               -1.51719728               -1.48935354
               4.48808862                3.01687314               38.75553473                1.00000000               -0.51187561               -0.67743488                2.06385684               -0.04155723                0.23447846                2.13332144
               5.48296986                2.61121609               38.53443084                0.65154671               -0.40148590               -0.40420424                1.46050005               -0.02361998                0.76710213               -1.09130753
               6.48005890                2.20376979               38.32408883                0.15075010                0.09405970               -0.13108691                0.96361709               -0.58412946                2.77318616               -3.13581737
               7.48485106                1.78439580               38.14297171                0.00010000                0.79435045               -0.22764368                0.44431628               -1.61660885                5.28754876               -2.43598370
               8.49594591                1.34306776               37.98183035                0.00010000                1.09373608               -0.74602736               -0.10498886               -2.64463753                7.71054780                0.21051652
               9.50672578                0.87682446               37.84754841                0.00010000                0.71705080               -0.33746047               -0.70795151               -3.22956191                9.19487232                0.91027098
              10.51028693                0.39963497               37.71439514                0.00010000                0.14319945                0.21703763               -1.30073962               -2.87363991                8.10416342                1.43780933
              11.50958977               -0.07047908               37.55712771                0.13214562                0.03732209                0.31390850               -1.84001525               -1.70170650                5.75111405                3.15349395
              12.51103337               -0.52757795               37.37648949                0.40030048                0.38512196                0.49539643               -2.37573613               -0.69313347                3.82806501                3.36156056
              13.51729221               -0.97516274               37.18068898                0.81230241                0.77861476                0.79774876               -2.91220029               -0.16608789                1.96788755                1.89041041
              14.52660566               -1.41869995               36.96266883                1.00000000                0.93134563                1.14062230               -3.48598905               -0.10098452                0.87734546               -1.82619520
               4.89189914                4.01026254               38.67591804                0.98357361               -0.42265365               -0.62946581                1.77570373               -0.05791759                0.22145889                2.35350317
               5.88767260                3.60785597               38.43394140                0.47553487               -0.37355640               -0.25358401                1.08805527               -0.05863399                1.12724558               -1.85303371
               6.88442801                3.20372465               38.21022422                0.03308156               -0.00891250                0.16974624                0.53034531               -1.02806109                5.45441985               -6.26752666
               7.88749435                2.78121262               38.05498254                0.00010000                0.80473412               -0.71649166                0.30705347               -3.29933256               12.44486352               -2.63076737
               8.90052269                2.32758938               37.96967378                0.00010000                1.38477607               -1.24056089               -0.29113853               -5.03062930               15.44166686                0.13879170
               9.91518987                1.86766862               37.87200360                0.00010000                1.37735430               -0.94064520               -0.75700620               -5.48694156               14.88561873                1.77473875
              10.92806978                1.39981187               37.77309488                0.00010000                1.32102315               -0.36430089               -1.19608495               -5.28963918               14.95923559                3.17951353
              11.94161033                0.92996943               37.67460840                0.03467492                1.14974997               -0.16808736               -1.63143602               -3.77269319               12.33410078                5.38140803
              12.95106478                0.47503355               37.52081269                0.20630305                0.86460146               -0.65081502               -1.89871964               -1.50371895                7.10604139                8.72851274
              13.95890236                0.03183195               37.31539457                0.48448179                0.80747442                0.37929449               -2.44672246               -0.46197109                2.70972341                3.18952262
              14.96721426               -0.40732647               37.07296461                0.85862995                0.83119013                1.37275526               -3.16375027               -0.38208767                0.88050342               -2.05164918
               5.29174342                5.00428383               38.59354400                0.96609078               -0.34083433               -0.55717993                1.52321444               -0.04994374                0.06957067                2.16964591
               6.28833507                4.60614441               38.32957253                0.45071083               -0.28011922               -0.12176835                0.74167106               -0.01012207                0.40997815               -1.99382780
               7.28614103                4.20716471               38.07255097                0.02124191                0.33323056                0.37737113                0.00694607               -1.83953944               10.44704219               -6.86276543
               8.29499968                3.77006596               38.00937246                0.00010000                1.13681443               -0.77873578               -0.17686637               -4.00618186               20.43877253               -1.73954857
               9.30887732                3.31825654               37.94991231                0.00010000                1.48823862               -0.83718730               -0.48826994               -4.99689359               21.08596930               -0.23415430
              10.32476446                2.85801155               37.89689433                0.00010000                1.66580075               -0.95355473               -0.81766829               -5.47564081               21.46322765                1.79960454
              11.34219333                2.39234895               37.84179600                0.00010000                1.70748795               -0.87703223               -1.11109214               -5.37772859               21.17364368                3.76040153
              12.35891421                1.92615917               37.77971204                0.03882673                1.84515670               -0.78761066               -1.34604536               -4.96398851               20.93823422                5.55902762
              13.37909647                1.45940575               37.71675168                0.20730265                1.57492972               -1.49139585               -1.34368527               -2.32184862               11.36827307                9.55395525
              14.39041281                1.03242315               37.45932578                0.47351944                0.90921378                0.03566529               -1.98786832               -0.13475728                0.88991890                3.16704305
              15.39728074                0.60875515               37.18519624                0.84731368                0.68679348                1.53740165               -2.80398452               -0.09722972                0.06885803               -1.88642447
               5.68717911                5.99911894               38.51065705                0.95469944               -0.25898345               -0.47645562                1.29399657               -0.04917597                0.04880150                2.14494742
               6.68458927                5.60542060               38.22618552                0.43565557               -0.17317229               -0.03207234                0.42260323                0.01045976                0.26073867               -1.90991957
               7.68371566                5.21127208               37.94603344                0.01464899                0.58448058                0.43851293               -0.41533006               -2.45963099               14.15095532               -6.08741090
               8.69627888                4.76563790               37.93930610                0.00010000                1.44617844               -0.27166124               -0.53961130               -5.11071570               27.89691392               -3.03329692
               9.71263923                4.31084563               37.93101869                0.00010000                1.76528790               -0.65275072               -0.71363454               -5.69106916               27.98029111               -0.36409868
              10.73158464                3.84859753               37.92242997                0.00010000                1.98641791               -0.94403120               -0.89412812               -5.99352971               28.09400198                1.81769310
              11.75236759                3.38227122               37.91250717                0.00010000                2.18445612               -1.13823774               -1.04829507               -5.97063254               28.13960955                3.94879509
              12.77527376                2.91421721               37.90074372                0.04504859                2.29981193               -1.34385865               -1.14165424               -5.68135898               27.79844531                6.24719762
              13.79836383                2.44520564               37.87983663                0.21654345                1.57920262               -1.27759855               -0.87934688               -2.82400532               14.32545593                7.25079315
              14.80685782                2.03254525               37.59396032                0.48646285                0.71209133                0.02951776               -1.57938184               -0.09605093                0.57645021                2.43350149
              15.81260565                1.62342156               37.29677547                0.85511514                0.57478361                1.34182819               -2.46931005               -0.02675762                0.02654947               -2.04707102
               6.07815658                6.99475472               38.42808234                0.94348055               -0.17654457               -0.39549193                1.06364420               -0.04843794                0.04782057                2.16449061
               7.07639114                6.60550296               38.12346066                0.42087675               -0.07127346                0.04721663                0.10848439                0.01779737                0.26949116               -1.84962515
               8.07673111                6.21593497               37.82331107                0.00823399                0.84103403                0.49918679               -0.81053937               -2.96425217               17.72436321               -5.81720071
               9.09321182                5.76463274               37.86764371                0.00010000                1.76825997                0.01893573               -0.85849753               -6.05544083               34.99408723               -3.10140661
              10.11209631                5.30520153               37.90904057                0.00010000                2.01282265               -0.47213314               -0.92289693               -6.54139685               34.95550975               -0.55954871
              11.13346827                4.83913093               37.94830256                0.00010000                2.25323418               -0.93465819               -0.98527483               -6.83571945               34.98114196                1.79743195
              12.15716100                4.36958420               37.98554862                0.00010000                2.44421752               -1.31927760               -1.02367953               -6.84665910               34.99618190                4.05237585
              13.18235262                3.89928200               38.02027069                0.05138753                2.35636642               -1.52472378               -1.01027290               -6.52583180               33.91834004                6.18305434
              14.20428832                3.43385378               38.03124855                0.22592001                1.39616231               -1.03413570               -0.42396827               -3.26204060               17.01922751                6.39786090
              15.21027587                3.03301350               37.72318270                0.49991631                0.53523244                0.04568534               -1.19320867               -0.09942575                0.56567480                1.99899576
              16.21499297                2.63559172               37.40404206                0.86333924                0.47171066                1.10686643               -2.16052571               -0.02750128                0.02847429               -2.34952399
               6.46471386                7.99120911               38.34580305                0.93230680               -0.09488995               -0.31392631                0.83528692               -0.04797259                0.04817916                2.17555288
               7.46376496                7.60636493               38.02119694                0.40618394                0.02934875                0.12518482               -0.20350121                0.02039639                0.30538710               -1.80751628
               8.46530084                7.22125581               37.70173280                0.00193784                1.10692746                0.56663640               -1.19845548               -3.37994160               21.26398364               -5.70553843
               9.48590351                6.76601662               37.79607770                0.00010000                2.10061328                0.24772537               -1.15746644               -6.88815891               41.99423858               -3.06155159
              10.50731310                6.30140297               37.88658087                0.00010000                2.22920342               -0.29338869               -1.12206065               -7.40412762               41.90835595               -0.59790791
              11.53048758                5.82990436               37.97412752                0.00010000                2.39851175               -0.88048271               -1.08569741               -7.71314121               41.90579084                1.73783153
              12.55528334                5.35588567               38.05917198                0.00010000                2.49999825               -1.36143660               -1.03393216               -7.72087545               41.88108720                4.04692594
              13.58048755                4.88372274               38.14076622                0.05785373                2.20540856               -1.55462404               -0.94371157               -7.10323657               39.75294433                6.34690359
              14.59939151                4.42452292               38.17819757                0.23542791                1.13219105               -0.86039669                0.02848427               -3.44276880               19.44237765                6.02503856
              15.60313137                4.03345896               37.84884739                0.51344972                0.37538421                0.02983594               -0.81922312               -0.09439402                0.58121532                1.73435665
              16.60689919                3.64555889               37.50821269                0.87161429                0.37678268                0.89723540               -1.86712792               -0.02933037                0.03452807               -2.54064542
               6.84688547                8.98847619               38.26362278                0.92116335               -0.01331150               -0.23255687                0.60664776               -0.04772482                0.04838108                2.16517324
               7.84675236                8.60800666               37.91918283                0.39158783                0.12975635                0.20379282               -0.51524699                0.02046339                0.35266488               -1.78198636
               8.84948060                8.22726770               37.58078878                0.00010000                1.42745631                0.63503784               -1.58307724               -3.72055593               24.80685949               -5.61485444
               9.87530148                7.76958725               37.72513594                0.00010000                2.53227068                0.42075153               -1.44267069               -7.48515846               48.95926709               -2.93123864
              10.90012601                7.29933375               37.86427360                0.00010000                2.47106293               -0.18474582               -1.31067359               -7.98721128               48.81072199               -0.58321729
              11.92472274                6.82152127               37.99967951                0.00010000                2.43995484               -0.77512241               -1.18913004               -8.21893499               48.83568276                1.60066924
              12.94892511                6.34235547               38.13314243                0.00010000                2.34639462               -1.25206649               -1.07074559               -8.26539656               48.92147993                3.91506383
              13.97165063                5.86818952               38.26428151                0.06447268                1.83858087               -1.48955516               -0.93763999               -7.36315353               45.43239638                6.57825150
              14.98569673                5.41664585               38.32270083                0.24504321                0.78506918               -0.73314827                0.48098620               -3.45932342               21.57968424                5.80187732
              15.98735202                5.03361022               37.97241554                0.52705946                0.22548876               -0.00898077               -0.45035127               -0.08960547                0.60010718                1.60199121
              16.99020650                4.65353643               37.61057911                0.87991552                0.28544842                0.70638021               -1.58146482               -0.03244563                0.04084896               -2.61510467
               7.22469844                9.98655797               38.18127039                0.91005694                0.06842849               -0.15122311                0.37607426               -0.04770354                0.05824789                2.15102397
               8.22538272                9.61044079               37.81725278                0.37708570                0.23053464                0.28473262               -0.82792997                0.01542149                0.42745517               -1.79687219
               9.22930913                9.23395657               37.46054297                0.00010000                1.93757849                0.69682725               -1.96482664               -4.03846547               28.42851258               -5.36473985
              10.26413429                8.77443165               37.65617183                0.00010000                3.31628609                0.30399847               -1.70915582               -7.71588136               55.92963610               -2.51611838
              11.29563485                8.29770805               37.84274132                0.00010000                2.94764385               -0.38808687               -1.47878698               -7.62115227               55.56397562               -0.48697735
              12.32308717                7.81440191               38.02387397                0.00010000                2.38361581               -0.61685914               -1.28141872               -7.61676365               55.66926536                1.28303139
              13.34330717                7.33084434               38.20537258                0.00010000                1.79234637               -0.79460685               -1.11827180               -7.90068642               56.17109871                3.34191775
              14.35893409                6.85393164               38.39019825                0.07126904                1.07385852               -1.12707398               -0.98206768               -7.30661762               51.12269992                6.38684456
              15.36478434                6.40985996               38.46550011                0.25480460                0.27572930               -0.62978299                0.93448630               -3.43010263               23.52994701                5.45103706
              16.36444868                6.03327934               38.09506898                0.54071136                0.08067661               -0.06454199               -0.08166411               -0.09507977                0.65527520                1.61065821
              17.36639787                5.65968649               37.71238967                0.88821519                0.19491885                0.53035813               -1.29703765               -0.03650321                0.06165539               -2.60080968
               7.59816576               10.98545173               38.09891295                0.89888294                0.14964300               -0.07060618                0.14485113               -0.04750243               -0.00909925                1.86185181
               8.59966219               10.61370131               37.71471691                0.36270789                0.32773390                0.36830532               -1.14486611               -0.00054447                0.67484676               -1.61397210
               9.60472044               10.24120425               37.34408761                0.00010000                2.87850943                0.73085361               -2.32998365               -4.55597185               32.38909318               -3.99780284
              10.65723238                9.77566722               37.59372389                0.00010000                5.15061325               -1.02946620               -1.93474686               -6.12013923               62.84523922               -1.47148355
              11.70773270                9.29157202               37.82341905                0.00010000                4.10094021               -0.83927764               -1.60758687               -5.22875236               61.90068437               -0.29073485
              12.73925118                8.80918409               38.04454043                0.00010000                2.18244798               -0.43909496               -1.34071181               -4.84617232               62.05962703                0.72241878
              13.75138166                8.32646333               38.26927419                0.00010000                0.36257424                0.00732426               -1.14148616               -5.48981208               63.41305894                1.99670849
              14.74650266                7.84564804               38.51086179                0.07834884               -0.68173467                0.27100915               -1.04723667               -5.63778131               57.02570659                4.41330580
              15.73774697                7.40405019               38.60313048                0.26474468               -0.54393893               -0.49453783                1.37122092               -3.48653040               25.76288696                3.86777373
              16.73562389                7.03231938               38.21847489                0.55442886               -0.05424149               -0.13224828                0.29322472               -0.11933827                0.95864972                1.48299254
              17.73666214                6.66414359               37.81432618                0.89648640                0.10382504                0.37198397               -1.01047554               -0.04469442                0.00303784               -2.16570621
               7.96724923               11.98514585               38.01086002                0.94580635                0.23700862               -0.03058820               -0.10842903                0.17445216                0.87374141                1.57413037
               8.96961931               11.61780690               37.61617220                0.67673085                0.44872784                0.41055900               -1.44483416                0.16710235                2.34052438               -1.39852861
               9.97622378               11.24857364               37.25066798                0.49033322                6.08722109                0.73693958               -2.59911898               -6.04789395               36.90804792               -2.82606283
              11.09136373               10.75384232               37.54661361                0.44696938                9.06595719               -2.18248933               -2.07988271               -4.96942133               69.03812904               -0.90072272
              12.15754293               10.28092250               37.80785798                0.43660196                4.99543360               -1.06495192               -1.67634842               -2.43009270               67.36813269               -0.23854729
              13.19127241                9.80562001               38.05941758                0.44869339                1.97520265               -0.35640766               -1.34522382               -2.29446097               67.54619487                0.32797272
              14.19704698                9.33099082               38.31596527                0.48237553               -1.13403981                0.45274939               -1.09608411               -2.74687778               69.39932403                1.05889494
              15.16859161                8.85935182               38.59823110                0.54156935               -4.43322979                1.37037827               -0.99876404               -4.34218665               62.61047454                2.75205004
              16.10838238                8.39996920               38.71421073                0.63567294               -3.33115473               -0.40809881                1.69552240               -4.37233023               29.49605740                2.56569134
              17.10196852                8.03063438               38.33827524                0.78163222               -0.32634105               -0.16850021                0.65532378               -0.00768842                2.97563428                1.31671061
              18.10185556                7.66712617               37.92423767                0.95087161               -0.01129522                0.29825851               -0.68940905                0.16852227                1.08821727               -1.74034584
               4.28665489                2.13026679               39.86620617                1.00000000               -0.64700152               -0.70528242                2.37176762               -0.12318162               -1.69229654                1.82229934
               5.28018487                1.70105195               39.64128705                0.89674023               -0.61957932               -0.47452746                1.78696675               -0.08550287               -2.02356379               -0.58635918
               6.27426330                1.27000317               39.40993453                0.62726739               -0.82846303               -0.25678192                1.12599833               -0.45665016               -1.73982272               -1.17396450
               7.26361561                0.82718923               39.19102990                0.50475703               -1.22293056               -0.13584956                0.51694100               -0.64356716                0.24201689               -0.18698372
               8.24980469                0.36042886               39.00023421                0.44886883               -1.18175796                0.05947992               -0.12359158               -0.57679507                2.76811931               -0.16492516
               9.23998045               -0.13248594               38.83282102                0.44848113               -0.39418362                0.24685680               -0.80751824               -0.32494074                3.93790961                0.02572311
              10.24192102               -0.63716509               38.66596419                0.50105826                0.62509641                0.42779590               -1.47486420               -0.33811914                2.81576574                0.19518750
              11.25248238               -1.13487985               38.47593873                0.61009815                1.14091302                0.59977995               -2.08901893               -0.41071320                0.47828133                0.30198266
              12.26473928               -1.61905799               38.26155500                0.78525494                1.17297311                0.74937759               -2.68884396               -0.32200125               -1.57491317                0.54034795
              13.27594184               -2.09351737               38.02955306                1.00000000                1.12418619                0.91623838               -3.32642930               -0.15155304               -1.99891045                1.06209455
              14.28722300               -2.56458718               37.80599947                1.00000000                1.12811589                1.16638320               -3.94851672               -0.15897070               -1.55565702               -1.50471096
               4.71463791                3.12321397               39.77632001                1.00000000               -0.51762634               -0.69109446                2.09557273               -0.04297781                0.25227408                2.18181811
               5.70946165                2.69630667               39.54909824                0.63330547               -0.40048783               -0.40551137                1.47436721               -0.03348067                0.84070679               -1.18823601
               6.70662816                2.26743536               39.33376574                0.14468390                0.12527237               -0.11902930                0.97115660               -0.63922934                2.89093681               -3.27879521
               7.71196710                1.82583073               39.14738422                0.00010000                0.86230838               -0.25629067                0.43654828               -1.71330670                5.37551725               -2.47136056
               8.72387432                1.36102366               38.98067214                0.00010000                1.17804600               -0.77086859               -0.12908205               -2.78449204                7.75415738                0.11121630
               9.73552802                0.86998262               38.84027579                0.00010000                0.79312251               -0.35072241               -0.75122090               -3.40075501                9.21959737                0.85289821
              10.73973677                0.36711287               38.70112108                0.00010000                0.18968396                0.22591483               -1.35969993               -3.04300243                8.17438314                1.43247510
              11.73932170               -0.12888205               38.53841979                0.12656201                0.05506254                0.32602979               -1.90646934               -1.82371481                5.86578861                3.16834950
              12.74083803               -0.61156421               38.35239653                0.38816635                0.39346047                0.49996826               -2.44494831               -0.73911394                3.95239100                3.47235227
              13.74719091               -1.08435498               38.15120340                0.78845910                0.79325402                0.81360708               -2.98371009               -0.18325848                2.07419376                1.96676281
              14.75670311               -1.55292335               37.92741916                1.00000000                0.95121998                1.17096451               -3.56026606               -0.11000508                0.96382944               -1.87935301
               5.13960992                4.11644490               39.69386751                0.97027989               -0.43160498               -0.64887715                1.81431047               -0.06425817                0.24012376                2.41799176
               6.13529387                3.69294172               39.44492705                0.46077111               -0.38276332               -0.25257606                1.10619767               -0.07072058                1.20730483               -1.97435645
               7.13195465                3.26762259               39.21548791                0.02949153                0.02336536                0.19897124                0.52403542               -1.14350301                5.77177483               -6.59622566
               8.13576118                2.82206342               39.05802451                0.00010000                0.90041530               -0.74528263                0.29813839               -3.49710291               12.74394725               -2.88192595
               9.14996296                2.34501148               38.96655849                0.00010000                1.50574815               -1.28442092               -0.33514621               -5.27651063               15.61198520               -0.05056703
              10.16587614                1.86049961               38.86415097                0.00010000                1.49813391               -0.97058339               -0.81779523               -5.78934521               15.14017369                1.66001435
              11.17992564                1.36735321               38.76079128                0.00010000                1.44045131               -0.37029039               -1.26975681               -5.60569092               15.23205958                3.15501527
              12.19468516                0.87164075               38.65788059                0.03133031                1.27521501               -0.16583964               -1.72030401               -4.04558409               12.70169484                5.45349772
              13.20542994                0.39094137               38.50147750                0.19872988                0.94753205               -0.71158233               -1.97281086               -1.63507440                7.44038478                8.98759838
              14.21363581               -0.07724523               38.29055776                0.46839902                0.83648457                0.37521500               -2.52205203               -0.50611816                2.81733998                3.32046321
              15.22215963               -0.54116789               38.04093124                0.84683908                0.85238216                1.44333011               -3.24086196               -0.41792671                0.90332069               -2.12127843
               5.56035911                5.11023642               39.60902683                0.95347462               -0.34895626               -0.57719343                1.56770992               -0.05346631                0.06988340                2.25464542
               6.55686955                4.69125515               39.33702425                0.43691218               -0.28613566               -0.11919932                0.74970564               -0.01204818                0.43721030               -2.09406568
               7.55463640                4.27141478               39.07250561                0.01812301                0.38832958                0.40824094               -0.01474765               -1.96302518               10.77578920               -7.18674067
               8.56463614                3.81092508               39.00736689                0.00010000                1.26357598               -0.77279724               -0.22534444               -4.23661342               20.98133922               -2.09595457
               9.57990792                3.33533524               38.94474178                0.00010000                1.63816251               -0.86285932               -0.54897200               -5.25424805               21.55641821               -0.43785668
              10.59739939                2.85057096               38.88836584                0.00010000                1.82869461               -0.98155956               -0.89238022               -5.76834203               21.94326642                1.67765956
              11.61648181                2.35970706               38.83029584                0.00010000                1.87112260               -0.89976222               -1.19437445               -5.68595288               21.70521209                3.72114316
              12.63482184                1.86780116               38.76586832                0.03544701                2.02703510               -0.80495533               -1.42953135               -5.31036333               21.62043321                5.62927469
              13.65702251                1.37420414               38.70282462                0.19995587                1.71779815               -1.58417848               -1.45002296               -2.53247752               11.85640442                9.81094498
              14.66917781                0.92314932               38.43906415                0.45839563                0.95836926                0.02749182               -2.06795350               -0.16425212                0.98102315                3.26934039
              15.67618990                0.47594325               38.15675509                0.83634991                0.70120916                1.63314514               -2.88493682               -0.10246956                0.06898975               -1.94729957
               5.97650314                6.10490103               39.52374502                0.94240043               -0.26285889               -0.49035877                1.32462134               -0.05027442                0.05101515                2.23497832
               6.97387455                5.69055773               39.23039810                0.42225733               -0.17394592               -0.02857361                0.42020145                0.01355727                0.28001291               -1.99222779
               7.97302422                5.27578741               38.94170802                0.01173118                0.66169511                0.46340010               -0.44914998               -2.59605235               14.54438746               -6.34803528
               8.98710845                4.80660747               38.93360251                0.00010000                1.61039517               -0.26210754               -0.60207982               -5.38015396               28.62347902               -3.29421671
              10.00523212                4.32775430               38.92351526                0.00010000                1.95145126               -0.66878305               -0.78998406               -5.97733574               28.68078850               -0.56736528
              11.02613748                3.84086842               38.91308549                0.00010000                2.18721252               -0.97462175               -0.97906684               -6.29944913               28.80559123                1.68702321
              12.04897637                3.34935796               38.90161577                0.00010000                2.39216720               -1.17144880               -1.13552664               -6.29429479               28.89816769                3.88475043
              13.07398082                2.85554164               38.88895237                0.04153098                2.52279298               -1.37690586               -1.22372557               -6.07249285               28.75925264                6.24403636
              14.09943223                2.35925781               38.87052332                0.20890855                1.73154148               -1.33679055               -0.99283806               -3.07104064               14.99190075                7.47338868
              15.10861165                1.92330461               38.57778783                0.47096943                0.75450644                0.03921775               -1.65924320               -0.12791892                0.67994468                2.50448385
              16.11452236                1.49149501               38.27167540                0.84391895                0.59107117                1.42043949               -2.55305693               -0.02672782                0.02870832               -2.13267470
               6.38804022                7.10042925               39.43884876                0.93152910               -0.17859025               -0.40536771                1.08954812               -0.04959710                0.04904727                2.25780157
               7.38625432                6.69068368               39.12448400                0.40793002               -0.06873042                0.05265576                0.09644882                0.02166356                0.29001463               -1.92831574
               8.38666562                6.28068278               38.81497672                0.00551761                0.94059251                0.52211028               -0.85631917               -3.11617336               18.20164334               -6.06129350
               9.40506617                5.80568293               38.85870092                0.00010000                1.97173220                0.02530215               -0.93125025               -6.36035826               35.90088849               -3.32608684
              10.42610026                5.32195958               38.89939290                0.00010000                2.23702879               -0.48978772               -1.00949077               -6.86286406               35.85797019               -0.74299564
              11.44980675                4.83107852               38.93801006                0.00010000                2.49112141               -0.97138373               -1.07725712               -7.16788816               35.89876699                1.66146957
              12.47592269                4.33627808               38.97489582                0.00010000                2.68326977               -1.36326883               -1.11184185               -7.19037962               35.95484668                3.95891773
              13.50347214                3.84026304               39.00983451                0.04771292                2.59580238               -1.55778387               -1.08337674               -6.95422993               35.17867083                6.11931243
              14.52783874                3.34746833               39.02652000                0.21807167                1.54550395               -1.06838200               -0.53161825               -3.53817347               17.89335616                6.62402060
              15.53438222                2.92393367               38.71089320                0.48399126                0.57179012                0.06384551               -1.26909734               -0.12701618                0.67493096                2.05798736
              16.53927454                2.50435204               38.38202822                0.85187860                0.48923157                1.16853486               -2.24578974               -0.02716399                0.03204402               -2.45514812
               6.79500233                8.09679368               39.35425861                0.92067183               -0.09480480               -0.32196242                0.85641529               -0.04906831                0.04969311                2.26883458
               7.79405428                7.69161085               39.01905633                0.39370182                0.03495836                0.13283258               -0.22454878                0.02463245                0.33003763               -1.88514421
               8.79570150                7.28622961               38.68945928                0.00010000                1.22851030                0.59012294               -1.25642926               -3.54865442               21.83361479               -5.94422711
               9.81862449                6.80711351               38.78410166                0.00010000                2.34388750                0.25033016               -1.23928694               -7.22806199               43.08338031               -3.26708445
              10.84257925                6.31795854               38.87490104                0.00010000                2.49183569               -0.31883808               -1.21660150               -7.75880889               42.99895401               -0.76623575
              11.86846120                5.82144074               38.96280359                0.00010000                2.67025030               -0.92791857               -1.18245055               -8.06918004               43.00819824                1.60198435
              12.89598426                5.32209258               39.04841682                0.00010000                2.76223861               -1.41541660               -1.12086081               -8.07484498               43.01440860                3.92981034
              13.92370598                4.82438597               39.13104049                0.05401938                2.45069400               -1.58843912               -1.00495395               -7.54298581               41.33259007                6.22733364
              14.94499814                4.33789017               39.17804005                0.22730969                1.27408164               -0.87960785               -0.06940146               -3.72856208               20.55464135                6.25636728
              15.94918761                3.92458152               38.84032562                0.49711223                0.40720997                0.05004198               -0.88957819               -0.11610075                0.69321590                1.78907509
              16.95314234                3.51486571               38.48913210                0.85988613                0.39547259                0.94683954               -1.95335230               -0.02857904                0.03949402               -2.65688282
               7.19742452                9.09399000               39.26977124                0.90987926               -0.01134821               -0.23891411                0.62362878               -0.04879433                0.04982170                2.25694282
               8.19731104                8.69334033               38.91388192                0.37952665                0.13826718                0.21379791               -0.54502635                0.02445686                0.38280717               -1.86008212
               9.20018986                8.29248524               38.56461290                0.00010000                1.57324823                0.66026209               -1.65259190               -3.90937008               25.47522971               -5.84978798
              10.22877600                7.81068953               38.71026402                0.00010000                2.82034962                0.41611047               -1.53343196               -7.85776491               50.23404989               -3.11946122
              11.25659685                7.31558281               38.85067144                0.00010000                2.77565529               -0.22641895               -1.41214517               -8.36352458               50.08093809               -0.73287086
              12.28428911                6.81252015               38.98729537                0.00010000                2.74418543               -0.83826100               -1.29006727               -8.57717123               50.10415875                1.47353799
              13.31148056                6.30796975               39.12200928                0.00010000                2.62628696               -1.31582468               -1.15726077               -8.60394429               50.20095539                3.78436643
              14.33681485                5.80849426               39.25464038                0.06050335                2.07956887               -1.53041033               -0.99058633               -7.78193687               47.34689031                6.40696797
              15.35307194                5.32987617               39.32713035                0.23668986                0.91349085               -0.74259174                0.39563599               -3.74153314               22.96156925                6.03820478
              16.35508466                4.92493451               38.96761284                0.51031307                0.25313190                0.01035306               -0.51464569               -0.10599588                0.71291042                1.65777311
              17.35813458                4.52328883               38.59435414                0.86792449                0.30499153                0.74715233               -1.66822912               -0.03144691                0.04690291               -2.73416083
               7.59532578               10.09201540               39.18509319                0.89903543                0.07223964               -0.15624282                0.38914601               -0.04874436                0.06023534                2.24098996
               8.59604818                9.69588681               38.80878420                0.36541818                0.24195557                0.29722432               -0.86621196                0.01839712                0.46525071               -1.87755570
               9.60016490                9.29943485               38.44049904                0.00010000                2.11617191                0.72260064               -2.04528171               -4.25454762               29.20501775               -5.58958728
              10.63837162                8.81543572               38.63859178                0.00010000                3.66566236                0.27483993               -1.80848617               -8.11582650               57.39744369               -2.67410629
              11.67347814                8.31343016               38.82742404                0.00010000                3.30796119               -0.46555124               -1.58668686               -7.97890002               57.00796986               -0.60498907
              12.70453084                7.80467552               39.01053751                0.00010000                2.72265573               -0.70056221               -1.38701395               -7.92809463               57.08494795                1.18047222
              13.72793126                7.29577609               39.19373310                0.00010000                2.08149890               -0.86350544               -1.20865273               -8.17753012               57.56285458                3.22037874
              14.74616082                6.79377776               39.38007807                0.06715713                1.28979839               -1.17312314               -1.03554476               -7.66198133               53.38097445                6.17922346
              15.75372723                6.32303833               39.47452811                0.24620656                0.37471041               -0.63018273                0.86208847               -3.69896093               25.21132481                5.68230923
              16.75365503                5.92478858               39.09398305                0.52355981                0.10387622               -0.04707115               -0.13987888               -0.10862579                0.76922119                1.67259182
              17.75580475                5.52980876               38.69900867                0.87594563                0.21497208                0.56454247               -1.38411585               -0.03553939                0.06931681               -2.71714171
               7.98870681               11.09086514               39.10040570                0.88819226                0.15527095               -0.07435886                0.15431347               -0.04853874               -0.01106115                1.93979140
               8.99025952               10.69928482               38.70303737                0.35150504                0.34215913                0.38321155               -1.19175013               -0.00068408                0.72826183               -1.68792472
               9.99554999               10.30693725               38.32034230                0.00010000                3.11023203                0.75313811               -2.42035409               -4.81589842               33.29616607               -4.16522816
              11.05246416                9.81618633               38.57385205                0.00010000                5.61145314               -1.15100800               -2.04128004               -6.45438483               64.51499341               -1.56825496
              12.10777906                9.30627179               38.80678231                0.00010000                4.54585640               -0.95820820               -1.72151087               -5.47731207               63.50822448               -0.35750610
              13.14338129                8.79850890               39.03057966                0.00010000                2.55243329               -0.53950405               -1.45169033               -5.03088520               63.60785711                0.66454361
              14.15882772                8.29069964               39.25735610                0.00010000                0.64658453               -0.06692971               -1.23882022               -5.64746797               64.88018426                1.91991889
              15.15631298                7.78503180               39.49997528                0.07406769               -0.53729106                0.24583965               -1.11887299               -5.86029999               59.60751237                4.25083113
              16.14808190                7.31727252               39.61658108                0.25585068               -0.50856288               -0.47821666                1.31080974               -3.72394523               27.76202808                4.03525673
              17.14614172                6.92399309               39.22116614                0.53683482               -0.03492298               -0.11638036                0.24084791               -0.13385564                1.08404345                1.54390355
              18.14738344                6.53457968               38.80380858                0.88394052                0.12417193                0.40171835               -1.09816439               -0.04421046                0.00872263               -2.26083781
               8.37751566               12.09052822               39.00979653                0.94057510                0.24467266               -0.03369240               -0.10373715                0.18316692                0.90710665                1.64035908
               9.37996239               11.70355104               38.60145567                0.67127058                0.47148753                0.42662206               -1.49917305                0.16875669                2.46934377               -1.46338268
              10.38694541               11.31449762               38.22420552                0.48938376                6.49934989                0.75603633               -2.69395992               -6.41723185               37.97918724               -2.94563465
              11.50994939               10.79241556               38.52526449                0.44705653                9.73319580               -2.37707687               -2.19181761               -5.26305830               70.87901313               -0.95232654
              12.58160933               10.29426600               38.79050495                0.43672771                5.47679496               -1.20057890               -1.79605249               -2.54347898               69.11363107               -0.27346453
              13.61948529                9.79388544               39.04538004                0.44845908                2.34248376               -0.46234649               -1.46260198               -2.38102560               69.21973949                0.29672166
              14.62845900                9.29443750               39.30445807                0.48145604               -0.85516687                0.37378531               -1.20076571               -2.79641622               70.96118258                1.01370296
              15.60238195                8.79869455               39.58773762                0.53937305               -4.40859853                1.36627537               -1.08881234               -4.44127813               65.40522829                2.63366995
              16.54028703                8.31347400               39.73090762                0.63115123               -3.43555996               -0.37985189                1.63603001               -4.59116577               31.75282561                2.68125810
              17.53367075                7.92246097               39.34460435                0.77271610               -0.32698424               -0.15321132                0.60646992               -0.02864105                3.18865716                1.37332016
              18.53374735                7.53784312               38.91693290                0.94450742                0.00765992                0.32634395               -0.77667674                0.17460555                1.14045977               -1.81497527
               4.49740848                2.24002957               40.89009068                1.00000000               -0.65664647               -0.71813953                2.40665828               -0.12699190               -1.72516389                1.87901500
               5.49084201                1.78859049               40.65924831                0.88606991               -0.63287356               -0.47791302                1.80632523               -0.09161930               -2.09580314               -0.65806337
               6.48475101                1.33520468               40.42119226                0.62306503               -0.85884307               -0.25641716                1.12608633               -0.47960029               -1.82448544               -1.17310261
               7.47366515                0.86931718               40.19611832                0.50350719               -1.26678193               -0.13432059                0.50048247               -0.66447046                0.17204487               -0.19732893
               8.45941537                0.37833557               39.99882460                0.44877445               -1.21443071                0.06322412               -0.15970169               -0.59250937                2.66812549               -0.17165816
               9.44937654               -0.13997724               39.82447461                0.44825671               -0.39893628                0.25297180               -0.86419258               -0.33449973                3.83429286                0.02315623
              10.45143664               -0.67093892               39.65087314                0.49961404                0.65149128                0.43963039               -1.54747701               -0.34330441                2.75469048                0.19696437
              11.46240636               -1.19523122               39.45468461                0.60619053                1.18472740                0.61772654               -2.16680945               -0.41820464                0.45828637                0.30700448
              12.47513119               -1.70575047               39.23432143                0.77708248                1.21365403                0.76970745               -2.75986192               -0.33089174               -1.60053009                0.53293796
              13.48667944               -2.20618182               38.99596951                1.00000000                1.15111999                0.93496356               -3.38629195               -0.15870231               -2.03624832                1.07769639
              14.49815359               -2.70307253               38.76618819                1.00000000                1.14741467                1.18537467               -4.00623374               -0.15935597               -1.59023443               -1.51715339
               4.94757763                3.23284817               40.79744618                1.00000000               -0.52393679               -0.70570062                2.13030185               -0.04497827                0.27063308                2.23629426
               5.94233826                2.78381136               40.56391819                0.61498367               -0.39929855               -0.40738302                1.48950998               -0.04256870                0.92040204               -1.28755130
               6.93959166                2.33264051               40.34351196                0.13851452                0.15583701               -0.10722065                0.97779868               -0.69111726                3.01540098               -3.42935454
               7.94545500                1.86797398               40.15170268                0.00010000                0.92729136               -0.28628768                0.42593124               -1.80175697                5.46326127               -2.51264220
               8.95813749                1.37896781               39.97924871                0.00010000                1.26068901               -0.79135884               -0.15796018               -2.91004652                7.79081156               -0.00230857
               9.97066878                0.86255248               39.83252399                0.00010000                0.87465490               -0.36219500               -0.80249802               -3.55632024                9.23180135                0.78382357
              10.97563058                0.33345739               39.68720114                0.00010000                0.24806548                0.23381666               -1.42970681               -3.20308591                8.23493879                1.41809907
              11.97563009               -0.18905395               39.51899832                0.12089922                0.08334957                0.34110344               -1.98450655               -1.94795650                5.97780011                3.17047334
              12.97729758               -0.69805339               39.32759053                0.37596603                0.40616782                0.50539520               -2.51974067               -0.78570644                4.07886946                3.57919853
              13.98375345               -1.19683219               39.12101478                0.76461928                0.80765795                0.82811419               -3.05256803               -0.20247018                2.18222706                2.04001336
              14.99345073               -1.69121878               38.89146351                1.00000000                0.96972858                1.19922777               -3.62643419               -0.11965241                1.05092353               -1.93002440
               5.39458253                4.22591555               40.71220425                0.95701370               -0.43842250               -0.66744736                1.85097650               -0.06884094                0.25915144                2.48788633
               6.39019830                3.78044283               40.45606535                0.44598483               -0.39082384               -0.25096595                1.11971280               -0.07965271                1.29145634               -2.09595016
               7.38676605                3.33306027               40.22070493                0.02586578                0.05522051                0.22846361                0.51905458               -1.25644448                6.10114281               -6.94367208
               8.39130271                2.86359143               40.06094531                0.00010000                0.99349449               -0.77025524                0.28316979               -3.68082893               13.04492950               -3.15981639
               9.40663594                2.36250839               39.96297086                0.00010000                1.62289224               -1.32125875               -0.38509285               -5.49716630               15.77258192               -0.26498105
              10.42376056                1.85277886               39.85564770                0.00010000                1.61727054               -0.99611279               -0.88655931               -6.06820146               15.39015329                1.52397560
              11.43898135                1.33373742               39.74769974                0.00010000                1.55987294               -0.37550307               -1.35340482               -5.90117473               15.49597931                3.11421980
              12.45495801                0.81159085               39.64020232                0.02793522                1.41069740               -0.16365860               -1.82107339               -4.31079867               13.06999669                5.51609994
              13.46719530                0.30435743               39.48135647                0.19110055                1.04187053               -0.76838867               -2.05614224               -1.77396209                7.78003462                9.22692472
              14.47579542               -0.18961954               39.26495353                0.45236264                0.86692155                0.37060366               -2.60180460               -0.55480297                2.92205139                3.44770564
              15.48453373               -0.67908797               39.00814738                0.83512136                0.87383035                1.51418892               -3.31550381               -0.45544709                0.92459750               -2.18953214
               5.83714625                5.21949922               40.62489820                0.94078885               -0.35457571               -0.59594870                1.60402017               -0.05518133                0.06805329                2.34268088
               6.83360049                4.77879205               40.34456664                0.42305178               -0.29160382               -0.11632695                0.75721764               -0.01306073                0.46378562               -2.19775091
               7.83131417                4.33720978               40.07225601                0.01496202                0.43949026                0.43900002               -0.03509007               -2.07951110               11.10589803               -7.52703111
               8.84239030                3.85256887               40.00486557                0.00010000                1.38462785               -0.75859506               -0.27608334               -4.45143151               21.52736393               -2.48275346
               9.85900673                3.35254264               39.93893287                0.00010000                1.78427149               -0.88305938               -0.61568003               -5.49012855               22.03267318               -0.66294378
              10.87807573                2.84263022               39.87904672                0.00010000                1.98941810               -1.00425432               -0.97537369               -6.03799534               22.42626201                1.53844499
              11.89879509                2.32594733               39.81790852                0.00010000                2.03591857               -0.91855851               -1.28823913               -5.97373145               22.24114134                3.67133809
              12.91879410                1.80767288               39.75112141                0.03201804                2.21168156               -0.82295525               -1.52593020               -5.63876183               22.29414741                5.70198748
              13.94302873                1.28657883               39.68775122                0.19250730                1.86543474               -1.66897035               -1.57354396               -2.74609514               12.34388133               10.05285463
              14.95610280                0.81057989               39.41796671                0.44325166                1.01249666                0.02127101               -2.15596736               -0.20023142                1.08369661                3.37359534
              15.96327866                0.33906500               39.12749750                0.82544850                0.71758629                1.72914578               -2.96971319               -0.10794150                0.06785739               -2.01046000
               6.27489326                6.21399658               40.53714948                0.93008818               -0.26667278               -0.50510347                1.35581553               -0.05198835                0.05234621                2.32778734
               7.27222653                5.77811630               40.23458955                0.40889464               -0.17471280               -0.02568170                0.41820795                0.01533336                0.29977247               -2.08021885
               8.27139900                5.34184027               39.93705044                0.00876145                0.73573490                0.48740308               -0.48223299               -2.72319457               14.94088686               -6.62165727
               9.28694123                4.84841953               39.92726450                0.00010000                1.76865098               -0.24785082               -0.66658023               -5.62849811               29.35659564               -3.57082813
              10.30677202                4.34484720               39.91521901                0.00010000                2.13273659               -0.67934006               -0.87209977               -6.23929524               29.39301904               -0.78800784
              11.32959596                3.83269377               39.90284863                0.00010000                2.38460210               -0.99939978               -1.07254359               -6.58079992               29.52988960                1.54350354
              12.35446406                3.31536625               39.88979663                0.00010000                2.59776566               -1.19929101               -1.23385572               -6.59618223               29.67082907                3.81555009
              13.38155127                2.79513175               39.87626921                0.03796046                2.74511618               -1.40463778               -1.32052166               -6.44402300               29.71304379                6.24704924
              14.40936639                2.27097803               39.85997987                0.20124100                1.88766791               -1.38806830               -1.12492294               -3.31289151               15.66163061                7.70417888
              15.41930463                1.81080588               39.56077545                0.45545456                0.80191446                0.05277832               -1.74750346               -0.16598055                0.80276782                2.58270919
              16.42540467                1.35549494               39.24571433                0.83277991                0.61000449                1.49835308               -2.64330027               -0.02683564                0.03098319               -2.22232431
               6.70786705                7.20939716               40.44987330                0.91949975               -0.18035812               -0.41666300                1.11590815               -0.05092259                0.05031028                2.35507721
               7.70606347                6.77827841               40.12538964                0.39495638               -0.06600017                0.05739172                0.08485180                0.02496032                0.31251422               -2.01220983
               8.70654705                6.34695784               39.80618469                0.00273931                1.03749639                0.54474065               -0.90203347               -3.25688736               18.68587941               -6.31814806
               9.72681340                5.84761186               39.84901871                0.00010000                2.16997665                0.03461511               -1.00658281               -6.64069380               36.81979554               -3.56341339
              10.74994658                5.33895583               39.88885075                0.00010000                2.45636441               -0.50237457               -1.10191448               -7.15756989               36.77840677               -0.93889054
              11.77594069                4.82264222               39.92675741                0.00010000                2.72434441               -1.00175155               -1.17758748               -7.47272594               36.83828234                1.51686851
              12.80443347                4.30196151               39.96331179                0.00010000                2.91805849               -1.39989122               -1.21061551               -7.50957800               36.94013740                3.86471056
              13.83430186                3.77958012               39.99860316                0.04397479                2.83316444               -1.58341007               -1.17011865               -7.35895949               36.44029151                6.06924630
              14.86109676                3.25881747               40.02061619                0.21015987                1.69822043               -1.09690553               -0.65933051               -3.80559235               18.77455116                6.86821172
              15.86826627                2.81163545               39.69780075                0.46806274                0.61335296                0.08574707               -1.35358023               -0.15931993                0.80691762                2.12559311
              16.87336382                2.36903206               39.35912627                0.84047288                0.50975524                1.23001831               -2.33941454               -0.02676663                0.03652866               -2.56617639
               7.13611229                8.20566332               40.36293136                0.90899411               -0.09472447               -0.33083422                0.87879571               -0.05024442                0.05104916                2.36673702
               8.13516505                7.77926413               40.01670596                0.38115979                0.04077590                0.13993664               -0.24550257                0.02875617                0.35734226               -1.96795282
               9.13692781                7.35273508               39.67660421                0.00010000                1.34821564                0.61371684               -1.31482276               -3.70481304               22.41491309               -6.19576236
              10.16212936                6.84911183               39.77129196                0.00010000                2.58312224                0.25480202               -1.32437687               -7.54124113               44.19147121               -3.48379623
              11.18859025                6.33479971               39.86224884                0.00010000                2.75032045               -0.34012497               -1.31688363               -8.08431215               44.11469748               -0.94388796
              12.21713577                5.81265874               39.95047851                0.00010000                2.93721748               -0.96920577               -1.28662940               -8.39519497               44.14218893                1.46093543
              13.24733460                5.28736842               40.03675476                0.00010000                3.01901765               -1.46174935               -1.21631805               -8.40147300               44.18875378                3.81506601
              14.27751612                4.76346355               40.12066714                0.05014184                2.69323020               -1.61444102               -1.07548908               -7.95814987               42.92292998                6.12284292
              15.30119921                4.24903992               40.17680954                0.21915959                1.41937578               -0.89477899               -0.18696808               -4.00419157               21.67656100                6.50825828
              16.30590364                3.81252082               39.83105583                0.48081090                0.44384603                0.07364029               -0.96881337               -0.14122189                0.82959645                1.85208386
              17.31007613                3.38009531               39.46914564                0.84822462                0.41724911                0.99722877               -2.04904590               -0.02764448                0.04549834               -2.77905713
               7.55966055                9.20278047               40.27609536                0.89849815               -0.00937120               -0.24600052                0.64196357               -0.04989108                0.05134163                2.35337458
               8.55956684                8.78107714               39.90828231                0.36743428                0.14712714                0.22350461               -0.57516291                0.02842713                0.41671304               -1.94332204
               9.56260309                8.35923218               39.54773694                0.00010000                1.71785558                0.68501727               -1.72303957               -4.08475783               26.16004466               -6.09753274
              10.59392395                7.85270790               39.69446730                0.00010000                3.10551705                0.41248326               -1.62788708               -8.20250205               51.53505395               -3.31756973
              11.62471343                7.33215334               39.83603070                0.00010000                3.07720673               -0.26511578               -1.51890641               -8.70957619               51.38388065               -0.88938219
              12.65546808                6.80325811               39.97387817                0.00010000                3.04428872               -0.89658402               -1.39664723               -8.90427564               51.41363715                1.34358255
              13.68559921                6.27272652               40.10999722                0.00010000                2.89996426               -1.37316662               -1.24842555               -8.91388535               51.53420507                3.65581392
              14.71346737                5.74729130               40.24446978                0.05645565                2.31782239               -1.56411724               -1.04542808               -8.17810887               49.28450271                6.24670574
              15.73195565                5.24092189               40.33061355                0.22825084                1.04595351               -0.74922527                0.29046849               -4.01381986               24.35779717                6.29644335
              16.73438644                4.81310826               39.96212263                0.49360518                0.28531514                0.03285251               -0.58802779               -0.12481735                0.85062958                1.72129159
              17.73766196                4.38897664               39.57721453                0.85599367                0.32755191                0.78969530               -1.76508539               -0.03032089                0.05421530               -2.85917057
               7.97852112               10.20074331               40.18905331                0.88799572                0.07607574               -0.16181259                0.40361683               -0.04987717                0.06227669                2.33582613
               8.97928188                9.78373422               39.79992854                0.35377506                0.25403894                0.30971004               -0.90543542                0.02080507                0.50780748               -1.96342293
               9.98360190                9.36643543               39.41963733                0.00010000                2.29381419                0.74805125               -2.12739635               -4.45733668               30.00304452               -5.82613710
              11.02515816                8.85736150               39.62000211                0.00010000                4.01233083                0.24607554               -1.91153539               -8.48848705               58.89885825               -2.84014679
              12.06384852                8.32949740               39.81100758                0.00010000                3.66594544               -0.54061734               -1.69919139               -8.30891470               58.49159495               -0.72754322
              13.09847707                7.79472706               39.99613369                0.00010000                3.05875928               -0.78128379               -1.49605537               -8.21129288               58.54839130                1.07686243
              14.12502370                7.25990509               40.18119953                0.00010000                2.36407523               -0.92948928               -1.29821845               -8.42776672               59.01739382                3.09958674
              15.14575858                6.73218120               40.36948735                0.06300917                1.50410749               -1.21430971               -1.08179974               -7.99445560               55.67251887                5.97126867
              16.15510585                6.23405541               40.48274188                0.23750345                0.47969819               -0.62730401                0.77057775               -3.95811585               26.91434092                5.93556764
              17.15535254                5.81317787               40.09227141                0.50643155                0.13135519               -0.02660573               -0.20719489               -0.12376905                0.90820075                1.74194663
              18.15773296                5.39588922               39.68470736                0.86375160                0.23804165                0.60129848               -1.48185264               -0.03437800                0.07836408               -2.83951839
               8.39268118               11.19954422               40.10199922                0.87745122                0.16096394               -0.07859712                0.16501712               -0.04968963               -0.01329595                2.02203179
               9.39429082               10.78727135               39.69088191                0.34025877                0.35739515                0.39842172               -1.23997247               -0.00178505                0.78821519               -1.76633905
              10.39982908               10.37419321               39.29568053                0.00010000                3.34007076                0.77495395               -2.51201683               -5.06225678               34.23034066               -4.34043210
              11.46109223                9.85762941               39.55289829                0.00010000                6.06702448               -1.26952960               -2.15158063               -6.76829062               66.22449805               -1.67037128
              12.52116957                9.32134099               39.78898884                0.00010000                4.98711486               -1.07447369               -1.83948108               -5.70727469               65.15984393               -0.42627191
              13.56083453                8.78763243               40.01550663                0.00010000                2.92100781               -0.63866835               -1.56434936               -5.19836273               65.20759686                0.60667102
              14.57958973                8.25413673               40.24449779                0.00010000                0.92967002               -0.14220775               -1.33093161               -5.78689857               66.40986340                1.84453030
              15.57942793                7.72300511               40.48848433                0.06972669               -0.38965320                0.21596718               -1.17182751               -6.06364384               62.23617592                4.07840576
              16.57179666                7.22837581               40.62934668                0.24693535               -0.46753404               -0.45570682                1.23254542               -3.94813280               29.79937545                4.21860848
              17.57007725                6.81257614               40.22329184                0.51928790               -0.01224774               -0.09767547                0.17975021               -0.15046780                1.23437875                1.61100686
              18.57155171                6.40100260               39.79236289                0.87147672                0.14744585                0.43444126               -1.19670578               -0.04361827                0.01559365               -2.36134848
               8.80207308               12.19917137               40.00878528                0.93528529                0.25241154               -0.03728512               -0.09785465                0.19231854                0.94238385                1.71020808
               9.80459719               11.79170266               39.58618874                0.66578341                0.49628136                0.44313111               -1.55502510                0.16879420                2.60998941               -1.53192787
              10.81199870               11.38193451               39.19678878                0.48845023                6.90236877                0.77413010               -2.78997224               -6.76962555               39.08328990               -3.07033210
              11.94264457               10.83197090               39.50277726                0.44712682               10.38506469               -2.56585035               -2.30757476               -5.54109580               72.75921459               -1.00531011
              13.01970000               10.30800792               39.77193693                0.43684543                5.95347525               -1.33330640               -1.91978389               -2.64781800               70.90289019               -0.30778559
              14.06171407                9.78195369               40.03016554                0.44823694                2.71065297               -0.56787401               -1.58133597               -2.45939540               70.94522001                0.26694894
              15.07391306                9.25706093               40.29194995                0.48051980               -0.57337229                0.29242017               -1.29903471               -2.84032452               72.58192440                0.97110570
              16.05024663                8.73650055               40.57645485                0.53715972               -4.36704483                1.34954381               -1.15475826               -4.52411348               68.25866750                2.50503015
              16.98657216                8.22494128               40.74693133                0.62660354               -3.52651209               -0.34345302                1.55853050               -4.78625950               34.06684236                2.80783839
              17.97971639                7.81122436               40.35040464                0.76380150               -0.32822455               -0.13517801                0.54944005               -0.05424831                3.43285660                1.43504324
              18.98000767                7.40457804               39.90870413                0.93821213                0.02912844                0.35754366               -0.87440945                0.18096375                1.19699477               -1.89416235
               4.71383635                2.35313608               41.91433934                1.00000000               -0.66691184               -0.73097965                2.44408843               -0.13149468               -1.75746942                1.93923579
               5.70716723                1.87855092               41.67741356                0.87547568               -0.64663858               -0.48123174                1.82738750               -0.09804947               -2.16956713               -0.73418217
               6.70090358                1.40190172               41.43245626                0.61886282               -0.88715368               -0.25661301                1.12750923               -0.49903870               -1.91176627               -1.16934317
               7.68942416                0.91207393               41.20103955                0.50225469               -1.30463367               -0.13230281                0.48441718               -0.68057064                0.09811167               -0.20875189
               8.67481090                0.39614748               40.99704018                0.44866506               -1.24031937                0.06837477               -0.19763887               -0.60394087                2.55990496               -0.17905519
               9.66461777               -0.14812157               40.81553717                0.44803719               -0.40030355                0.26075797               -0.92462119               -0.34208006                3.71879401                0.01941888
              10.66680483               -0.70588180               40.63501465                0.49817581                0.67910225                0.45300517               -1.62693715               -0.34664236                2.68228320                0.19785318
              11.67819982               -1.25736719               40.43260254                0.60224544                1.23194702                0.63768909               -2.25565655               -0.42393073                0.43449130                0.31175158
              12.69144377               -1.79493742               40.20635776                0.76887806                1.25751536                0.79221349               -2.84050448               -0.33882180               -1.61631326                0.52284212
              13.70335012               -2.32205399               39.96182722                1.00000000                1.17685894                0.95152458               -3.43813073               -0.16593958               -2.06128248                1.08957716
              14.71498095               -2.84548089               39.72587479                1.00000000                1.16308302                1.19978662               -4.04754580               -0.15837393               -1.61809738               -1.52530574
               5.18710657                3.34582628               41.81892604                1.00000000               -0.53026480               -0.71927353                2.16510197               -0.04704921                0.28870318                2.29554639
               6.18180392                2.87373860               41.57888844                0.59661594               -0.39774404               -0.40883276                1.50378839               -0.05178083                1.00588681               -1.38938057
               7.17915168                2.39933559               41.35332171                0.13232876                0.18458260               -0.09483137                0.98353476               -0.73968608                3.14640970               -3.58583364
               8.18549557                1.91075090               41.15590284                0.00010000                0.98587811               -0.31848656                0.41343949               -1.87673393                5.54970408               -2.56004939
               9.19886925                1.39683123               40.97751294                0.00010000                1.33580215               -0.80598908               -0.19047385               -3.01817972                7.81881606               -0.12915986
              10.21221161                0.85448601               40.82422583                0.00010000                0.95459857               -0.37110230               -0.85855981               -3.69252157                9.22782344                0.70419370
              11.21796122                0.29864825               40.67252695                0.00010000                0.31383511                0.24060152               -1.50781957               -3.34952700                8.27807598                1.39727317
              12.21848831               -0.25099030               40.49872966                0.11522999                0.12188691                0.36034239               -2.07520769               -2.07174873                6.08085107                3.16282220
              13.22039896               -0.78701528               40.30200172                0.36372755                0.42370753                0.51282942               -2.60508598               -0.83563994                4.20701447                3.68335060
              14.22696247               -1.31253874               40.09015204                0.74079176                0.82125817                0.84054699               -3.11683911               -0.22659698                2.29243194                2.10737820
              15.23682412               -1.83348303               39.85489048                1.00000000                0.98616544                1.22441824               -3.68206587               -0.13028187                1.13660603               -1.97848916
               5.65707073                4.33875061               41.73088704                0.94369307               -0.44484222               -0.68407382                1.88370211               -0.07379803                0.27972855                2.56430590
               6.65262231                3.87037426               41.46732131                0.43117318               -0.39865891               -0.24813327                1.13000374               -0.08809915                1.37922455               -2.21951964
               7.64909755                3.40000509               41.22586900                0.02221054                0.08857638                0.25965285                0.51247182               -1.36831564                6.43956278               -7.30683418
               8.65439384                2.90570420               41.06368791                0.00010000                1.08073248               -0.79000420                0.26125409               -3.84831998               13.34497053               -3.46210603
               9.67071220                2.38002770               40.95885663                0.00010000                1.72782414               -1.35015074               -0.43915456               -5.68684179               15.92272088               -0.50406937
              10.68895032                1.84445638               40.84641978                0.00010000                1.72891975               -1.01735441               -0.96135535               -6.31800478               15.63345098                1.36705320
              11.70529060                1.29893023               40.73372318                0.00010000                1.67390250               -0.38056594               -1.44505426               -6.16739930               15.74812189                3.05888215
              12.72242837                0.74983966               40.62145912                0.02450734                1.54944110               -0.16178394               -1.93005653               -4.56186419               13.43481141                5.57017695
              13.73627942                0.21531917               40.46035465                0.18341458                1.14287791               -0.81734411               -2.14609262               -1.92134137                8.12040322                9.44531674
              14.74528593               -0.30524305               40.23852167                0.43637215                0.89922330                0.36690214               -2.68908860               -0.60843527                3.01998327                3.57186707
              15.75426389               -0.82099253               39.97462116                0.82351139                0.89779581                1.58250637               -3.39594064               -0.49188070                0.94343026               -2.25678957
               6.12238330                5.33214481               41.64110723                0.92814056               -0.35958463               -0.61344633                1.63655852               -0.05692801                0.06589688                2.43633095
               7.11878745                4.86877594               41.35216860                0.40920641               -0.29639321               -0.11219521                0.76177824               -0.01347195                0.48977823               -2.30555388
               8.11645543                4.40452865               41.07180381                0.01177116                0.48595538                0.47102477               -0.05668691               -2.18778318               11.43463154               -7.88256787
               9.12850656                3.89495082               41.00184522                0.00010000                1.49623962               -0.73332160               -0.32929197               -4.65112336               22.07386641               -2.89757288
              10.14638023                3.36982822               40.93242818                0.00010000                1.92212150               -0.89757201               -0.68771491               -5.70078664               22.51277035               -0.90957605
              11.16694899                2.83413892               40.86885836                0.00010000                2.14248635               -1.02142931               -1.06546007               -6.27919839               22.91085280                1.38110752
              12.18922995                2.29103693               40.80453105                0.00010000                2.19565477               -0.93322679               -1.39132024               -6.23415579               22.77993885                3.61017055
              13.21086209                1.74577403               40.73534972                0.02854656                2.39124416               -0.84193910               -1.63393046               -5.93845000               22.95564752                5.77555089
              14.23705484                1.19663784               40.67135374                0.18498929                2.01216872               -1.74213770               -1.71241131               -2.95477720               12.83080613               10.28023819
              15.25110546                0.69479930               40.39594481                0.42815169                1.07153151                0.01838999               -2.25138084               -0.24120614                1.20031827                3.48459032
              16.25848547                0.19816710               40.09736083                0.81458436                0.73800075                1.82061444               -3.06305386               -0.11320097                0.06530447               -2.07716469
               6.58266992                6.32648168               41.55086133                0.91770541               -0.27008843               -0.51979465                1.38650434               -0.05361010                0.05323023                2.42499294
               7.57996903                5.86813036               41.23876226                0.39546760               -0.17514553               -0.02264326                0.41579672                0.01748336                0.31985668               -2.17399895
               8.57916701                5.40942559               40.93206336                0.00576155                0.80513838                0.51187025               -0.51562053               -2.83969451               15.33830783               -6.90908045
               9.59607180                4.89103777               40.92027090                0.00010000                1.91706809               -0.22818092               -0.73354335               -5.85299353               30.09368387               -3.86400549
              10.61750837                4.36207626               40.90607327                0.00010000                2.30429186               -0.68381432               -0.95976193               -6.47302540               30.11491411               -1.02688191
              11.64215764                3.82402780               40.89163462                0.00010000                2.57320049               -1.01764515               -1.17431057               -6.83240988               30.26545366                1.38573035
              12.66897238                3.28026569               40.87693866                0.00010000                2.79504130               -1.22113817               -1.34323449               -6.86885907               30.45542935                3.73970496
              13.69805846                2.73300088               40.86254194                0.03429499                2.95931111               -1.42619954               -1.43198696               -6.78388933               30.65709468                6.25480833
              14.72815860                2.18047642               40.84802486                0.19349660                2.04370391               -1.43174756               -1.27510961               -3.53994004               16.33785224                7.94492300
              15.73893254                1.69512475               40.54283776                0.44000091                0.85528344                0.06829276               -1.84225474               -0.20758119                0.94978158                2.67006809
              16.74526427                1.21541976               40.21880939                0.82171429                0.63317275                1.57150517               -2.74225139               -0.02706844                0.03405426               -2.31765234
               7.03801375                7.32174892               41.46116692                0.90747273               -0.18205300               -0.42876626                1.14359132               -0.05237523                0.05136554                2.45718600
               8.03619322                6.86832307               41.12618103                0.38196598               -0.06298056                0.06143835                0.07330217                0.02881879                0.33672266               -2.10269298
               9.03675414                6.41476605               40.79693605                0.00010000                1.13013997                0.56682628               -0.94855956               -3.38445563               19.17593597               -6.58904427
              10.05879602                5.89038720               40.83856927                0.00010000                2.35877772                0.04756164               -1.08494634               -6.89383181               37.74874673               -3.81513214
              11.08392969                5.35615193               40.87735461                0.00010000                2.66576731               -0.50877100               -1.20053314               -7.42114483               37.71515293               -1.14858852
              12.11211136                4.81378602               40.91445831                0.00010000                2.94750006               -1.02445499               -1.28694062               -7.74481692               37.79837219                1.36245732
              13.14287969                4.26661417               40.95068351                0.00010000                3.14311053               -1.42786097               -1.32135106               -7.79688341               37.95049639                3.76924221
              14.17497357                3.71725003               40.98643214                0.04019406                3.06262364               -1.60123382               -1.27233103               -7.72799740               37.69968074                6.03403377
              15.20413216                3.16800289               41.01333339                0.20215799                1.85184608               -1.12092225               -0.80745452               -4.05514030               19.66692341                7.13008829
              16.21201049                2.69616516               40.68382159                0.45222516                0.66109596                0.10882845               -1.44528412               -0.19473916                0.96834412                2.20113447
              17.21735408                2.22959720               40.33523993                0.82914877                0.53435888                1.28882718               -2.44287329               -0.02637495                0.04207702               -2.68432346
               7.48847410                8.31790636               41.37183453                0.89726816               -0.09458295               -0.34066864                0.90269207               -0.05153776                0.05235630                2.46943273
               8.48752827                7.86935913               41.01414628                0.36858982                0.04698306                0.14641212               -0.26664064                0.03331264                0.38772990               -2.05718719
               9.48941376                7.42076211               40.66316283                0.00010000                1.46405067                0.63677082               -1.37383531               -3.84592478               23.00744470               -6.46162016
              10.51680929                6.89198900               40.75761412                0.00010000                2.81364455                0.26203945               -1.41333096               -7.82369827               45.31717014               -3.71334546
              11.54568665                6.35190084               40.84856337                0.00010000                2.99948877               -0.35577471               -1.42375740               -8.37581974               45.25468599               -1.13202667
              12.57679906                5.80353870               40.93707100                0.00010000                3.19420195               -1.00247030               -1.39978941               -8.68542008               45.30739461                1.31439138
              13.60957069                5.25170847               41.02409046                0.00010000                3.26553676               -1.49864494               -1.32290253               -8.69345680               45.40358621                3.70373236
              14.64210980                4.70097620               41.10953071                0.04620769                2.92849895               -1.63209329               -1.15977161               -8.33677489               44.52027083                6.03794378
              15.66814067                4.15805797               41.17430069                0.21090589                1.56668218               -0.90650944               -0.32663526               -4.26160052               22.81126289                6.78100706
              16.67344344                3.69730132               40.82094935                0.46452928                0.48660018                0.09898033               -1.05669676               -0.16879470                0.99720827                1.92188140
              17.67787268                3.24119630               40.44815118                0.83664073                0.44292359                1.04732510               -2.15564798               -0.02645175                0.05292181               -2.90911400
               7.93407746                9.31493554               41.28261051                0.88709255               -0.00737414               -0.25391512                0.66197266               -0.05108565                0.05289180                2.45457110
               8.93400372                8.87125131               40.90237866                0.35525820                0.15641541                0.23298110               -0.60601903                0.03289776                0.45515580               -2.03275649
               9.93720577                8.42750147               40.53015211                0.00010000                1.85898036                0.71032062               -1.79482546               -4.24424353               26.86160362               -6.35895538
              10.97118332                7.89562799               40.67770628                0.00010000                3.38289166                0.41063949               -1.72663066               -8.51478903               52.86164139               -3.52687984
              12.00486360                7.34903643               40.82029331                0.00010000                3.37060034               -0.29898387               -1.63219637               -9.01997873               52.71981134               -1.05338877
              13.03859533                6.79373661               40.95936242                0.00010000                3.33547258               -0.94771950               -1.51112170               -9.19437541               52.76520253                1.21144270
              14.07157305                6.23664127               41.09704076                0.00010000                3.16466223               -1.42206071               -1.34811162               -9.18868308               52.92386111                3.53329315
              15.10188857                5.68460817               41.23373182                0.05240111                2.55009927               -1.58938068               -1.10829250               -8.54047639               51.23784170                6.10381287
              16.12257504                5.14987270               41.33293972                0.21976824                1.18038477               -0.75207096                0.16272564               -4.26870445               25.76725223                6.57649484
              17.12549627                4.69814476               40.95585228                0.47690560                0.32300238                0.05784890               -0.67106244               -0.14594307                1.02031553                1.79109834
              18.12903508                4.25054371               40.55905243                0.84413721                0.35388132                0.83368631               -1.87395129               -0.02873310                0.06327333               -2.99226901
               8.37482085               10.31282806               41.19316553                0.87691490                0.07994548               -0.16808670                0.41958527               -0.05102756                0.06430774                2.43538287
               9.37562030                9.87401875               40.79067549                0.34204192                0.26656837                0.32232623               -0.94579372                0.02396352                0.55648864               -2.05512936
              10.38015222                9.43496852               40.39795112                0.00010000                2.46791175                0.77378503               -2.21101752               -4.64411513               30.82344619               -6.07467703
              11.42497854                8.90020179               40.60036107                0.00010000                4.35131209                0.21878833               -2.01898578               -8.82924344               60.43373112               -3.01514196
              12.46717846                8.34592116               40.79344022                0.00010000                4.01640912               -0.61097182               -1.81773844               -8.60567405               60.01630121               -0.85484696
              13.50530672                7.78458431               40.98061640                0.00010000                3.38735089               -0.85630642               -1.61124564               -8.46124799               60.06340760                0.97325184
              14.53492548                7.22326726               41.16776873                0.00010000                2.63810598               -0.99007237               -1.39139810               -8.64607374               60.54038624                2.98430685
              15.55806884                6.66918859               41.35844207                0.05873269                1.71522569               -1.24878767               -1.12862777               -8.29758342               57.99373660                5.77303921
              16.56922999                6.14301655               41.48993966                0.22876106                0.58923649               -0.62087298                0.65660169               -4.20217173               28.63560261                6.21114950
              17.56985357                5.69845830               41.08983915                0.48935058                0.16350700               -0.00323878               -0.28453456               -0.14148550                1.07881991                1.81772446
              18.57250013                5.25787003               40.66937162                0.85163936                0.26465593                0.64061171               -1.59192071               -0.03291976                0.08914698               -2.96971513
               8.81067552               11.31157381               41.10370604                0.86666853                0.16669946               -0.08338931                0.17709684               -0.05081887               -0.01561677                2.10847837
               9.81234252               10.87769784               40.67823792                0.32893418                0.37324486                0.41400328               -1.28971813               -0.00291339                0.85678300               -1.84967768
              10.81814042               10.44297717               40.27010196                0.00010000                3.56516491                0.79529766               -2.60503795               -5.29118039               35.19309703               -4.52429980
              11.88364582                9.90000376               40.53082043                0.00010000                6.51135903               -1.38251819               -2.26615511               -7.05765923               67.97394551               -1.77823816
              12.94836760                9.33681700               40.76999269                0.00010000                5.41892299               -1.18535331               -1.96292270               -5.91464370               66.85791748               -0.49708656
              13.99202428                8.77661048               40.99929268                0.00010000                3.28398465               -0.73388521               -1.68146923               -5.34536182               66.86439717                0.54975617
              15.01404729                8.21683982               41.23073747                0.00010000                1.20816673               -0.21559918               -1.42230846               -5.90476841               68.01293515                1.77172993
              16.01618761                7.65963242               41.47653873                0.06534830               -0.23927013                0.18327573               -1.21260867               -6.24397516               64.90547962                3.90833362
              17.00926189                7.13745524               41.64123199                0.23792999               -0.41872633               -0.42775514                1.13239263               -4.15541643               31.86551188                4.41792243
              18.00781308                6.69807999               41.22476115                0.50179746                0.01456676               -0.07610284                0.10901620               -0.16988926                1.41622957                1.68390112
              19.00955323                6.26335594               40.77987447                0.85911466                0.17401427                0.47036812               -1.30733950               -0.04299787                0.02386790               -2.46818836
               9.24155641               12.31116027               41.00783943                0.93000670                0.26022631               -0.04135383               -0.09064160                0.20194343                0.97953101                1.78379978
              10.24415868               11.88229881               40.57035516                0.66025475                0.52331381                0.46009762               -1.61264665                0.16732632                2.76418774               -1.60464554
              11.25202269               11.45087448               40.16840608                0.48747041                7.29134236                0.78973103               -2.88732534               -7.09914235               40.22307538               -3.20212442
              12.38998552               10.87255143               40.47911300                0.44717479               11.01280836               -2.74523295               -2.42733630               -5.79904823               74.67953156               -1.05935655
              13.47227886               10.32221410               40.75210927                0.43697496                6.41955695               -1.46029011               -2.04861487               -2.74111553               72.73844554               -0.34134740
              14.51837666                9.76990660               41.01375332                0.44800434                3.07646597               -0.67038803               -1.70368548               -2.52770241               72.72803494                0.23959313
              15.53380818                9.21895527               41.27847738                0.47954812               -0.29013709                0.21154539               -1.39538883               -2.87653669               74.27603775                0.93112561
              16.51257392                8.67285410               41.56464245                0.53494484               -4.30670436                1.32216886               -1.19987426               -4.58606006               71.15448817                2.37713891
              17.44767409                8.13446145               41.76207823                0.62203629               -3.60094192               -0.29937859                1.45974496               -4.95467326               36.42433356                2.94524014
              18.44055508                7.69693624               41.35559315                0.75493613               -0.32929107               -0.11437451                0.48387559               -0.08500302                3.71596478                1.50180275
              19.44108827                7.26727739               40.89944471                0.93193556                0.05331852                0.39214525               -0.98321328                0.18761916                1.25838407               -1.97836283
               4.93611066                2.46964088               42.93897245                1.00000000               -0.67769028               -0.74294787                2.48357929               -0.13675493               -1.78898548                2.00116326
               5.92933375                1.97095709               42.69579606                0.86472363               -0.66104842               -0.48410847                1.85114347               -0.10504148               -2.24479962               -0.81477280
               6.92288969                1.47008690               42.44374244                0.61459970               -0.91451462               -0.25758061                1.13144872               -0.51549993               -2.00169448               -1.16218773
               7.91104346                0.95541556               42.20580666                0.50094999               -1.33869199               -0.12909268                0.46964606               -0.69245714                0.01881769               -0.22107721
               8.89611585                0.41380896               41.99487183                0.44852323               -1.26327573                0.07592059               -0.23631605               -0.61158968                2.44187845               -0.18709440
               9.88577795               -0.15696618               41.80598219                0.44782043               -0.40494562                0.27199206               -0.98697362               -0.34744026                3.59039535                0.01468002
              10.88801694               -0.74200644               41.61833440                0.49674013                0.69875653                0.47007604               -1.71063528               -0.34707868                2.59473595                0.19778949
              11.89975308               -1.32125043               41.40957147                0.59829521                1.27816535                0.65963423               -2.35342041               -0.42682772                0.39836937                0.31644464
              12.91358024               -1.88658153               41.17751134                0.76063387                1.30918446                0.81982594               -2.94313367               -0.34595062               -1.62889615                0.51304583
              13.92593677               -2.44103992               40.92720689                0.99796081                1.20581303                0.96608518               -3.49772498               -0.17376822               -2.07072913                1.08614117
              14.93769650               -2.99161001               40.68523727                1.00000000                1.17597369                1.20750833               -4.09248953               -0.15606111               -1.62189736               -1.54257604
               5.43342690                3.46221140               42.84074822                1.00000000               -0.53665730               -0.73101985                2.19729147               -0.04964474                0.30595475                2.35805580
               6.42806033                2.96611600               42.59399396                0.57823224               -0.39607242               -0.40924017                1.51607932               -0.06166111                1.09741418               -1.49410495
               7.42550545                2.46751110               42.36318265                0.12610817                0.20987683               -0.08227078                0.98928783               -0.78451733                3.28381930               -3.74689207
               8.43225786                1.95412463               42.15997147                0.00010000                1.03426858               -0.35043146                0.40061674               -1.93859551                5.63446478               -2.61552235
               9.44619082                1.41456816               41.97543923                0.00010000                1.39766894               -0.81485978               -0.22398989               -3.10641306                7.83886032               -0.26894593
              10.46021124                0.84575374               41.81535279                0.00010000                1.02487242               -0.37732166               -0.91517430               -3.80443814                9.20801599                0.61340424
              11.46668827                0.26269432               41.65704475                0.00010000                0.37805513                0.24586959               -1.58737425               -3.47601543                8.30017022                1.36965735
              12.46777234               -0.31465408               41.47749417                0.10947118                0.16636063                0.38123813               -2.17163369               -2.19039465                6.16684645                3.15084366
              13.47001548               -0.87838327               41.27548881                0.35144116                0.44704907                0.52466393               -2.70554070               -0.88822078                4.33433632                3.79197504
              14.47671333               -1.43137907               41.05867800                0.71705666                0.83452510                0.85324804               -3.18378154               -0.25799213                2.40543002                2.16441832
              15.48670598               -1.97953493               40.81782219                1.00000000                0.99926596                1.24579498               -3.73880156               -0.14024377                1.22642341               -2.02799949
               5.92730856                4.45502048               42.74987829                0.93038746               -0.45077242               -0.69799247                1.91190416               -0.07909198                0.30092184                2.64784773
               6.92280083                3.96277228               42.47866543                0.41635823               -0.40589251               -0.24379911                1.13625923               -0.09699205                1.47116835               -2.34428196
               7.91919071                3.46844149               42.23095437                0.01853343                0.12068258                0.29264802                0.50314675               -1.47703082                6.78456893               -7.68382177
               8.92521449                2.94840693               42.06617039                0.00010000                1.15838868               -0.80451097                0.23224315               -3.99721657               13.64011845               -3.78549314
               9.94235848                2.39751176               41.95418777                0.00010000                1.81742696               -1.37168405               -0.49575376               -5.84306874               16.06509572               -0.76952245
              10.96156302                1.83548738               41.83642059                0.00010000                1.82729837               -1.03581038               -1.03919114               -6.53110690               15.87104948                1.18666761
              11.97890445                1.26291095               41.71879866                0.00010000                1.77298746               -0.38795284               -1.54029000               -6.39494001               15.99185360                2.98622556
              12.99702277                0.68637434               41.60160119                0.02102601                1.68181810               -0.16224201               -2.04172314               -4.78435887               13.80193739                5.61551292
              14.01254081                0.12391175               41.43843462                0.17571109                1.24529046               -0.85516706               -2.23487303               -2.06575099                8.46109320                9.64563468
              15.02192858               -0.42397496               41.21117176                0.42046781                0.93312701                0.36673358               -2.78341503               -0.66085599                3.11038357                3.69925571
              16.03120335               -0.96669411               40.94022856                0.81201144                0.92747683                1.64341999               -3.49548872               -0.51957971                0.95815773               -2.32476667
               6.41634146                5.44825155               42.65762937                0.91541888               -0.36419780               -0.62918665                1.66814428               -0.05878054                0.06299921                2.53832749
               7.41269948                4.96124002               42.35980221                0.39527471               -0.30056362               -0.10742002                0.76392355               -0.01333488                0.51563238               -2.41589322
               8.41033019                4.47336406               42.07112227                0.00854388                0.52718894                0.50424692               -0.08090669               -2.28699013               11.76255228               -8.25356574
               9.42324326                3.93803441               41.99827973                0.00010000                1.59594044               -0.69957816               -0.38491542               -4.83195304               22.62150989               -3.33744329
              10.44224899                3.38713448               41.92517858                0.00010000                2.04733269               -0.90643116               -0.76415489               -5.88243879               22.99694687               -1.18031731
              11.46418991                2.82503753               41.85773752                0.00010000                2.28267623               -1.03394750               -1.16110450               -6.48613003               23.39829410                1.20195752
              12.48790252                2.25493526               41.79008211                0.00010000                2.34472284               -0.94515309               -1.50154278               -6.45877872               23.32301497                3.53255461
              13.51108437                1.68210108               41.71844280                0.02499050                2.55736202               -0.86144229               -1.75129299               -6.19188426               23.60666070                5.84320470
              14.53904976                1.10451339               41.65350300                0.17745824                2.15088497               -1.80074563               -1.86081695               -3.14293370               13.32408454               10.48203841
              15.55410207                0.57595560               41.37293910                0.41307818                1.13514705                0.01527065               -2.34730021               -0.27963877                1.33731333                3.60437756
              16.56175270                0.05333347               41.06623643                0.80379498                0.76506317                1.89784575               -3.16628462               -0.11525660                0.06396406               -2.14715279
               6.90015601                6.44243675               42.56487957                0.90532167               -0.27343803               -0.53419356                1.41836187               -0.05505220                0.05386288                2.52893004
               7.89742163                5.96062388               42.24290549                0.38196628               -0.17497501               -0.01997445                0.41237098                0.02095004                0.34079254               -2.27327405
               8.89665651                5.47852643               41.92673803                0.00270779                0.86916857                0.53567187               -0.55128828               -2.94305823               15.73695952               -7.21256170
               9.91480500                4.93441537               41.91259363                0.00010000                2.05250396               -0.20342076               -0.80341796               -6.05083881               30.83411813               -4.17501652
              10.93770659                4.37938314               41.89602377                0.00010000                2.46173202               -0.68202597               -1.05285471               -6.67476616               30.84614560               -1.28636743
              11.96403964                3.81480843               41.87936242                0.00010000                2.74793705               -1.02912702               -1.28413538               -7.04929629               31.01236363                1.20970073
              12.99266533                3.24400789               41.86293194                0.00010000                2.97836608               -1.23703577               -1.46363125               -7.10479479               31.25230403                3.65193555
              14.02360696                2.66914549               41.84762947                0.03062525                3.15811398               -1.44145263               -1.55800135               -7.07749128               31.59214261                6.26112470
              15.05582761                2.08789684               41.83447767                0.18570374                2.19543816               -1.46849915               -1.44110094               -3.74095107               17.03082234                8.18725781
              16.06751573                1.57633045               41.52393036                0.42452077                0.91574385                0.07954710               -1.93990057               -0.25047450                1.13140788                2.76239596
              17.07414249                1.07126280               41.19086930                0.81068825                0.66267603                1.63351691               -2.85198485               -0.02596525                0.03906041               -2.42136816
               7.37886615                7.43756768               42.47274512                0.89543236               -0.18373432               -0.44141798                1.17313787               -0.05371972                0.05223681                2.56462241
               8.37702880                6.96084053               42.12685568                0.36896671               -0.05943061                0.06494384                0.06113361                0.03397648                0.36282817               -2.20038735
               9.37767753                6.48407749               41.78721350                0.00010000                1.21704836                0.58800934               -0.99694839               -3.49610880               19.67203062               -6.87658736
              10.40136977                5.93396600               41.82731978                0.00010000                2.53415349                0.06462706               -1.16711950               -7.11581574               38.68722593               -4.08330641
              11.42836060                5.37349396               41.86484009                0.00010000                2.86047314               -0.50813280               -1.30593369               -7.64952516               38.66742361               -1.37484288
              12.45857923                4.80445499               41.90101860                0.00010000                3.15544813               -1.03829906               -1.40630374               -7.97912418               38.77855074                1.19484489
              13.49146957                4.23019455               41.93688477                0.00010000                3.35331814               -1.44610367               -1.44582638               -8.04508415               38.98537310                3.66858249
              14.52564560                3.65327202               41.97315654                0.03634384                3.27881039               -1.61113722               -1.39262537               -8.04733966               38.95672513                6.00929719
              15.55704577                3.07514341               42.00446710                0.19411383                2.00405084               -1.14215545               -0.97644330               -4.27736329               20.58042134                7.40288578
              16.56572661                2.57754655               41.66889507                0.43642226                0.71614627                0.12986555               -1.54301907               -0.23290067                1.16907194                2.27870110
              17.57136870                2.08600381               41.31026880                0.81786838                0.56420867                1.34188614               -2.55777016               -0.02485215                0.04948354               -2.81398040
               7.85253591                8.43360839               42.38098520                0.88550373               -0.09445698               -0.35133921                0.92862913               -0.05276621                0.05382568                2.57683878
               8.85159134                7.96192276               42.01137315                0.35597400                0.05364753                0.15261367               -0.28858605                0.03888837                0.42219948               -2.15375205
               9.85360886                7.49028661               41.64912751                0.00010000                1.57404378                0.65936446               -1.43461830               -3.96924210               23.61148762               -6.74301386
              10.88307222                6.93570791               41.74302534                0.00010000                3.03091148                0.27286721               -1.50700213               -8.07101629               46.45949358               -3.95789399
              11.91422709                6.36922048               41.83377369                0.00010000                3.23421756               -0.36426238               -1.53839387               -8.62862715               46.41836123               -1.33296468
              12.94775657                5.79404245               41.92248272                0.00010000                3.43597599               -1.02567173               -1.52397726               -8.93446099               46.50331405                1.16000804
              13.98294661                5.21508582               42.01029671                0.00010000                3.49773703               -1.52402180               -1.44411270               -8.94411208               46.65848251                3.59407901
              15.01771131                4.63692275               42.09747171                0.04224678                3.15296037               -1.64079120               -1.26319428               -8.66762200               46.12178357                5.97190666
              16.04600582                4.06505373               42.17027684                0.20262182                1.71429992               -0.91652988               -0.49111444               -4.49302617               23.96592479                7.06902797
              17.05199731                3.57892776               41.80992189                0.44832497                0.53625487                0.12469435               -1.15306030               -0.19998907                1.20581666                1.99306269
              18.05673092                3.09810052               41.42603268                0.82511497                0.47336084                1.09535040               -2.27495376               -0.02480299                0.06241736               -3.05109284
               8.32118208                9.43054090               42.28933481                0.87565517               -0.00537347               -0.26264754                0.68390362               -0.05223752                0.05444330                2.56033203
               9.32112835                8.96389280               41.89616193                0.34306862                0.16627297                0.24248057               -0.63803359                0.03793027                0.49899435               -2.12913459
              10.32450754                8.49726478               41.51184043                0.00010000                1.99436142                0.73527116               -1.86865769               -4.38465413               27.58069119               -6.63556746
              11.36101558                7.93942334               41.65993468                0.00010000                3.64729874                0.41182962               -1.83051445               -8.78923023               54.21351909               -3.74887230
              12.39745352                7.36620871               41.80338677                0.00010000                3.65045511               -0.32596996               -1.75362721               -9.28948349               54.08860491               -1.22652019
              13.43402468                6.78394156               41.94365573                0.00010000                3.61267578               -0.98903066               -1.63649726               -9.44172311               54.15924920                1.07607053
              14.46970703                6.19971411               42.08303499                0.00010000                3.41502833               -1.45956463               -1.46097251               -9.42131050               54.37045421                3.41718127
              15.50232525                5.62045620               42.22230393                0.04825262                2.77366002               -1.60438371               -1.18775374               -8.85751188               53.20288096                5.98263290
              16.52518023                5.05681281               42.33386806                0.21123980                1.31773950               -0.75337970                0.00789113               -4.50003800               27.19385138                6.87447069
              17.52868004                4.58004043               41.94870138                0.46029989                0.36734445                0.08478655               -0.76458154               -0.17011600                1.23064050                1.86331759
              18.53252712                4.10791082               41.53973551                0.83234653                0.38470866                0.87861769               -1.99666853               -0.02695967                0.07410542               -3.13659671
               8.78478735               10.42835544               42.19744501                0.86576577                0.08387141               -0.17505080                0.43720724               -0.05215722                0.06650305                2.53954403
               9.78562606                9.96677237               41.78101267                0.33027810                0.27989475                0.33526570               -0.98770929                0.02694017                0.61229373               -2.15335988
              10.79038524                9.50499204               41.37541698                0.00010000                2.63588124                0.79937329               -2.29653173               -4.81134488               31.66765992               -6.33672980
              11.83834369                8.94394450               41.57962239                0.00010000                4.67669850                0.19446888               -2.13160611               -9.13130547               62.00235672               -3.19992081
              12.88391921                8.36270108               41.77465281                0.00010000                4.35365126               -0.67392562               -1.94422435               -8.86402494               61.58270880               -0.98786070
              13.92541671                7.77426184               41.96390878                0.00010000                3.70432745               -0.92254594               -1.73611002               -8.67267704               61.63184360                0.86956118
              14.95800576                7.18589452               42.15337156                0.00010000                2.90228334               -1.04257152               -1.49489155               -8.82657111               62.13563309                2.87680717
              15.98346238                6.60483507               42.34691480                0.05446052                1.92075337               -1.27424001               -1.18256129               -8.55953156               60.33555737                5.59285378
              16.99642083                6.04998613               42.49587392                0.21996512                0.70173023               -0.61085631                0.51482232               -4.42536621               30.37341701                6.50601384
              17.99749698                5.58062350               42.08658072                0.47232962                0.20150652                0.02298641               -0.37319583               -0.16169637                1.28972617                1.89738815
              19.00045096                5.11567288               41.65286894                0.83960943                0.29539762                0.68274654               -1.71616213               -0.03129649                0.10199385               -3.10970298
               9.24330507               11.42703988               42.10554116                0.85584535                0.17254803               -0.08874318                0.19068826               -0.05193191               -0.01813661                2.19919164
              10.24503055               10.97059812               41.66508754                0.31757745                0.39017196                0.43014464               -1.34150364               -0.00496938                0.93507831               -1.93847584
              11.25110851               10.51325225               41.24357977                0.00010000                3.78249333                0.81458783               -2.69996647               -5.49841287               36.18653354               -4.71750015
              12.32068042                9.94331272               41.50757519                0.00010000                6.93735832               -1.48729264               -2.38558094               -7.31668660               69.76410868               -1.89228945
              13.38985568                9.35273020               41.74973038                0.00010000                5.83486376               -1.28766376               -2.09374520               -6.09563569               68.60372959               -0.57037818
              14.43737770                8.76549064               41.98187724                0.00010000                3.63733496               -0.82187880               -1.80670838               -5.46887833               68.58193323                0.49391447
              15.46260238                8.17886268               42.21605162                0.00010000                1.48326541               -0.28454511               -1.51966463               -5.99901580               69.69845690                1.70423552
              16.46704300                7.59497140               42.46423215                0.06091734               -0.08589469                0.15004047               -1.24949977               -6.39969201               67.60542151                3.74851520
              17.46088448                7.04459568               42.65199453                0.22889770               -0.36418204               -0.39162726                1.00484756               -4.33919686               33.95316248                4.63238770
              18.45975936                6.58050016               42.22547217                0.48438524                0.04589717               -0.05135440                0.02725230               -0.19288556                1.63820515                1.76131105
              19.46180243                6.12156575               41.76621610                0.84680369                0.20430648                0.50987136               -1.43166254               -0.04237724                0.03403844               -2.58252270
               9.69663223               12.42658057               42.00697244                0.92470701                0.26820706               -0.04593045               -0.08210543                0.21218473                1.01871221                1.86113061
              10.69931430               11.97537526               41.55393581                0.65466785                0.55350741                0.47771459               -1.67244997                0.16353577                2.93395340               -1.68179248
              11.70770238               11.52128379               41.13904227                0.48646255                7.66088497                0.80315425               -2.98586814               -7.39944395               41.40084750               -3.34057986
              12.85253200               10.91419865               41.45423053                0.44720565               11.60631007               -2.91140722               -2.55153748               -6.03164110               76.64052602               -1.11465483
              13.93982858               10.33694781               41.73096463                0.43708155                6.86873308               -1.57823945               -2.18407147               -2.82142895               74.62194984               -0.37412181
              14.98990666                9.75782426               41.99609183                0.44778467                3.43580505               -0.76663728               -1.83304758               -2.58431241               74.57265921                0.21502484
              16.00854468                9.18020362               42.26404218                0.47857635               -0.00855634                0.13409403               -1.49474801               -2.90518869               76.05529152                0.89600437
              16.98973554                8.60783588               42.55245737                0.53265697               -4.22182767                1.28644824               -1.23616298               -4.63324834               74.08573354                2.25669114
              17.92410813                8.04215359               42.77612623                0.61743870               -3.65331655               -0.24420934                1.33547218               -5.08960918               38.81645670                3.09455500
              18.91666921                7.57959641               42.36008215                0.74609673               -0.33179438               -0.09037527                0.40892007               -0.12317985                4.04624120                1.57308463
              19.91747224                7.12587030               41.88903987                0.92571088                0.08030359                0.43045584               -1.10404410                0.19437112                1.32494773               -2.06818975
               5.16440942                2.58960779               43.96401093                1.00000000               -0.69081728               -0.75262353                2.52984770               -0.14233537               -1.81889470                2.06460540
               6.15750125                2.06585967               43.71443643                0.85393651               -0.67751686               -0.48725341                1.87980013               -0.10986017               -2.32231079               -0.90146196
               7.15085908                1.53977754               43.45508523                0.61032534               -0.94150612               -0.25917198                1.13808873               -0.52769705               -2.09725899               -1.15122588
               8.13867112                0.99932278               43.21043247                0.49966601               -1.36930670               -0.12460439                0.45519557               -0.69962183               -0.06805345               -0.23381747
               9.12347295                0.43127078               42.99231386                0.44836397               -1.28540093                0.08655883               -0.27597302               -0.61537930                2.31452071               -0.19530606
              10.11296311               -0.16656918               42.79579770                0.44756331               -0.41813400                0.28848675               -1.05086572               -0.35054398                3.45308447                0.00936346
              11.11511027               -0.77934672               42.60080195                0.49527924                0.70135765                0.49238530               -1.79687406               -0.34442719                2.49895607                0.19735405
              12.12699026               -1.38688368               42.38553413                0.59429661                1.30600832                0.68805398               -2.45870604               -0.42514250                0.35065259                0.32002601
              13.14123043               -1.98063142               42.14749509                0.75232285                1.36096780                0.85323698               -3.06472356               -0.35234295               -1.63549929                0.50905038
              14.15420961               -2.56327338               41.89187272                0.98274220                1.26259076                1.00581338               -3.63610138               -0.19073483               -2.06864119                1.07108577
              15.16648225               -3.14150226               41.64402500                1.00000000                1.22726351                1.24679457               -4.25411473               -0.16469282               -1.61454620               -1.60254848
               5.68673419                3.58208156               43.86287187                1.00000000               -0.54164224               -0.73906894                2.22112781               -0.05416923                0.32431692                2.42234508
               6.68131777                3.06098713               43.60921003                0.55969674               -0.39418189               -0.40896461                1.52742846               -0.07136936                1.19694493               -1.60168329
               7.67885056                2.53718582               43.37310747                0.11979793                0.23052560               -0.06942528                0.99724961               -0.82427550                3.42831492               -3.91330392
               8.68592828                1.99807673               43.16391518                0.00010000                1.07072869               -0.38183483                0.38855992               -1.98788832                5.71824505               -2.68180267
               9.70026513                1.43213637               42.97303314                0.00010000                1.44190654               -0.81864365               -0.25614340               -3.17350363                7.85521103               -0.42376680
              10.71476642                0.83631569               42.80592234                0.00010000                1.07790588               -0.38129094               -0.96862234               -3.88809594                9.18088577                0.50780499
              11.72182325                0.22557714               42.64077946                0.00010000                0.43073866                0.24820469               -1.66176728               -3.57410141                8.31211900                1.33063797
              12.72338119               -0.38000314               42.45529699                0.10367698                0.20393025                0.40424831               -2.26448184               -2.29176466                6.24115826                3.13002091
              13.72590185               -0.97209905               42.24789090                0.33907258                0.46782468                0.54245500               -2.81161207               -0.92559089                4.46937343                3.91521530
              14.73273768               -1.55321524               42.02647641                0.69343541                0.85811744                0.88771717               -3.30174886               -0.27226069                2.54485805                2.21054823
              15.74306420               -2.12903431               41.78011445                0.99222854                1.03265200                1.28000793               -3.87404359               -0.14034769                1.34353042               -2.11834107
               6.20551489                4.57482642               43.76912512                0.91708789               -0.45452916               -0.70857395                1.93624866               -0.08643325                0.32302626                2.73923723
               7.20096960                4.05768037               43.49004649                0.40160949               -0.41154589               -0.23845589                1.13520730               -0.10739775                1.56690002               -2.46783918
               8.19728397                3.53838903               43.23593193                0.01484788                0.14966039                0.32439228                0.49378302               -1.58079464                7.13558131               -8.07607119
               9.20396281                2.99168608               43.06833277                0.00010000                1.22399713               -0.81490109                0.19687396               -4.12694755               13.93547598               -4.13388283
              10.22176391                2.41489791               42.94894156                0.00010000                1.88988071               -1.38752505               -0.55374102               -5.96424167               16.20613127               -1.06524079
              11.24176042                1.82580501               42.82563596                0.00010000                1.90915782               -1.05397250               -1.11757719               -6.70178052               16.10953048                0.97551034
              12.25994707                1.22561738               42.70291738                0.00010000                1.85353686               -0.40112012               -1.63594211               -6.57209951               16.23711890                2.88600436
              13.27883116                0.62120129               42.58062465                0.01750752                1.79918238               -0.16935091               -2.15028567               -4.96032384               14.19246024                5.63971080
              14.29593072                0.03021768               42.41565719                0.16794552                1.34342491               -0.88326977               -2.31912358               -2.17909696                8.82178282                9.82388866
              15.30569966               -0.54551903               42.18285337                0.40467617                0.96913570                0.36717480               -2.87225121               -0.68695780                3.20308631                3.81720480
              16.31531343               -1.11590210               41.90471138                0.80059155                0.96137768                1.68088082               -3.60723907               -0.53301208                0.97135359               -2.41474764
               6.71929761                5.56791008               43.67447012                0.90274110               -0.36904160               -0.64409417                1.70310803               -0.06018432                0.05902461                2.65196557
               7.71560720                5.05621801               43.36744707                0.38139545               -0.30343280               -0.10344858                0.76513983               -0.01397977                0.54154542               -2.52788148
               8.71322896                4.54367367               43.07018568                0.00527393                0.56366294                0.53470484               -0.10913291               -2.37526130               12.09137614               -8.63934415
               9.72688046                3.98177871               42.99414691                0.00010000                1.68162059               -0.65943469               -0.44270070               -4.98910860               23.17177897               -3.80229155
              10.74686137                3.40438587               42.91714508                0.00010000                2.15654396               -0.91052571               -0.84437332               -6.03219456               23.48764814               -1.47909520
              11.77001134                2.81523624               42.84563627                0.00010000                2.40618032               -1.04321359               -1.26136707               -6.65474116               23.89282840                0.99364051
              12.79498498                2.21755474               42.77450020                0.00010000                2.47815388               -0.95578151               -1.61783737               -6.64110294               23.87642749                3.42721769
              13.81957441                1.61660984               42.70032386                0.02138775                2.70276281               -0.88458258               -1.87631070               -6.38973778               24.25681700                5.88911097
              14.84904023                1.01023555               42.63413740                0.16984611                2.27719419               -1.84801008               -2.01624817               -3.29690731               13.84613478               10.63648962
              15.86511830                0.45412825               42.34899880                0.39800518                1.20649287               -0.00321360               -2.43808595               -0.30914133                1.51137555                3.71694327
              16.87317009               -0.09541669               42.03403514                0.79308319                0.80517921                1.94310586               -3.28080918               -0.11178695                0.06626042               -2.22755369
               7.22769534                6.56194453               43.57922857                0.89298565               -0.27689191               -0.54871744                1.45328469               -0.05632550                0.05437683                2.64016560
               8.22492642                6.05561140               43.24700968                0.36851020               -0.17386432               -0.01851779                0.40773452                0.02564041                0.36289679               -2.37804858
               9.22421805                5.54908313               42.92103760                0.00010000                0.92710060                0.55855817               -0.59051179               -3.03061630               16.13867220               -7.53133912
              10.24346843                4.97849738               42.90420255                0.00010000                2.17222206               -0.17446734               -0.87661116               -6.21811267               31.58023014               -4.50636575
              11.26766249                4.39668740               42.88501617                0.00010000                2.60141515               -0.67403631               -1.15150424               -6.84193398               31.58791532               -1.57073340
              12.29549673                3.80494073               42.86595191                0.00010000                2.90444603               -1.03368109               -1.40237639               -7.22796408               31.77241975                1.00850041
              13.32575141                3.20650175               42.84766603                0.00010000                3.14294275               -1.24668433               -1.59591699               -7.29834295               32.06374557                3.54233824
              14.35835559                2.60350964               42.83138191                0.02691862                3.33613742               -1.45080533               -1.70046613               -7.31464726               32.52431633                6.25254809
              15.39247416                1.99325747               42.81920284                0.17790449                2.34067425               -1.49870562               -1.62324080               -3.90655573               17.75821867                8.41032033
              16.40516907                1.45441670               42.50403975                0.40916128                0.98467145                0.08096943               -2.03819502               -0.29127619                1.36015798                2.84248532
              17.41216759                0.92296002               42.16176970                0.79975094                0.69985168                1.67854547               -2.97379173               -0.02435750                0.04574049               -2.54355648
               7.73083737                7.55693573               43.48462968                0.88335393               -0.18559578               -0.45455429                1.20535729               -0.05483860                0.05330966                2.67726026
               8.72898141                7.05584766               43.12740370                0.35591401               -0.05533583                0.06832203                0.04765749                0.04063169                0.39216485               -2.30549739
               9.72973065                6.55484483               42.77699708                0.00010000                1.29662655                0.60958845               -1.04788748               -3.58925103               20.17570089               -7.18007693
              10.75491394                5.97828936               42.81522688                0.00010000                2.69243463                0.08594171               -1.25401584               -7.30275715               39.63599473               -4.37056231
              11.78357934                5.39090514               42.85123594                0.00010000                3.03618819               -0.49962641               -1.41895725               -7.83963653               39.63554711               -1.62173409
              12.81563770                4.79456262               42.88633223                0.00010000                3.34349372               -1.04195030               -1.53724091               -8.17192519               39.77886550                1.00818353
              13.85044922                4.19262105               42.92176698                0.00010000                3.54440202               -1.45309585               -1.58685830               -8.24844731               40.04482005                3.55510839
              14.88652574                3.58759374               42.95857963                0.03247009                3.47764206               -1.61213458               -1.53558349               -8.30749273               40.21353417                5.98517434
              15.92000206                2.98026144               42.99380452                0.18603732                2.15322422               -1.16099511               -1.16919592               -4.46556325               21.52891604                7.66929544
              16.92959023                2.45574764               42.65296121                0.42060280                0.77971172                0.14697849               -1.64686894               -0.27361818                1.42113399                2.34651240
              17.93559629                1.93815422               42.28408452                0.80668733                0.60060639                1.38738623               -2.68650982               -0.02274982                0.05933999               -2.96186362
               8.22877471                8.55285345               43.39040711                0.87371836               -0.09447578               -0.36266808                0.95717082               -0.05382391                0.05537848                2.68893536
               9.22782995                8.05697784               43.00837456                0.34333170                0.06083067                0.15907236               -0.31205233                0.04590139                0.46165589               -2.25795879
              10.22999132                7.56127490               42.63447046                0.00010000                1.67615090                0.68279068               -1.49878124               -4.07227211               24.22853371               -7.04065814
              11.26135297                6.98021622               42.72747408                0.00010000                3.23025894                0.28820642               -1.60624164               -8.27933034               47.61879843               -4.21946988
              12.29459650                6.38669487               42.81779549                0.00010000                3.44946764               -0.36391141               -1.66225244               -8.83895927               47.60533594               -1.55010303
              13.33034232                5.78410173               42.90659145                0.00010000                3.65774233               -1.03653303               -1.66188728               -9.13803211               47.72917722                0.99340184
              14.36775135                5.17743983               42.99520821                0.00010000                3.71115099               -1.53555033               -1.58454905               -9.14750328               47.95213821                3.48138362
              15.40456534                4.57126694               43.08426683                0.03818803                3.36288191               -1.63879969               -1.39263300               -8.94074408               47.72751724                5.91927993
              16.43500899                3.97003757               43.16447840                0.19428283                1.86192932               -0.92482035               -0.68547329               -4.69290615               25.15264805                7.36024942
              17.44180393                3.45735627               42.79788815                0.43217615                0.59452294                0.15023246               -1.25928864               -0.23392110                1.46708942                2.05721844
              18.44689945                2.95070774               42.40265210                0.81366134                0.50955167                1.14106468               -2.40976332               -0.02221954                0.07427194               -3.21045991
               8.72151210                9.54968237               43.29628858                0.86418016               -0.00341135               -0.27204281                0.70798142               -0.05328202                0.05608616                2.67056405
               9.72147798                9.05902911               42.88961799                0.33083722                0.17673672                0.25240447               -0.67175087                0.04412632                0.54958677               -2.23286558
              10.72504683                8.56850064               42.49277896                0.00010000                2.12146911                0.76098454               -1.94522745               -4.50356265               28.31863746               -6.92707593
              11.76390736                7.98405349               42.64109599                0.00010000                3.89339086                0.41733238               -1.94051113               -9.02184262               55.59039657               -3.98509804
              12.80291465                7.38362692               42.78522077                0.00010000                3.91123663               -0.34372643               -1.88510099               -9.51358940               55.48969506               -1.41125467
              13.84213210                6.77383196               42.92663248                0.00010000                3.87096436               -1.01738542               -1.77636041               -9.64171800               55.59504545                0.93475997
              14.88033393                6.16191004               43.06782131                0.00010000                3.64905121               -1.48265302               -1.59331205               -9.60667228               55.87269092                3.30512584
              15.91511312                5.55481774               43.20997674                0.04410488                2.98603389               -1.60747497               -1.29252930               -9.12163608               55.17670357                5.88452815
              16.94005461                4.96176503               43.33309754                0.20264961                1.45642556               -0.75136050               -0.18115221               -4.70210133               28.64664389                7.18322004
              17.94424163                4.45875229               42.94056065                0.44374337                0.41971652                0.11395047               -0.87026012               -0.19701917                1.49361334                1.93158241
              18.94844894                3.96097551               42.51911906                0.82065923                0.42073104                0.92438160               -2.13552798               -0.02447307                0.08756408               -3.29627724
               9.20901560               10.54741259               43.20190967                0.85460343                0.08786071               -0.18260810                0.45668982               -0.05326969                0.06882670                2.64825015
              10.20989421               10.06202593               42.77092130                0.31848497                0.29400430                0.34880375               -1.03175004                0.03047448                0.67722128               -2.25854706
              11.21489569                9.57649459               42.35202048                0.00010000                2.79478196                0.82506171               -2.38380584               -4.95632265               32.53706637               -6.61092085
              12.26578985                8.98856287               42.55772895                0.00010000                4.98252807                0.17481683               -2.25042590               -9.39021200               63.60411533               -3.39563635
              13.31454625                8.37982034               42.75455573                0.00010000                4.67174961               -0.72646530               -2.08080116               -9.07916777               63.19055456               -1.12816133
              14.35922484                7.76375402               42.94589420                0.00010000                4.00429374               -0.97631155               -1.87498023               -8.84119811               63.25365037                0.76454658
              15.39463212                7.14778677               43.13787090                0.00010000                3.15263979               -1.08280627               -1.61548279               -8.96544936               63.80471170                2.77723625
              16.42227763                6.53911744               43.33479084                0.05013999                2.12001447               -1.28787960               -1.25610478               -8.77682006               62.68946970                5.43744285
              17.43703241                5.95501036               43.50023611                0.21114101                0.81877168               -0.59571767                0.33796618               -4.62258292               32.13055566                6.81652437
              18.43865307                5.45963527               43.08237523                0.45534872                0.24655698                0.05262385               -0.47523728               -0.18505014                1.55232661                1.97686477
              19.44196355                4.96919538               42.63504837                0.82766186                0.33104831                0.72795270               -1.85727589               -0.02913031                0.11764627               -3.26275840
               9.69122002               11.54603021               43.10751980                0.84503314                0.17854523               -0.09461409                0.20576808               -0.05308603               -0.02094975                2.29404180
              10.69300547               11.06600518               42.65140785                0.30617553                0.40817117                0.44702529               -1.39570353               -0.00773094                1.02548029               -2.03293504
              11.69938344               10.58500188               42.21610263                0.00010000                3.98859525                0.83216444               -2.79605722               -5.68030636               37.21240264               -4.91877042
              12.77277738                9.98754983               42.48310882                0.00010000                7.33783483               -1.58076116               -2.51088111               -7.54102168               71.59466670               -2.01315941
              13.84614014                9.36909761               42.72811778                0.00010000                6.22821634               -1.37785917               -2.23408833               -6.24668927               70.39752811               -0.64696076
              14.89734170                8.75430573               42.96315851                0.00010000                3.97606918               -0.89880424               -1.94461716               -5.56581144               70.36175362                0.43867074
              15.92566152                8.14025392               43.20034417                0.00010000                1.75057130               -0.34462650               -1.63061051               -6.06646170               71.47232547                1.64423479
              16.93235313                7.52906015               43.45154873                0.05643326                0.07118003                0.12100269               -1.29633650               -6.52381680               70.32573083                3.60417624
              17.92708512                6.94985068               43.66132894                0.21983289               -0.29987574               -0.34606087                0.84215310               -4.49546790               36.05946243                4.85964748
              18.92635561                6.45980477               43.22530619                0.46699300                0.08305050               -0.02286557               -0.06764290               -0.22014545                1.91152210                1.84123702
              19.92874613                5.97553456               42.75124122                0.83460922                0.23905188                0.55353444               -1.57222196               -0.04160809                0.04686181               -2.70625946
              10.16800393               12.54552031               43.00619732                0.91936540                0.27639850               -0.05098989               -0.07229402                0.22300434                1.05984597                1.94206334
              11.17076792               12.07096644               42.53690617                0.64912227                0.58704888                0.49612573               -1.73491776                0.15712325                3.12190728               -1.76336953
              12.17974491               11.59313788               42.10868871                0.48543402                8.00528805                0.81360026               -3.08511979               -7.66479286               42.61890713               -3.48488644
              13.33087368               10.95694764               42.42808225                0.44725024               12.15558250               -3.06021843               -2.68092128               -6.23410591               78.64260083               -1.17141223
              14.42285656               10.35226316               42.70842784                0.43719149                7.29393115               -1.68344543               -2.32798630               -2.88684323               76.55414903               -0.40634866
              15.47675230                9.74577793               42.97709237                0.44754646                3.78459525               -0.85277935               -1.97343920               -2.62738582               76.48176243                0.19326489
              16.49854847                9.14089424               43.24858242                0.47762323                0.27261176                0.06403241               -1.60520859               -2.92332748               77.92744241                0.86825796
              17.48220454                8.54153750               43.53991919                0.53037529               -4.10850161                1.24773481               -1.27605373               -4.65511398               77.04653549                2.14707061
              18.41637843                7.94808914               43.78878768                0.61280356               -3.68191329               -0.17615329                1.17775069               -5.18864564               41.23863628                3.25412705
              19.40856627                7.45917796               43.36377155                0.73730656               -0.33533169               -0.06268057                0.32302765               -0.17008816                4.43508979                1.64799515
              20.40967180                6.98026607               42.87736383                0.91951765                0.11055284                0.47315019               -1.23889247                0.20137692                1.39782450               -2.16451090
               5.39888176                2.71321110               44.98956940                1.00000000               -0.70685296               -0.76669905                2.58644034               -0.14752799               -1.85590360                2.11597587
               6.39181323                2.16338065               44.73339206                0.84313348               -0.69666492               -0.49083789                1.91180114               -0.11462006               -2.40765913               -0.99614586
               7.38494846                1.61101791               44.46650421                0.60595622               -0.96797340               -0.26195885                1.14579915               -0.53852882               -2.20102189               -1.13576978
               8.37245376                1.04377380               44.21491058                0.49830178               -1.39537132               -0.11855163                0.43862332               -0.70334808               -0.16222987               -0.24748184
               9.35704104                0.44846428               43.98935237                0.44822876               -1.30511071                0.10008499               -0.31811642               -0.61541590                2.18069206               -0.20367262
              10.34635155               -0.17702820               43.78496488                0.44736384               -0.43907072                0.30997804               -1.11717933               -0.35082479                3.31263726                0.00416797
              11.34825962               -0.81801439               43.58239692                0.49381776                0.68607178                0.52060311               -1.88697213               -0.33773242                2.40396052                0.19687760
              12.36007298               -1.45437562               43.36039735                0.59028810                1.31360220                0.72314281               -2.57405179               -0.41777937                0.31092080                0.32504274
              13.37453167               -2.07719214               43.11621687                0.74401241                1.39805235                0.89510792               -3.20833778               -0.35331224               -1.65434066                0.50366050
              14.38803403               -2.68882558               42.85448486                0.96757311                1.32846779                1.06768351               -3.85032256               -0.19709547               -2.10691499                1.07301025
              15.40110102               -3.29583987               42.60015497                1.00000000                1.30669900                1.32517389               -4.52431204               -0.18147876               -1.65926171               -1.64757466
               5.94723693                3.70554410               44.88517078                0.99301347               -0.54733037               -0.75020579                2.24693836               -0.05495454                0.36074855                2.48981295
               6.94176362                3.15847227               44.62454253                0.54124770               -0.39351654               -0.41010960                1.54815964               -0.08134967                1.31244560               -1.71770282
               7.93936660                2.60839832               44.38312764                0.11350882                0.24667357               -0.05880249                1.00697460               -0.86081939                3.58142572               -4.08491449
               8.94669710                2.04258828               44.16774267                0.00010000                1.09606401               -0.41381294                0.37761977               -2.02362867                5.80439265               -2.76434578
               9.96128788                1.44946513               43.97031637                0.00010000                1.46927689               -0.81846395               -0.28638804               -3.21899116                7.87506254               -0.59698501
              10.97608263                0.82607158               43.79598035                0.00010000                1.11340633               -0.38440695               -1.01760887               -3.94236126                9.15799570                0.38163601
              11.98355600                0.18719164               43.62380941                0.00010000                0.47007172                0.24623445               -1.72928458               -3.64086296                8.33111006                1.27034938
              12.98548407               -0.44714419               43.43220453                0.09786517                0.23337610                0.42586497               -2.35177653               -2.36867608                6.32982427                3.09105857
              13.98822353               -1.06824107               43.21925657                0.32671917                0.49514364                0.56675854               -2.92288177               -0.93942355                4.60796725                4.03676044
              14.99538694               -1.67814875               42.99264302                0.66985022                0.90384987                0.93361658               -3.47034948               -0.27224927                2.67716356                2.28040574
              16.00630052               -2.28258814               42.74034132                0.97568210                1.09135827                1.34650587               -4.08734178               -0.15327031                1.45062178               -2.19391123
               6.49192634                4.69820698               44.78860326                0.90379525               -0.45943175               -0.71783448                1.97416769               -0.08629646                0.34732328                2.84923621
               7.48733202                4.15517846               44.50136957                0.38678537               -0.41551415               -0.23765315                1.13356151               -0.11569600                1.67304219               -2.59081043
               8.48361606                3.60984186               44.24083003                0.01110355                0.17911774                0.35365948                0.48563079               -1.67948225                7.49491620               -8.48799200
               9.49091438                3.03549754               44.07010787                0.00010000                1.27809295               -0.82347389                0.15397751               -4.23622607               14.23124234               -4.50918568
              10.50917792                2.43209500               43.94311295                0.00010000                1.94317147               -1.39935833               -0.61228442               -6.04945836               16.35465964               -1.39807944
              11.52977781                1.81528366               43.81406905                0.00010000                1.97401055               -1.07385953               -1.19620658               -6.82879840               16.35739778                0.72274511
              12.54865813                1.18691030               43.68607982                0.00010000                1.91771809               -0.42303374               -1.73237917               -6.69772476               16.49886071                2.74201837
              13.56813217                0.55414168               43.55859548                0.01395287                1.90448126               -0.18648860               -2.25725857               -5.08339161               14.62568700                5.61852946
              14.58674775               -0.06585697               43.39205215                0.16017458                1.44019726               -0.90307015               -2.39845638               -2.26104756                9.23350125                9.94646508
              15.59693612               -0.67015325               43.15372673                0.38891550                1.00833170                0.36284191               -2.96326235               -0.70039421                3.32384576                3.92602591
              16.60691439               -1.26890976               42.86808378                0.78928928                0.99782727                1.71561093               -3.73737218               -0.54041480                0.99862013               -2.51809803
               7.03156805                5.69118742               44.69169153                0.88996524               -0.37532193               -0.65632406                1.74462764               -0.05907148                0.05476469                2.77968682
               8.02781483                5.15371921               44.37510500                0.36749884               -0.30550902               -0.10360901                0.76718640               -0.00886981                0.56873874               -2.63842013
               9.02545787                4.61547151               44.06893962                0.00196515                0.59523021                0.56231933               -0.14093817               -2.44896865               12.42552337               -9.04350755
              10.03971943                4.02611881               43.98942571                0.00010000                1.75273631               -0.61447280               -0.50253694               -5.12384477               23.73031350               -4.29204254
              11.06051259                3.42147796               43.90829111                0.00010000                2.24859661               -0.91086920               -0.92846646               -6.14934030               23.98907959               -1.81216903
              12.08469136                2.80459439               43.83251018                0.00010000                2.51154462               -1.05005870               -1.36671380               -6.78433125               24.40009779                0.74597940
              13.11074349                2.17873097               43.75772536                0.00010000                2.59460730               -0.96612153               -1.74165043               -6.78081179               24.44799259                3.27947152
              14.13658351                1.54912604               43.68091659                0.01783725                2.82770124               -0.91005032               -2.01219544               -6.53045626               24.91857362                5.88896991
              15.16729751                0.91369753               43.61317803                0.16219061                2.39241648               -1.88534541               -2.18455199               -3.42157788               14.42376340               10.71223789
              16.18443184                0.32910809               43.32417738                0.38303357                1.28538633               -0.03145002               -2.52759739               -0.33787674                1.74304567                3.78688561
              17.19300524               -0.24827592               43.00062024                0.78243150                0.85733969                1.96260214               -3.40842273               -0.10425033                0.06975568               -2.34743194
               7.56568133                6.68508050               44.59394526                0.88059346               -0.28107953               -0.56265357                1.49278627               -0.05661008                0.05556942                2.75760613
               8.56287054                6.15310628               44.25106018                0.35504282               -0.17221230               -0.01767523                0.40166159                0.03488098                0.38833710               -2.48842465
               9.56223709                5.62108824               43.91492780                0.00010000                0.97802469                0.57857929               -0.63347660               -3.09938393               16.54737532               -7.86332211
              10.58243103                5.02320809               43.89506141                0.00010000                2.27392224               -0.14177914               -0.95345657               -6.35396269               32.33542851               -4.86103098
              11.60771553                4.41387761               43.87299368                0.00010000                2.72035736               -0.65990010               -1.25620838               -6.97360004               32.34254527               -1.88544335
              12.63683818                3.79428248               43.85131489                0.00010000                3.03973556               -1.03076342               -1.53038394               -7.36778058               32.54791907                0.77302683
              13.66851024                3.16758787               43.83101361                0.00010000                3.28591521               -1.24882129               -1.74289985               -7.44833635               32.89255132                3.39768656
              14.70255648                2.53594068               43.81362015                0.02315793                3.49119525               -1.45177225               -1.86405456               -7.49282608               33.46068317                6.20996353
              15.73833415                1.89643612               43.80201286                0.16999682                2.47977740               -1.52218869               -1.83102366               -4.03889622               18.54329320                8.59166964
              16.75215203                1.32921775               43.48316646                0.39380367                1.06316239                0.07601506               -2.13972524               -0.33281894                1.65322397                2.88856363
              17.75959739                0.77034229               43.13139347                0.78886881                0.74453652                1.70800235               -3.10939297               -0.02236386                0.05508981               -2.69671206
               8.09438429                7.67993434               44.49685227                0.87126363               -0.18795889               -0.46761513                1.24105818               -0.05550145                0.05472275                2.79508588
               9.09250470                7.15336570               44.12780883                0.34283895               -0.05079567                0.07215127                0.03247101                0.04996619                0.42656147               -2.41730617
              10.09336838                6.62704309               43.76625575                0.00010000                1.36730517                0.63016631               -1.10263545               -3.66197706               20.68998152               -7.49893144
              11.11985081                6.02328322               43.80223946                0.00010000                2.82989071                0.11206571               -1.34613419               -7.45355031               40.59697312               -4.67930264
              12.14996619                5.40827996               43.83646095                0.00010000                3.18873458               -0.48220119               -1.54068790               -7.99015989               40.62025796               -1.89442034
              13.18362550                4.78397912               43.87027378                0.00010000                3.50761873               -1.03361189               -1.68204478               -8.32180955               40.79912127                0.79475785
              14.22011857                4.15375454               43.90514760                0.00010000                3.71266215               -1.44643561               -1.74860691               -8.40423807               41.12801465                3.41801737
              15.25787874                3.52009059               43.94244487                0.02856002                3.65619738               -1.60147200               -1.70830802               -8.50328999               41.47302010                5.94765283
              16.29324251                2.88325376               43.98108318                0.17791321                2.29952761               -1.17352112               -1.39468113               -4.61794454               22.53142214                7.91202492
              17.30386929                2.33062839               43.63595769                0.40486715                0.85331839                0.16274745               -1.75912690               -0.31781318                1.73970976                2.38842715
              18.31030888                1.78588413               43.25653861                0.79557844                0.64395895                1.42572503               -2.83197371               -0.01987325                0.07181024               -3.13798198
               8.61770859                8.67572820               44.40012861                0.86202254               -0.09474771               -0.37423636                0.98847416               -0.05485443                0.05681055                2.80554146
               9.61676111                8.15454930               44.00513210                0.33068780                0.06857172                0.16615224               -0.33738267                0.05441883                0.50718576               -2.36926826
              10.61908002                7.63369157               43.61915188                0.00010000                1.76810235                0.70650760               -1.56641054               -4.15329957               24.86072851               -7.35349770
              11.65212316                7.02544940               43.71090051                0.00010000                3.40682071                0.30916418               -1.71187078               -8.44635421               48.79614568               -4.50009766
              12.68721644                6.40423359               43.80052865                0.00010000                3.64021229               -0.35282878               -1.79688674               -9.00472059               48.81497915               -1.78764040
              13.72492740                5.77361025               43.88924497                0.00010000                3.85487844               -1.03225574               -1.81676751               -9.29374456               48.98308137                0.80861540
              14.76431401                5.13865916               43.97860573                0.00010000                3.90320312               -1.53003035               -1.75006311               -9.30004964               49.28145108                3.35795722
              15.80299147                4.50391124               44.06961905                0.03417104                3.55617272               -1.62339258               -1.55689107               -9.14945573               49.33578070                5.87154115
              16.83543746                3.87296570               44.15656737                0.18592951                2.00869638               -0.92671298               -0.91949071               -4.85759266               26.38702914                7.64118347
              17.84316539                3.33247270               43.78473612                0.41601563                0.66254956                0.17783037               -1.37849756               -0.27237095                1.79601020                2.10340340
              18.84868845                2.79885679               43.37783741                0.80230983                0.55230573                1.18524345               -2.56349989               -0.01895600                0.08890215               -3.39472215
               9.13564499                9.67244962               44.30349444                0.85274266               -0.00152874               -0.28194883                0.73431499               -0.05448585                0.05776977                2.78501252
              10.13562971                9.15668875               43.88272691                0.31859116                0.18786472                0.26311328               -0.70755967                0.05110964                0.60841891               -2.34364796
              11.13940229                8.64117325               43.47293588                0.00010000                2.23759970                0.78791869               -2.02492972               -4.59916691               29.07730624               -7.23201529
              12.18038170                8.02946651               43.62112446                0.00010000                4.11543226                0.42847754               -2.05732705               -9.20911371               56.99231169               -4.23726402
              13.22171093                7.40122338               43.76568475                0.00010000                4.14716700               -0.34963769               -2.02858900               -9.68919435               56.92168974               -1.61067740
              14.26332504                6.76333400               43.90812852                0.00010000                4.10528259               -1.02917542               -1.93487265               -9.79111512               57.06996175                0.78340367
              15.30381659                6.12315393               44.05116875                0.00010000                3.86290241               -1.48713850               -1.75249342               -9.74109569               57.42720451                3.19374610
              16.34058309                5.48762274               44.19645335                0.03985773                3.18563082               -1.59496503               -1.43391035               -9.32696692               57.15401190                5.80577201
              17.36752920                4.86471950               44.33024501                0.19401282                1.59738473               -0.74402360               -0.41343651               -4.87138243               30.13846781                7.49394963
              18.37253078                4.33418500               43.93129618                0.42721186                0.48161904                0.14712758               -0.99150155               -0.22823224                1.82460610                1.98851447
              19.37716158                3.80958900               43.49702495                0.80905889                0.46307993                0.97193837               -2.29481199               -0.02114250                0.10441702               -3.47723850
               9.64814061               10.67008922               44.20657881                0.84346258                0.09190626               -0.19082774                0.47806905               -0.05451577                0.07111736                2.76133579
              10.64905968               10.15981157               43.76037767                0.30659200                0.30891553                0.36329052               -1.07824685                0.03441735                0.75343103               -2.37054885
              11.65431892                9.64944994               43.32774087                0.00010000                2.94155351                0.85176823               -2.47362657               -5.07696511               33.43414395               -6.89782003
              12.70789075                9.03401895               43.53461388                0.00010000                5.26230643                0.16148657               -2.37600814               -9.60161004               65.23835650               -3.60323798
              13.75956505                8.39724084               43.73303679                0.00010000                4.96419022               -0.76522557               -2.22970395               -9.24732986               64.83825696               -1.27778510
              14.80717455                7.75302674               43.92640918                0.00010000                4.28191508               -1.01340601               -2.03268135               -8.96315561               64.92698844                0.65575779
              15.84520335                7.10891639               44.12106191                0.00010000                3.38560072               -1.10590397               -1.76179483               -9.05863626               65.54535547                2.68499670
              16.87488656                6.47201194               44.32179270                0.04573580                2.31221013               -1.28480828               -1.36370891               -8.94206981               65.05262561                5.30947171
              17.89144756                5.85808522               44.50263324                0.20227104                0.94223420               -0.57412187                0.11550107               -4.79048073               33.91780083                7.13764156
              18.89373125                5.33541525               44.07707597                0.43847117                0.30050216                0.08717895               -0.59390221               -0.21214624                1.88123375                2.05097920
              19.89745760                4.81829555               43.61572342                0.81580993                0.37263509                0.77680531               -2.01873602               -0.02656761                0.13650297               -3.43298779
              10.15510998               11.66863306               44.10965652                0.83415406                0.18473450               -0.10112092                0.22234550               -0.05430772               -0.02385100                2.39303996
              11.15695733               11.16395456               43.63717347                0.29468889                0.42728086                0.46498389               -1.45282586               -0.01115339                1.13091485               -2.13300206
              12.16365560               10.65820861               43.18765863                0.00010000                4.18006378                0.84819806               -2.89458738               -5.83363989               38.27388256               -5.12938620
              13.24055861               10.03269624               43.45735757                0.00010000                7.70504731               -1.65977039               -2.64233717               -7.72677966               73.46491290               -2.14129989
              14.31775655                9.38591887               43.70504861                0.00010000                6.59138863               -1.45200615               -2.38619539               -6.36469834               72.23806892               -0.72786268
              15.37238638                8.74306588               43.94298490                0.00010000                4.29510574               -0.96024496               -2.10030883               -5.63351149               72.20296905                0.38301879
              16.40365866                8.10103586               44.18343941                0.00010000                2.00932393               -0.39120489               -1.76465919               -6.10379749               73.33575388                1.59071339
              17.41257286                7.46192658               44.43830542                0.05192386                0.23288060                0.10122223               -1.36928708               -6.61121841               73.06115242                3.48229994
              18.40831627                6.85323706               44.66883759                0.21069700               -0.22476642               -0.28832849                0.63405678               -4.62085317               38.19017210                5.09728999
              19.40807753                6.33592858               44.22411931                0.44970333                0.12766718                0.01051704               -0.17875413               -0.25241752                2.25084543                1.92103823
              20.41086962                5.82512511               43.73477166                0.82249061                0.27920905                0.60196575               -1.73208197               -0.04101762                0.06276407               -2.84135465
              10.65641147               12.66806680               44.00552656                0.91403491                0.28495899               -0.05662609               -0.06136418                0.23459278                1.10319977                2.02686204
              11.65926106               12.16911124               43.51923745                0.64357595                0.62464869                0.51566877               -1.80093560                0.14772814                3.33163735               -1.84944480
              12.66890444               11.66641390               43.07733987                0.48437882                8.31919153                0.82052944               -3.18596866               -7.88950093               43.88222431               -3.63644822
              13.82564489               11.00082354               43.40061211                0.44721877               12.64984977               -3.18726956               -2.81562967               -6.40203103               80.68562916               -1.22965076
              14.92190144               10.36820071               43.68440491                0.43731616                7.68712233               -1.77181578               -2.48223417               -2.93559611               78.53466954               -0.43844540
              15.97938734                9.73382184               43.95662304                0.44730777                4.11826361               -0.92440451               -2.12963774               -2.65532536               78.45485999                0.17412445
              17.00426671                9.10109229               44.23193801                0.47662671                0.55368271                0.00564342               -1.73617420               -2.92846816               79.89645550                0.84705578
              17.99046099                8.47403638               44.52693629                0.52805477               -3.96191091                1.21098031               -1.33506759               -4.64986839               80.02507661                2.05520487
              18.92502849                7.85231865               44.79968125                0.60819274               -3.68330686               -0.09184073                0.97666952               -5.24931779               43.69439081                3.42410919
              19.91679485                7.33562559               44.36654271                0.72852929               -0.33921511               -0.03029883                0.22331471               -0.22745670                4.89731084                1.72560599
              20.91824419                6.83033487               43.86426202                0.91340071                0.14493371                0.52097637               -1.39048090                0.20838521                1.47708918               -2.26840148
               5.63964603                2.84072456               46.01573973                1.00000000               -0.72327779               -0.78805982                2.64828032               -0.15290933               -1.90542021                2.15927027
               6.63241325                2.26363582               45.75267245                0.83225852               -0.71629498               -0.49802570                1.94488800               -0.12580675               -2.50196607               -1.08828142
               7.62532013                1.68381528               45.47800121                0.60165995               -0.99174384               -0.26535676                1.15293693               -0.55046341               -2.30978019               -1.12104422
               8.61257837                1.08870895               45.21920494                0.49700347               -1.41438200               -0.11164291                0.41838528               -0.70239329               -0.26023480               -0.26123249
               9.59703249                0.46526933               44.98595153                0.44807939               -1.32035372                0.11667567               -0.36393585               -0.61166401                2.04525703               -0.21162520
              10.58617130               -0.18851676               44.77345411                0.44710952               -0.46377443                0.33609963               -1.18827521               -0.34897461                3.17418060               -0.00088846
              11.58775700               -0.85823414               44.56306250                0.49233799                0.66087103                0.55353652               -1.98495727               -0.32759465                2.31581906                0.19659256
              12.59938872               -1.52399718               44.33405310                0.58624565                1.31495555                0.76170856               -2.70404637               -0.40599376                0.27955298                0.33023589
              13.61405611               -2.17663760               44.08332834                0.73567393                1.43722462                0.94384794               -3.38105675               -0.34995550               -1.67232289                0.49646023
              14.62813321               -2.81812948               43.81486627                0.95242747                1.39503410                1.12804861               -4.07720318               -0.20314313               -2.14422174                1.07519407
              15.64195679               -3.45482644               43.55353876                1.00000000                1.38235809                1.39850952               -4.79995250               -0.19737060               -1.71030356               -1.67583706
               6.21520567                3.83284396               45.90781064                0.97764138               -0.55958540               -0.77170848                2.29856938               -0.05470455                0.42205311                2.57409797
               7.20960982                3.25865556               45.64017322                0.52274434               -0.39633725               -0.41670656                1.58549410               -0.09459078                1.44371997               -1.84558488
               8.20727893                2.68116172               45.39324696                0.10718801                0.26087985               -0.04990308                1.01711511               -0.89695824                3.74264378               -4.26686887
               9.21482742                2.08759252               45.17146757                0.00010000                1.11248879               -0.44448167                0.36719925               -2.04996332                5.89823327               -2.86967610
              10.22952870                1.46643609               44.96730538                0.00010000                1.48029365               -0.81538782               -0.31548704               -3.24424231                7.90562179               -0.79224018
              11.24443329                0.81484424               44.78557016                0.00010000                1.13462804               -0.38765855               -1.06434410               -3.96823272                9.15049414                0.22804897
              12.25222126                0.14730123               44.60619377                0.00010000                0.50486122                0.23879621               -1.79441176               -3.67917385                8.37055003                1.17858389
              13.25453051               -0.51638009               44.40826146                0.09198041                0.27007221                0.44284993               -2.44145675               -2.42582508                6.44011831                3.02141217
              14.25762271               -1.16719912               44.18943327                0.31430858                0.53328430                0.59315540               -3.04923218               -0.95277637                4.75901566                4.15491119
              15.26519620               -1.80684900               43.95706942                0.64639007                0.95286659                0.97983060               -3.64724330               -0.28152483                2.80846928                2.35278431
              16.27668004               -2.44084134               43.69836761                0.95925272                1.14838410                1.41417274               -4.30855532               -0.16848702                1.54976499               -2.26287703
               6.78692873                4.82529039               45.80860848                0.89049586               -0.47250545               -0.73410698                2.04144688               -0.08085522                0.36342261                2.98319322
               7.78220368                4.25530169               45.51271772                0.37204975               -0.42423641               -0.24482759                1.14743818               -0.11745462                1.78983351               -2.72501105
               8.77844400                3.68281722               45.24564455                0.00740174                0.20505286                0.37720144                0.47692236               -1.76712908                7.86480326               -8.92215213
               9.78630473                3.07981932               45.07141232                0.00010000                1.32259623               -0.83041030                0.10429617               -4.32739133               14.53309632               -4.91606046
              10.80489593                2.44896158               44.93669587                0.00010000                1.98183873               -1.40871679               -0.67231496               -6.10297280               16.52054617               -1.77557227
              11.82594151                1.80373007               44.80171183                0.00010000                2.02509643               -1.09671274               -1.27684138               -6.91370213               16.62197457                0.41641777
              12.84539786                1.14654179               44.66826980                0.00010000                1.97155293               -0.45454260               -1.83309164               -6.77765463               16.78572381                2.53705571
              13.86537257                0.48485982               44.53547948                0.01035597                2.00358164               -0.21276674               -2.37226948               -5.16767875               15.11889623                5.53012438
              14.88546949               -0.16477449               44.36768806                0.15235431                1.53861851               -0.91406416               -2.47962346               -2.33803449                9.70095188                9.99383603
              15.89614494               -0.79853287               44.12358812                0.37330032                1.05511262                0.36376207               -3.07319093               -0.72138432                3.45920724                4.01773201
              16.90657174               -1.42654298               43.82996394                0.77810204                1.04268042                1.75831618               -3.89514126               -0.55103935                1.02958720               -2.64595854
               7.35356597                5.81816182               45.70936267                0.87732573               -0.38320771               -0.66772342                1.79286589               -0.05787270                0.05373387                2.91346196
               8.34973389                5.25375901               45.38279080                0.35358019               -0.30736264               -0.10813038                0.77118933                0.00254370                0.60263675               -2.74811403
               9.34741871                4.68870575               45.06736691                0.00010000                0.62006722                0.58416677               -0.17232308               -2.50271859               12.77105617               -9.46824243
              10.36213523                4.07098432               44.98409617                0.00010000                1.80698901               -0.56781518               -0.56424204               -5.23188046               24.30223737               -4.80630128
              11.38355849                3.43826176               44.89857575                0.00010000                2.32219014               -0.90764434               -1.01696275               -6.23551740               24.50531659               -2.18636288
              12.40857904                2.79290998               44.81830200                0.00010000                2.59899645               -1.05462015               -1.47900691               -6.87788481               24.92441380                0.44817121
              13.43553842                2.13821038               44.73966719                0.00010000                2.69570897               -0.97542719               -1.87690988               -6.88230406               25.04170405                3.07370149
              14.46249322                1.47936457               44.66007995                0.01421475                2.93581432               -0.93395983               -2.16574606               -6.62466735               25.59677672                5.82193630
              15.49425471                0.81451960               44.59044636                0.15452284                2.50218930               -1.90198939               -2.37908100               -3.53070507               15.07303177               10.67333775
              16.51253700                0.20042624               44.29844685                0.36808225                1.37123819               -0.05297382               -2.62662058               -0.37433038                2.04672088                3.80572291
              17.52167947               -0.40567502               43.96586668                0.77187709                0.91424711                1.98251979               -3.55203593               -0.09794495                0.07642060               -2.51195478
               7.91457689                6.81193592               45.60908430                0.86818415               -0.28662708               -0.57538619                1.53734448               -0.05704743                0.05677236                2.88121103
               8.91171062                6.25313908               45.25504291                0.34160218               -0.17062853               -0.01647016                0.39500400                0.04699555                0.41908631               -2.60308027
               9.91116432                5.69450056               44.90836807                0.00010000                1.02002460                0.59681845               -0.67956830               -3.14975656               16.96847250               -8.20881690
              10.93211111                5.06846302               44.88513341                0.00010000                2.35477945               -0.10600536               -1.03379811               -6.45894501               33.10387689               -5.24205955
              11.95825991                4.43080869               44.85989201                0.00010000                2.81620382               -0.63899905               -1.36778407               -7.07168295               33.11202834               -2.23639060
              12.98843519                3.78263767               44.83534423                0.00010000                3.15186371               -1.01911426               -1.67036715               -7.47105051               33.33980203                0.49344626
              14.02129719                3.12703324               44.81280804                0.00010000                3.40674038               -1.24105533               -1.90899271               -7.55785227               33.73891187                3.20400818
              15.05657000                2.46618062               44.79410082                0.01934187                3.62482644               -1.44083427               -2.05697234               -7.61450867               34.40216878                6.11456123
              16.09379372                1.79718572               44.78258237                0.16203348                2.61414723               -1.52860875               -2.07634756               -4.14550025               19.40613122                8.70779637
              17.10885294                1.20040765               44.46124524                0.37849798                1.15108252                0.07601391               -2.25212779               -0.38431567                2.02980542                2.88433373
              18.11681537                0.61310741               44.09958184                0.77809924                0.79624222                1.73128228               -3.26318377               -0.02046402                0.06772522               -2.89490752
               8.47001870                7.80665409               45.50945084                0.85916182               -0.19095347               -0.48069062                1.28064907               -0.05609632                0.05623479                2.91790649
               9.46810916                7.25342961               45.12805313                0.32976281               -0.04595241                0.07676613                0.01585807                0.06138991                0.46736891               -2.53447399
              10.46909965                6.70064211               44.75494437                0.00010000                1.42695203                0.65121259               -1.16099861               -3.71461147               21.21836631               -7.83083869
              11.49664820                6.06886421               44.78830419                0.00010000                2.94252674                0.14331272               -1.44364632               -7.56861663               41.57280883               -5.01237255
              12.52795018                5.42548177               44.82042218                0.00010000                3.31426369               -0.45452180               -1.67218602               -8.10223997               41.62161285               -2.19840420
              13.56293348                4.77252770               44.85269134                0.00010000                3.64441207               -1.01091867               -1.84351757               -8.43004152               41.83768298                0.54596950
              14.60083842                4.11338927               44.88679485                0.00010000                3.85585454               -1.42277069               -1.93652507               -8.51353530               42.23161517                3.24534035
              15.64005057                3.45054789               44.92441347                0.02461802                3.81396262               -1.57456665               -1.91958188               -8.63462639               42.73443355                5.88107876
              16.67711768                2.78394742               44.96591090                0.16976496                2.44392148               -1.17431577               -1.66712595               -4.73812880               23.60816755                8.11515463
              17.68892900                2.20194652               44.61777868                0.38919926                0.93764969                0.18390975               -1.88535997               -0.36978227                2.14385102                2.39103266
              18.69587067                1.62895063               44.22744505                0.78454163                0.69416742                1.46097737               -2.99800543               -0.01661268                0.08723356               -3.35272375
               9.01990394                8.80232211               45.41017659                0.85024731               -0.09535427               -0.38608337                1.02271439               -0.05557731                0.05845758                2.92680893
              10.01895040                8.25467440               45.00162691                0.31796351                0.07667732                0.17404893               -0.36458641                0.06492309                0.56092023               -2.48683923
              11.02143749                7.70752481               44.60314225                0.00010000                1.84743610                0.73146197               -1.63774724               -4.21246889               25.51076048               -7.68042778
              12.05589912                7.07132927               44.69323666                0.00010000                3.55570670                0.33653166               -1.82398448               -8.57250132               49.99202712               -4.80169285
              13.09255162                6.42171826               44.78185776                0.00010000                3.80138714               -0.32882735               -1.94375410               -9.12578887               50.04580171               -2.05017235
              14.13192687                5.76241930               44.87025610                0.00010000                4.02273343               -1.00959355               -1.99217840               -9.40132817               50.26123435                0.59855731
              15.17300629                5.09857783               44.96020694                0.00010000                4.06962265               -1.50302409               -1.94713573               -9.40076125               50.64056746                3.21454348
              16.21331932                4.43468929               45.05312900                0.03008456                3.73131056               -1.58941771               -1.76721785               -9.29059497               50.94269219                5.81756656
              17.24763250                3.77369941               45.14608858                0.17751159                2.15673865               -0.91846343               -1.20631992               -4.98699920               27.68763282                7.89867341
              18.25645409                3.20408585               44.77031820                0.39997093                0.74211985                0.21181045               -1.51487870               -0.31738079                2.21186286                2.12053982
              19.26247490                2.64232696               44.35138210                0.79102859                0.60208092                1.22970503               -2.73997452               -0.01543458                0.10710641               -3.61171144
               9.56420256                9.79893243               45.31097488                0.84125085                0.00023618               -0.29224395                0.76317769               -0.05536979                0.05978361                2.90403160
              10.56420492                9.25691058               44.87546679                0.30636599                0.19964227                0.27469938               -0.74581579                0.05946480                0.67757945               -2.46104703
              11.56819540                8.71527135               44.45228036                0.00010000                2.33999058                0.81453188               -2.10710363               -4.67054389               29.85910120               -7.55044275
              12.61100473                8.07559484               44.59994945                0.00010000                4.30744886                0.44678645               -2.18121304               -9.35020969               58.41845608               -4.50627115
              13.65434438                7.41890523               44.74464899                0.00010000                4.35213038               -0.34087409               -2.18589088               -9.81472762               58.38176250               -1.82835656
              14.69804734                6.75233583               44.88793502                0.00010000                4.31044122               -1.02032484               -2.11641007               -9.88819099               58.57899385                0.61681149
              15.74055320                6.08332879               45.03277145                0.00010000                4.05348766               -1.46808932               -1.94653911               -9.82134403               59.02626186                3.07669617
              16.77911709                5.41875953               45.18129853                0.03560322                3.37139657               -1.56172444               -1.62520736               -9.46555697               59.12998978                5.74094615
              17.80798114                4.76557815               45.32482881                0.18538995                1.74183661               -0.72643941               -0.70242443               -5.00520724               31.68656732                7.79570637
              18.81395382                4.20618273               44.92073062                0.41077194                0.55493072                0.18729397               -1.13269269               -0.26499785                2.24165460                2.02603690
              19.81907975                3.65354473               44.47322282                0.79753315                0.51259264                1.02309723               -2.47869573               -0.01761033                0.12472199               -3.68496874
              10.10284023               10.79647723               45.21147105                0.83224278                0.09605380               -0.19945883                0.50145404               -0.05555687                0.07368344                2.87924365
              11.10380077               10.26016839               44.74935637                0.29475516                0.32510609                0.37873841               -1.12771305                0.03774829                0.84320776               -2.48932027
              12.10934235                9.72381545               44.30254795                0.00010000                3.07301430                0.87718951               -2.56538675               -5.17108975               34.36098264               -7.19558491
              13.16526106                9.08026500               44.51020879                0.00010000                5.50868665                0.15653772               -2.50856592               -9.76168796               66.90387498               -3.82331206
              14.21951609                8.41490077               44.70996165                0.00010000                5.22392147               -0.78664965               -2.39290120               -9.36611968               66.52227532               -1.43912807
              15.26973949                7.74201280               44.90524058                0.00010000                4.53198102               -1.02917948               -2.21423824               -9.03608882               66.64640591                0.53990345
              16.31015571                7.06921604               45.10263500                0.00010000                3.60096641               -1.10683507               -1.94391251               -9.10275609               67.35056372                2.59679336
              17.34175881                6.40345480               45.30751667                0.04139105                2.49747264               -1.25984873               -1.52005897               -9.04922607               67.41511657                5.20911961
              18.36010516                5.75917062               45.50254613                0.19338266                1.07143727               -0.54148405               -0.16627750               -4.92647665               35.74870662                7.46121578
              19.36318756                5.20783173               45.07049719                0.42164369                0.36467698                0.12880320               -0.73370865               -0.24485402                2.29567752                2.11427753
              20.36739870                4.66278891               44.59467365                0.80402896                0.42111407                0.83120755               -2.20488442               -0.02343369                0.15964919               -3.62371389
              10.63570909               11.79494325               45.11196671                0.82324344                0.19125702               -0.10798833                0.24044274               -0.05549356               -0.02684131                2.49661672
              11.63762166               11.26448535               44.62235133                0.28323690                0.44839525                0.48405974               -1.51359963               -0.01707602                1.25359934               -2.23900428
              12.64467700               10.73281514               44.15821089                0.00010000                4.35319910                0.86154845               -2.99378500               -5.95436844               39.37383534               -5.34724593
              13.72468565               10.07872560               44.43026207                0.00010000                8.02985941               -1.72097255               -2.77996763               -7.86913683               75.37408042               -2.27687463
              14.80527419                9.40317223               44.68039388                0.00010000                6.91623234               -1.50595562               -2.55203015               -6.44752136               74.12173781               -0.81432796
              15.86301029                8.73175224               44.92115233                0.00010000                4.58909465               -1.00143294               -2.27913717               -5.67016144               74.10078191                0.32516771
              16.89705608                8.06119209               45.16505099                0.00010000                2.25838518               -0.41889422               -1.93265909               -6.10905302               75.28438791                1.54339611
              17.90817800                7.39356256               45.42416299                0.04734420                0.40092989                0.09625272               -1.48599617               -6.66197981               75.80081180                3.38494566
              18.90507468                6.75474847               45.67401007                0.20155424               -0.13697712               -0.21433000                0.36702624               -4.71245440               40.35550668                5.34171162
              19.90543845                6.20875880               45.22173111                0.43254959                0.18110198                0.05057812               -0.31051449               -0.29177165                2.67473436                1.99734908
              20.90869672                5.67016888               44.71659958                0.81047890                0.32582633                0.65642087               -1.91526152               -0.04017817                0.08285281               -2.98944114
              11.16264616               12.79431746               45.00497004                0.90866954                0.29412005               -0.06257903               -0.04961730                0.24691866                1.14873575                2.11583937
              12.16558736               12.26984958               44.50088745                0.63796337                0.66842925                0.53642314               -1.87126678                0.13301707                3.56641436               -1.94049916
              13.17601474               11.74104642               44.04496934                0.48334456                8.59669369                0.82312725               -3.28712811               -8.06642763               45.19445248               -3.79359593
              14.33752123               11.04584555               44.37176965                0.44719334               13.07621393               -3.28800499               -2.95522220               -6.52967937               82.76964813               -1.28953662
              15.43753902               10.38478166               44.65878316                0.43738444                8.03975875               -1.83905731               -2.64848230               -2.96658715               80.56096949               -0.47103798
              16.49831640                9.72198414               44.93449962                0.44709206                4.43126542               -0.97680987               -2.30671386               -2.66656387               80.48821498                0.15672183
              17.52616433                9.06083816               45.21385894                0.47563762                0.83232134               -0.03539276               -1.89776922               -2.91938939               81.95966148                0.83321182
              18.51496283                8.40537986               45.51321784                0.52575171               -3.77522463                1.18172977               -1.43275502               -4.61922350               83.01474512                1.98351235
              19.45065983                7.75488402               45.80832107                0.60352361               -3.65155564                0.01355448                0.71904189               -5.26831254               46.19219326                3.60295161
              20.44193172                7.20884329               45.36823785                0.71981958               -0.34424334                0.00844937                0.10530331               -0.29900812                5.45037843                1.80381322
              21.44377497                6.67591732               44.84955421                0.90732224                0.18432494                0.57484442               -1.56233554                0.21522861                1.56314847               -2.37990678
               5.88690792                2.97225469               47.04253501                1.00000000               -0.73954958               -0.80973684                2.71402729               -0.15963013               -1.95742530                2.21437361
               6.87951243                2.36661348               46.77228982                0.82135008               -0.73437767               -0.50981833                1.98087062               -0.13853097               -2.59792837               -1.17086179
               7.87222037                1.75810552               46.48956295                0.59725579               -1.01068389               -0.26879180                1.15903257               -0.55900494               -2.41879905               -1.10872474
               8.85929875                1.13402388               46.22327828                0.49555739               -1.42616829               -0.10364999                0.39590300               -0.69861238               -0.35781937               -0.27539916
               9.84369700                0.48152408               45.98207365                0.44791830               -1.32872807                0.13519043               -0.41385759               -0.60502619                1.91122530               -0.21945738
              10.83272419               -0.20127808               45.76119937                0.44681228               -0.48599936                0.36529218               -1.26616760               -0.34546389                3.03926743               -0.00567737
              11.83397702               -0.90034507               45.54269777                0.49085971                0.63370122                0.59010927               -2.09416876               -0.31560748                2.23279327                0.19615614
              12.84539821               -1.59618762               45.30631643                0.58222662                1.31475076                0.80452876               -2.85099516               -0.39151416                0.25102359                0.33396259
              13.86027203               -2.27947280               45.04859574                0.72738055                1.47704792                0.99702322               -3.57177168               -0.34463505               -1.69162664                0.48857149
              14.87493917               -2.95172800               44.77294080                0.93727057                1.46389698                1.19130930               -4.31311882               -0.20879461               -2.18465188                1.07497102
              15.88954997               -3.61901432               44.50415592                1.00000000                1.46108006                1.47434598               -5.08070330               -0.21368372               -1.76107774               -1.70406695
               6.49095283                3.96415732               46.93114217                0.96232835               -0.57511309               -0.79679386                2.36819441               -0.06078351                0.49130183                2.67632779
               7.48520170                3.36151530               46.65625241                0.50425061               -0.40138555               -0.42764121                1.62703192               -0.10797589                1.58197013               -1.97685548
               8.48292512                2.75541761               46.40346995                0.10084600                0.27008236               -0.04133313                1.02912608               -0.92653778                3.91228658               -4.46308006
               9.49060335                2.13298738               46.17508665                0.00010000                1.11863012               -0.47380743                0.35720477               -2.06576927                6.00629051               -3.00228363
              10.50529772                1.48287599               45.96400662                0.00010000                1.48003888               -0.81054528               -0.34461098               -3.25101038                7.95368357               -1.01387266
              11.52020412                0.80237484               45.77469346                0.00010000                1.14889952               -0.39208704               -1.11216687               -3.97003905                9.16484752                0.04158741
              12.52827571                0.10555602               45.58792117                0.00010000                0.54214066                0.22615311               -1.86407463               -3.69446224                8.43204560                1.04784667
              13.53104694               -0.58814233               45.38337540                0.08609502                0.31600806                0.45566494               -2.54165663               -2.46824878                6.56537529                2.91425009
              14.53459587               -1.26950257               45.15827192                0.30197115                0.57875220                0.62397289               -3.18863677               -0.96432283                4.91350041                4.26895704
              15.54262198               -1.93981491               44.91969815                0.62306244                1.00517864                1.02759809               -3.83141370               -0.29315373                2.94019503                2.43006897
              16.55469945               -2.60427086               44.65417021                0.94297214                1.20774645                1.48431589               -4.53403312               -0.18536856                1.65304660               -2.32732763
               7.09097630                4.95631881               46.82943220                0.87725802               -0.48836772               -0.75882423                2.11795223               -0.08413351                0.36441593                3.12391150
               8.08609262                4.35806066               46.52431834                0.35738457               -0.43793855               -0.25417786                1.17418927               -0.11891649                1.90797560               -2.87356376
               9.08221753                3.75727886               46.25036848                0.00363722                0.22161806                0.39827665                0.47132029               -1.84322133                8.24238037               -9.38123646
              10.09052498                3.12454773               46.07219379                0.00010000                1.35359026               -0.83578483                0.04992574               -4.40068463               14.84858091               -5.35962444
              11.10928933                2.46531318               45.92966665                0.00010000                2.00591925               -1.41607094               -0.73489070               -6.12760879               16.71071571               -2.20436150
              12.13064337                1.79088018               45.78853222                0.00010000                2.06578063               -1.12247188               -1.36221752               -6.96255515               16.90650441                0.04656462
              13.15060495                1.10417799               45.64941798                0.00010000                2.02242309               -0.49446310               -1.94293471               -6.82152987               17.09817298                2.25766118
              14.17109183                0.41292568               45.51115009                0.00672434                2.10266036               -0.24571189               -2.50225460               -5.22391992               15.67252037                5.36139973
              15.19265815               -0.26699334               45.34245968                0.14450363                1.63762758               -0.91137234               -2.57033232               -2.41531775               10.21828700                9.94935178
              16.20384438               -0.93117604               45.09226292                0.35775176                1.10481681                0.36901691               -3.19624633               -0.75053515                3.60393386                4.09427590
              17.21475449               -1.58932800               44.79018096                0.76703438                1.09101079                1.80689739               -4.06468598               -0.56546839                1.05876287               -2.79179356
               7.68578647                5.94898084               46.72754885                0.86458387               -0.39231525               -0.68511328                1.84908434               -0.05874712                0.05568046                3.04482880
               8.68186332                5.35643174               46.39052879                0.33964645               -0.31064279               -0.11391566                0.77939849                0.01390856                0.64530219               -2.86518162
               9.67957362                4.76338314               46.06549315                0.00010000                0.63460102                0.60277942               -0.20192379               -2.54307766               13.13097845               -9.91301653
              10.69455534                4.11627168               45.97814087                0.00010000                1.84197413               -0.51944307               -0.62718213               -5.31844635               24.88914370               -5.34635792
              11.71641310                3.45455457               45.88795185                0.00010000                2.37664323               -0.90048993               -1.11057458               -6.29451672               25.03854519               -2.60742479
              12.74208820                2.77992541               45.80293004                0.00010000                2.66932590               -1.05590545               -1.60063456               -6.94064934               25.46690591                0.09043600
              13.76979962                2.09566676               45.72018717                0.00010000                2.78258366               -0.98188075               -2.02804332               -6.95275155               25.65670128                2.79661871
              14.79773988                1.40694343               45.63760167                0.01052868                3.02958118               -0.95136513               -2.34343943               -6.68315427               26.28623596                5.66967826
              15.83039124                0.71226998               45.56559641                0.14680444                2.61030277               -1.89395760               -2.61481683               -3.63619046               15.80076796               10.49953733
              16.84994593                0.06756543               45.27164497                0.35319362                1.46513751               -0.06256790               -2.74335603               -0.42493038                2.43048508                3.77363181
              17.85969399               -0.56813291               44.92957952                0.76135746                0.97480576                2.00968842               -3.71482201               -0.09362278                0.08602109               -2.72642898
               8.27489955                6.94261655               46.62469215                0.85578654               -0.29310603               -0.58903303                1.58687235               -0.05752261                0.05816725                3.01177575
               9.27196849                6.35578234               46.25896026                0.32808476               -0.16917600               -0.01697570                0.38964342                0.06065708                0.45679679               -2.72206721
              10.27151603                5.76933445               45.90133643                0.00010000                1.05080695                0.61344976               -0.72605424               -3.18562262               17.40547177               -8.57064601
              11.29298463                5.11415887               45.87438545                0.00010000                2.41146245               -0.06695791               -1.11728837               -6.53786196               33.88835382               -5.65238122
              12.31974528                4.44730338               45.84563800                0.00010000                2.88667793               -0.61042227               -1.48697657               -7.13992955               33.89669595               -2.62927638
              13.35071819                3.76976207               45.81790755                0.00010000                3.23933061               -0.99693831               -1.82472557               -7.54223559               34.14657764                0.16047951
              14.38453189                3.08454038               45.79283375                0.00010000                3.50536685               -1.22021608               -2.09893609               -7.63172886               34.59821335                2.94796167
              15.42082553                2.39389838               45.77248070                0.01551968                3.73902283               -1.41297227               -2.28793479               -7.68506979               35.34356257                5.94895158
              16.45931235                1.69512750               45.76048591                0.15409579                2.74615711               -1.51096740               -2.37106660               -4.23381772               20.36021784                8.73973827
              17.47574867                1.06757260               45.43812390                0.36329911                1.24831790                0.09053305               -2.38276282               -0.44977508                2.50664995                2.82309212
              18.48427871                0.45086577               45.06612979                0.76735613                0.85300392                1.75811486               -3.43862460               -0.01934204                0.08397184               -3.14693002
               8.85830443                7.93720017               46.52246525                0.84708010               -0.19458699               -0.49381042                1.32419024               -0.05691667                0.05776922                3.04627947
               9.85635856                7.35609223               46.12812599                0.31665086               -0.04098957                0.08082522               -0.00134971                0.07486635                0.51630142               -2.65676411
              10.85748463                6.77565213               45.74303577                0.00010000                1.47353083                0.67062841               -1.22235578               -3.74951262               21.76393554               -8.17754704
              11.88582917                6.11493253               45.77336654                0.00010000                3.02633364                0.18057080               -1.54597367               -7.65212245               42.56459089               -5.37197650
              12.91801131                5.44234612               45.80301723                0.00010000                3.40886595               -0.41500205               -1.81432918               -8.17890694               42.63841324               -2.53919753
              13.95400649                4.75998664               45.83340343                0.00010000                3.75087135               -0.97121821               -2.02440886               -8.49994821               42.89051022                0.25312316
              14.99302873                4.07126244               45.86641710                0.00010000                3.97224327               -1.37834760               -2.15628357               -8.57910471               43.34863414                3.02510687
              16.03345136                3.37868398               45.90405323                0.02069346                3.95059641               -1.52604353               -2.17925617               -8.70368300               43.99084098                5.77025231
              17.07204066                2.68205064               45.94774066                0.16152180                2.58804039               -1.15531260               -2.00135836               -4.83096612               24.77930685                8.26239973
              18.08521217                2.06937609               45.59825049                0.37360218                1.03400731                0.21794746               -2.03215236               -0.43303926                2.65596922                2.34514189
              19.09272081                1.46702939               45.19657850                0.77359498                0.75086440                1.49895073               -3.18890519               -0.01346702                0.10687044               -3.61509482
               9.43597712                8.93274034               46.42058290                0.83842570               -0.09632590               -0.39821920                1.06024433               -0.05652835                0.06031955                3.05333202
              10.43501386                8.35739885               45.99784038                0.30538447                0.08541802                0.18230586               -0.39352820                0.07619687                0.62413246               -2.61051093
              11.43768548                7.78274702               45.58639694                0.00010000                1.91171678                0.75532779               -1.71146202               -4.25057689               26.18126948               -8.02025980
              12.47324819                7.11777029               45.67442082                0.00010000                3.67137757                0.37182142               -1.94217072               -8.65953273               51.20670935               -5.12602417
              13.51111303                6.43900334               45.76165356                0.00010000                3.92773561               -0.28968811               -2.10392955               -9.20416388               51.29466187               -2.34258540
              14.55180291                5.75033771               45.84940140                0.00010000                4.15697119               -0.96504393               -2.19146448               -9.46269721               51.55759157                0.35566636
              15.59425245                5.05697343               45.93966302                0.00010000                4.20803825               -1.45013206               -2.18257160               -9.45053126               52.01974517                3.04095443
              16.63596367                4.36337751               46.03427469                0.02592692                3.88742352               -1.53149906               -2.03517081               -9.36390076               52.54185477                5.74466326
              17.67200092                3.67202125               46.13244097                0.16907089                2.30727292               -0.89372776               -1.56186725               -5.08290787               29.07787288                8.12202422
              18.68210913                3.07193155               45.75443855                0.38399044                0.83509212                0.25753294               -1.67453512               -0.37093833                2.73835454                2.09997686
              19.68870277                2.48084478               45.32303792                0.77983610                0.65936364                1.27843434               -2.94450245               -0.01113594                0.12989363               -3.86901328
              10.00785684                9.92923579               46.31875799                0.82975428                0.00189722               -0.30290386                0.79479693               -0.05641823                0.06181378                3.02829166
              11.00787581                9.35973834               45.86781059                0.29408807                0.21224081                0.28708872               -0.78672944                0.06779865                0.75995101               -2.58503580
              12.01210166                8.79075869               45.43079381                0.00010000                2.42531937                0.84303519               -2.18990691               -4.71843548               30.66651792               -7.87857321
              13.05638220                8.12236895               45.57750020                0.00010000                4.46294769                0.47348998               -2.31203011               -9.44499895               59.86745139               -4.79378661
              14.10136061                7.43655236               45.72196693                0.00010000                4.52001292               -0.31449756               -2.35823228               -9.89087262               59.86543357               -2.06805698
              15.14678246                6.74068576               45.86580032                0.00010000                4.48088502               -0.98651047               -2.32501822               -9.93330749               60.11427348                0.42894449
              16.19097831                6.04225980               46.01223796                0.00010000                4.21715297               -1.42003588               -2.18378100               -9.84728362               60.65849785                2.94600778
              17.23112552                5.34805400               46.16394920                0.03132846                3.54250759               -1.50238183               -1.87979054               -9.53848103               61.09550842                5.68193356
              18.26182846                4.66417608               46.31619653                0.17668480                1.89221741               -0.69464877               -1.06591578               -5.10435057               33.31292224                8.08041247
              19.26896987                4.07452675               45.90864233                0.39442984                0.64215781                0.23843793               -1.29932597               -0.30849302                2.76950841                2.03653869
              20.27467162                3.49259808               45.44745103                0.78610518                0.57017532                1.07998677               -2.69222326               -0.01312294                0.14998712               -3.92532673
              10.57384365               10.92668226               46.21660789                0.82107740                0.10032822               -0.20846919                0.52689200               -0.05681003                0.07626362                3.00228909
              11.57484693               10.36314062               45.73782340                0.28289515                0.34212531                0.39525212               -1.18048925                0.04173965                0.95032810               -2.61467679
              12.58068615                9.79960772               45.27643313                0.00010000                3.18538070                0.90418055               -2.65854319               -5.23903102               35.32099968               -7.50156106
              13.63855454                9.12724009               45.48444256                0.00010000                5.71463079                0.16144633               -2.64740243               -9.87096562               68.59819177               -4.05648624
              14.69497877                8.43271339               45.68517876                0.00010000                5.44373856               -0.78707783               -2.57182500               -9.43460780               68.23725510               -1.61483383
              15.74742932                7.73060750               45.88212441                0.00010000                4.74798832               -1.01877808               -2.42440780               -9.05891168               68.40302932                0.41268288
              16.78993854                7.02857271               46.08218366                0.00010000                3.79242267               -1.07899778               -2.17117633               -9.09600897               69.20812130                2.50785257
              17.82327777                6.33332987               46.29139152                0.03694274                2.67513154               -1.20648429               -1.74321094               -9.09699712               69.76609402                5.13304159
              18.84344117                5.65812828               46.49930769                0.18445820                1.21197518               -0.49398628               -0.52406122               -5.02998671               37.64436087                7.78190880
              19.84751727                5.07670031               46.06240180                0.40489630                0.44282408                0.18040750               -0.90030335               -0.28354548                2.81964137                2.16133511
              20.85229765                4.50244452               45.57162574                0.79236061                0.47803764                0.89288264               -2.42135574               -0.01967259                0.18805718               -3.83900464
              11.13380392               11.92506641               46.11446537                0.81236750                0.19812255               -0.11526628                0.25992911               -0.05691673               -0.03014752                2.60473907
              12.13578514               11.36764338               45.60690148                0.27178924                0.47088263                0.50442001               -1.57825153               -0.02404950                1.39919315               -2.35052276
              13.14322157               10.80884230               45.12778293                0.00010000                4.50360403                0.87086777               -3.09073400               -6.04101825               40.51579488               -5.57017130
              14.22585722               10.12559788               45.40175822                0.00010000                8.30397366               -1.76112191               -2.92327011               -7.96810052               77.31850891               -2.41965717
              15.30930104                9.42081080               45.65400801                0.00010000                7.19438386               -1.53559996               -2.73285649               -6.49377942               76.04311994               -0.90795389
              16.36974490                8.72031020               45.89740216                0.00010000                4.85173583               -1.01728942               -2.48615628               -5.67422079               76.04640721                0.26281182
              17.40633576                8.02067984               46.14478623                0.00010000                2.49425536               -0.42160368               -2.14530086               -6.07913510               77.30703689                1.50018513
              18.41963001                7.32392432               46.40858550                0.04276550                0.57612651                0.11335326               -1.66661214               -6.66837485               78.53330896                3.31249203
              19.41785829                6.65429635               46.67617811                0.19239187               -0.03236480               -0.11862874                0.02337905               -4.76891201               42.57346419                5.58944942
              20.41898271                6.07813490               46.21790902                0.41540637                0.24657257                0.09940354               -0.46890903               -0.33943092                3.20718122                2.06744472
              21.42278974                5.51045573               45.69646643                0.79860094                0.38070294                0.71914764               -2.12788832               -0.03907728                0.10849907               -3.15234712
              11.68755136               12.92437693               46.00453422                0.90333721                0.30386880               -0.06894726               -0.03721722                0.25995276                1.19643945                2.20875757
              12.69059005               12.37322902               45.48181212                0.63229978                0.71799675                0.55856364               -1.94617696                0.11289748                3.83189797               -2.03597253
              13.70191129               11.81702508               45.01159731                0.48224510                8.83169931                0.81827763               -3.38497306               -8.19159633               46.55864249               -3.95403074
              14.86722403               11.09201765               45.34150766                0.44717542               13.42397858               -3.35802328               -3.09917276               -6.61450367               84.89332786               -1.35115708
              15.97039087               10.40200139               45.63143526                0.43749689                8.34259136               -1.88094166               -2.82743767               -2.97881482               82.62866695               -0.50506848
              17.03407586                9.71026171               45.91048877                0.44683474                4.71754257               -1.00484894               -2.50922778               -2.65994168               82.57383250                0.13989434
              18.06474172                9.02014064               46.19398262                0.47466121                1.11089509               -0.05392081               -2.10132290               -2.89264313               84.10716253                0.82583433
              19.05629376                8.33559693               46.49828119                0.52339374               -3.54446840                1.16726168               -1.58822406               -4.55287138               86.00301035                1.93398266
              19.99385235                7.65575570               46.81406208                0.59888607               -3.58622403                0.14593468                0.38666284               -5.24602201               48.74653166                3.78841928
              20.98456928                7.07868838               46.36864877                0.71115234               -0.34889534                0.05534811               -0.03696719               -0.38775455                6.11861195                1.88148252
              21.98687444                6.51682747               45.83301531                0.90129072                0.23051604                0.63717446               -1.76108361                0.22237945                1.65834521               -2.49956246
               6.14098790                3.10779771               48.07002028                1.00000000               -0.75611589               -0.83243878                2.78220895               -0.16809700               -2.00895045                2.27343386
               7.13342674                2.47229341               47.79228986                0.81040680               -0.75161048               -0.52034742                2.01800479               -0.14907497               -2.69295605               -1.25331091
               8.12595569                1.83382680               47.50118187                0.59286238               -1.02577243               -0.27322090                1.16607923               -0.56198653               -2.52760080               -1.09362928
               9.11291129                1.17958423               47.22712300                0.49422222               -1.43098913               -0.09528844                0.37385213               -0.69010237               -0.45608361               -0.28984366
              10.09733591                0.49701424               46.97767438                0.44774262               -1.32893822                0.15514018               -0.46724134               -0.59416977                1.77677254               -0.22674849
              11.08633253               -0.21561849               46.74813076                0.44657950               -0.50200470                0.39616275               -1.35087074               -0.34028540                2.90391871               -0.01038578
              12.08729581               -0.94475781               46.52117913                0.48944146                0.60893509                0.62957599               -2.21483216               -0.30242538                2.14912108                0.19529680
              13.09851123               -1.67143587               46.27703319                0.57819489                1.31516970                0.85071119               -3.01175249               -0.37543236                0.22113522                0.33696856
              14.11359921               -2.38621854               46.01189290                0.71899863                1.51843803                1.05346178               -3.77573769               -0.33836988               -1.71342719                0.48043897
              15.12887999               -3.09014477               45.72860389                0.92217490                1.53528921                1.25750376               -4.56008247               -0.21370846               -2.22772416                1.07384059
              16.14430499               -3.78893635               45.45192469                1.00000000                1.54250015                1.55234249               -5.36998186               -0.22997119               -1.81431504               -1.73110481
               6.77481123                4.09947332               47.95517453                0.94701516               -0.58897862               -0.82178885                2.43641196               -0.06549502                0.56358397                2.78411487
               7.76892144                3.46708993               47.67271386                0.48580291               -0.40604072               -0.43696893                1.66357204               -0.11892771                1.72907182               -2.10998215
               8.76669041                2.83109459               47.41382948                0.09448136                0.27475531               -0.03287584                1.04395835               -0.94990624                4.09534134               -4.66876012
               9.77441655                2.17863134               47.17861167                0.00010000                1.11525753               -0.50058077                0.34861732               -2.07310326                6.12982092               -3.16557345
              10.78899556                1.49856564               46.96041316                0.00010000                1.46995730               -0.80425595               -0.37500740               -3.24261480                8.01944182               -1.26434060
              11.80381569                0.78834314               46.76332683                0.00010000                1.15923402               -0.39783627               -1.16334927               -3.95199757                9.19831458               -0.18188071
              12.81218025                0.06153795               46.56891228                0.00010000                0.58357868                0.20934113               -1.94237950               -3.69121275                8.50856469                0.87389402
              13.81548727               -0.66292875               46.35742832                0.08022348                0.36948569                0.46487054               -2.65297284               -2.49759094                6.69842613                2.76490657
              14.81956996               -1.37568392               46.12566053                0.28950368                0.63072707                0.65532945               -3.33944824               -0.97588912                5.06949262                4.38118370
              15.82810181               -2.07756973               45.88044115                0.59980008                1.06134489                1.07753029               -4.02413749               -0.30533289                3.07313772                2.51075223
              16.84079686               -2.77341292               45.60768695                0.92680338                1.26950471                1.55740930               -4.76552458               -0.20402281                1.75913060               -2.39097830
               7.40444477                5.09136193               47.85096752                0.86401845               -0.50178596               -0.78374390                2.18890442               -0.08536680                0.36186078                3.26786941
               8.39942691                4.46355403               47.53620151                0.34276539               -0.45143079               -0.26382375                1.20190623               -0.12092293                2.02991106               -3.03044860
               9.39541616                3.83316929               47.25507095                0.00010000                0.22756330                0.41914329                0.47041047               -1.91228172                8.62087508               -9.86537438
              10.40397818                3.16957261               47.07241083                0.00010000                1.36778277               -0.83829187               -0.00770988               -4.45986530               15.17460553               -5.84224088
              11.42277181                2.48092912               46.92199806                0.00010000                2.01710416               -1.42118663               -0.80066420               -6.13015802               16.92773982               -2.68950606
              12.44432026                1.77642479               46.77446747                0.00010000                2.09858178               -1.14998818               -1.45486866               -6.98169777               17.21017436               -0.39435239
              13.46474345                1.05942901               46.62941111                0.00010000                2.07305087               -0.54054848               -2.06511821               -6.83713283               17.43269305                1.89481868
              14.48578128                0.33786155               46.48543439                0.00311210                2.19894774               -0.28218599               -2.64988933               -5.26097706               16.28525842                5.10042409
              15.50872240               -0.37311195               46.31628142                0.13664958                1.73605281               -0.89159830               -2.67360262               -2.48994500               10.78836491                9.79566541
              16.52050234               -1.06859416               46.05966319                0.34233322                1.15942575                0.38038143               -3.32690912               -0.78072153                3.75586574                4.14918565
              17.53191092               -1.75778816               45.74867022                0.75599913                1.14085816                1.86302465               -4.24019184               -0.58270372                1.08726788               -2.96430539
               8.02871970                6.08379844               47.74634436                0.85192061               -0.40240678               -0.70534502                1.91214604               -0.06053574                0.05669757                3.17910868
               9.02469563                5.46181346               47.39837877                0.32587404               -0.31467493               -0.12267493                0.79219348                0.02271901                0.69208950               -2.99360461
              10.02242620                4.83947746               47.06332844                0.00010000                0.63818894                0.61878662               -0.22976365               -2.57577727               13.50322082              -10.38021220
              11.03745941                4.16186550               46.97155253                0.00010000                1.85570147               -0.46914415               -0.69125007               -5.38685548               25.49110446               -5.91325237
              12.05954023                3.47014191               46.87636426                0.00010000                2.41112170               -0.88856638               -1.20995342               -6.33111069               25.58825861               -3.08031691
              13.08568184                2.76534337               46.78628931                0.00010000                2.72302994               -1.05254570               -1.73352832               -6.97820963               26.02598831               -0.33500007
              14.11400083                2.05072698               46.69910632                0.00010000                2.85634229               -0.98332350               -2.19827601               -6.99854951               26.28890720                2.43702670
              15.14280869                1.33142753               46.61321116                0.00675093                3.11129705               -0.95767281               -2.55026971               -6.71175258               26.97640434                5.41584316
              16.17622677                0.60648411               46.53815002                0.13902656                2.71774527               -1.85259063               -2.89827142               -3.73785807               16.61295108               10.16560552
              17.19716359               -0.06996210               46.24357973                0.33839321                1.56520057               -0.05709341               -2.87804393               -0.48984122                2.90790284                3.68463900
              18.20753078               -0.73615243               45.89157024                0.75094786                1.03671859                2.04790018               -3.89496983               -0.09042753                0.09743778               -3.00013031
               8.64720403                7.07725503               47.64082174                0.84338722               -0.30017489               -0.60547564                1.64157280               -0.05880529                0.05988720                3.14743138
               9.64420228                6.46110053               47.26283578                0.31464616               -0.16777296               -0.01996277                0.38648614                0.07295108                0.50227452               -2.84969046
              10.64384857                5.84554502               46.89384698                0.00010000                1.06871720                0.62766038               -0.77191159               -3.20995951               17.85821623               -8.94845916
              11.66557662                5.16018973               46.86278765                0.00010000                2.44115800               -0.02380979               -1.20345033               -6.59440344               34.68844439               -6.09530888
              12.69267173                4.46315779               46.83015247                0.00010000                2.92971863               -0.57298229               -1.61427065               -7.18372657               34.69523496               -3.06906232
              13.72417099                3.75537387               46.79884972                0.00010000                3.30082888               -0.96235325               -1.99528449               -7.58666413               34.96447609               -0.23414528
              14.75868830                3.03976254               46.77082931                0.00010000                3.58090504               -1.18324207               -2.31646753               -7.67526512               35.46269502                2.61710990
              15.79578909                2.31870809               46.74834212                0.01166401                3.83332834               -1.36342944               -2.56272295               -7.70955851               36.27406634                5.69456442
              16.83535487                1.58983624               46.73516104                0.14613801                2.87764813               -1.46218827               -2.72896033               -4.30821701               21.41983750                8.67428541
              17.85334206                0.93026397               46.41358999                0.34811560                1.35640749                0.12484097               -2.53724854               -0.53097256                3.10255455                2.69993310
              18.86248302                0.28316984               46.03080935                0.75674996                0.91409638                1.79465151               -3.63947539               -0.01834822                0.10504059               -3.46247375
               9.25985259                8.07168893               47.53593465                0.83497229               -0.19879284               -0.50795144                1.37186180               -0.05790466                0.05967020                3.18037890
              10.25786467                7.46141420               47.12802613                0.30367031               -0.03573904                0.08395272               -0.01861294                0.08792363                0.57416035               -2.78597148
              11.25913781                6.85203067               46.73049725                0.00010000                1.50469506                0.69082802               -1.28419055               -3.76955141               22.32856328               -8.53761862
              12.28795857                6.16138931               46.75738472                0.00010000                3.07718697                0.22426991               -1.65242583               -7.70741714               43.57316200               -5.76090084
              13.32068155                5.45868226               46.78413560                0.00010000                3.46926200               -0.36204757               -1.96748736               -8.22502242               43.66773924               -2.92195242
              14.35734381                4.74609631               46.81220316                0.00010000                3.82398769               -0.91190694               -2.22677641               -8.53609356               43.95149468               -0.09211384
              15.39716131                4.02706214               46.84366917                0.00010000                4.06000082               -1.30932458               -2.41240940               -8.60488856               44.46824073                2.74493384
              16.43854382                3.30415894               46.88082835                0.01663367                4.06726218               -1.45107501               -2.49634613               -8.71162141               45.22965131                5.59940698
              17.47850655                2.57724035               46.92588373                0.15336149                2.73333593               -1.10761077               -2.40971928               -4.89764918               26.06208342                8.33537573
              18.49321054                1.93253472               46.57713563                0.35808012                1.14227597                0.27147931               -2.20643358               -0.51087886                3.30136028                2.24339054
              19.50135207                1.29974060               46.16366694                0.76270785                0.81415278                1.54521615               -3.41095436               -0.00986191                0.13226047               -3.93512190
               9.86659539                9.06709600               47.43138148                0.82664532               -0.09763730               -0.41078286                1.10113350               -0.05758973                0.06239221                3.18551276
              10.86561901                8.46277959               46.99375634                0.29273100                0.09435241                0.19063182               -0.42402354                0.08845157                0.70000199               -2.74074598
              11.86848244                7.85936158               46.56891301                0.00010000                1.95788350                0.78165151               -1.78414341               -4.27030612               26.87445423               -8.36860192
              12.90477668                7.16467512               46.65439325                0.00010000                3.74909207                0.41540326               -2.06591578               -8.71113362               52.43894917               -5.47576849
              13.94346428                6.45591684               46.73977917                0.00010000                4.01462794               -0.23316862               -2.27767601               -9.24340088               52.55721570               -2.66945091
              14.98506924                5.73713573               46.82642681                0.00010000                4.25318141               -0.89522996               -2.41715344               -9.48114087               52.86361225                0.07211803
              16.02852791                5.01357605               46.91655551                0.00010000                4.31546073               -1.36669192               -2.46245566               -9.45180826               53.40547731                2.82608016
              17.07137846                4.28968659               47.01242559                0.02176660                4.02491029               -1.44387805               -2.37134237               -9.36835778               54.11992555                5.63922141
              18.10902611                3.56768402               47.11485124                0.16060184                2.46228866               -0.84603324               -2.00255003               -5.14765671               30.57923911                8.29574973
              19.12062423                2.93569355               46.73682749                0.36811671                0.94239527                0.32077696               -1.86456176               -0.43654589                3.40377705                2.03421225
              20.12787402                2.31407416               46.29249206                0.76874188                0.72497852                1.33548915               -3.18375023               -0.00643857                0.15862113               -4.17483673
              10.46733364               10.06347327               47.32687082                0.81831487                0.00344867               -0.31401878                0.82895144               -0.05768909                0.06377576                3.15791581
              11.46736812                9.46522684               46.85973221                0.28180873                0.22512582                0.30021900               -0.83012111                0.07767492                0.85973027               -2.71536776
              12.47183615                8.86766370               46.40848223                0.00010000                2.49062557                0.87167662               -2.27435264               -4.74343551               31.50312349               -8.21700996
              13.51718063                8.16969737               46.55370885                0.00010000                4.57583880                0.51010665               -2.44805287               -9.49711165               61.33659730               -5.10056457
              14.56335293                7.45401889               46.69748434                0.00010000                4.64405716               -0.26769106               -2.54604587               -9.91953022               61.36683859               -2.33375078
              15.61006178                6.72819171               46.84143466                0.00010000                4.61106784               -0.92355554               -2.56387215               -9.92823270               61.66508679                0.21311234
              16.65557429                5.99972830               46.98909583                0.00010000                4.35034599               -1.33756102               -2.47172874               -9.81936075               62.30819556                2.79298093
              17.69706870                5.27528138               47.14370272                0.02701752                3.69860837               -1.41036283               -2.21180116               -9.54152074               63.03710542                5.61676440
              18.72954645                4.56031968               47.30351050                0.16797288                2.05103944               -0.64284098               -1.52177465               -5.16875653               35.04415002                8.33803589
              19.73808949                3.93895025               46.89474410                0.37820693                0.74578136                0.30490901               -1.49839687               -0.36155969                3.43872951                2.01381698
              20.74446208                3.32645038               46.41937836                0.77480228                0.63725938                1.14596263               -2.94235654               -0.00808995                0.18140148               -4.20378239
              11.06193447               11.06081563               47.22200889                0.80989162                0.10476172               -0.21807861                0.55429346               -0.05815150                0.07900956                3.13066551
              12.06298209               10.46878397               46.72574658                0.27110310                0.36043602                0.41296730               -1.23656884                0.04496677                1.07817593               -2.74621633
              13.06914319                9.87679511               46.24937709                0.00010000                3.27485851                0.92919197               -2.74875878               -5.28033504               36.31809771               -7.81537164
              14.12847926                9.17487726               46.45726074                0.00010000                5.87180710                0.17849876               -2.79133491               -9.92909948               70.31921646               -4.30302831
              15.18657934                8.45056302               46.65852515                0.00010000                5.61579578               -0.76311164               -2.76680273               -9.45364603               69.97565425               -1.80788425
              16.24079518                7.71866462               46.85675242                0.00010000                4.92358440               -0.97737941               -2.66694560               -9.03198707               70.18487503                0.26905969
              17.28505102                6.98682483               47.05921148                0.00010000                3.95807426               -1.01657389               -2.45291636               -9.03730496               71.09996930                2.41171946
              18.31995666                6.26147933               47.27265245                0.03245608                2.84655399               -1.11793238               -2.04969925               -9.08070199               72.09357748                5.07427075
              19.34198210                5.55482720               47.49206490                0.17556001                1.36528399               -0.42683081               -0.97899277               -5.10068067               39.63141126                8.09287842
              20.34726234                4.94179173               47.05249112                0.38827256                0.53649300                0.24552292               -1.10051210               -0.33147561                3.48367633                2.18713508
              21.35271196                4.33699342               46.54624654                0.78081936                0.54496224                0.96409937               -2.67508405               -0.01534176                0.22321275               -4.08216138
              11.65023393               12.05911170               47.11716530                0.80144556                0.20540446               -0.12303522                0.28076912               -0.05831772               -0.03335497                2.71783376
              12.65228798               11.47348619               46.59078630                0.26025091                0.49511145                0.52624486               -1.64715769               -0.03420170                1.57361151               -2.46751880
              13.66013616               10.88624754               46.09639621                0.00010000                4.62713808                0.87709586               -3.18490774               -6.09349953               41.70534736               -5.79521659
              14.74483074               10.17326735               46.37179667                0.00010000                8.51782422               -1.77768745               -3.06990516               -8.02101521               79.29536278               -2.57082347
              15.83049264                9.43875666               46.62573675                0.00010000                7.41647427               -1.53686140               -2.92879078               -6.50356519               77.99450845               -1.01011206
              16.89316022                8.70864412               46.87142921                0.00010000                5.07604155               -1.00279056               -2.72533282               -5.64546562               78.02700428                0.19306167
              17.93201348                7.97939682               47.12214497                0.00010000                2.71460316               -0.39313900               -2.41309907               -6.01286319               79.38557308                1.45663709
              18.94745229                7.25292273               47.39083075                0.03818683                0.76034816                0.15943956               -1.93116841               -6.63134199               81.24408312                3.26489791
              19.94722044                6.55178307               47.67447766                0.18321646                0.09207386                0.00286310               -0.41825873               -4.79106172               44.86829431                5.83597874
              20.94929376                5.94386071               47.21235293                0.39843954                0.32657211                0.16008502               -0.66106948               -0.39811524                3.87854619                2.12838767
              21.95375188                5.34573237               46.67404181                0.78680690                0.44581178                0.79174542               -2.37688634               -0.03799206                0.14065613               -3.33175009
              12.23201915               13.05835492               47.00422570                0.89797587                0.31430720               -0.07567784               -0.02425727                0.27391578                1.24665911                2.30613464
              13.23516222               12.47930886               46.46196391                0.62669965                0.77364458                0.58226764               -2.02639841                0.08652982                4.13596273               -2.13610462
              14.24749204               11.89433703               45.97726988                0.48114440                9.01938076                0.80894914               -3.48048152               -8.26367959               47.98706918               -4.11963042
              15.41554984               11.13932351               46.30978620                0.44712689               13.68196083               -3.39438392               -3.24381774               -6.65365191               87.05448141               -1.41483229
              16.52113126               10.41982579               46.60223441                0.43757320                8.58479291               -1.89308653               -3.01870051               -2.97187360               84.73186765               -0.54144370
              17.58724569                9.69860881               46.88431506                0.44661879                4.96919472               -1.00353116               -2.74064019               -2.63463967               84.69904376                0.12195968
              18.62051515                8.97896205               47.17183248                0.47365123                1.38489413               -0.04347722               -2.35687887               -2.84686667               86.32177128                0.82221660
              19.61494358                8.26466812               47.48145336                0.52107723               -3.26461332                1.17453942               -1.82374937               -4.45475013               88.97076114                1.90909756
              20.55522289                7.55488447               47.81605432                0.59421576               -3.47964209                0.31013978               -0.04248983               -5.18348980               51.38053021                3.97911523
              21.54535074                6.94499343               47.36749851                0.70252388               -0.35070380                0.11327213               -0.21139552               -0.49710985                6.93159235                1.95737884
              22.54820881                6.35282832               46.81433254                0.89531964                0.28580740                0.70959550               -1.99399846                0.22918188                1.76206642               -2.62811020
               6.40218975                3.24741487               49.09817919                1.00000000               -0.76980288               -0.85224942                2.84463984               -0.17594967               -2.05723738                2.33646260
               7.39449172                2.58069927               48.81264992                0.79951197               -0.76772652               -0.52952647                2.05247209               -0.16021246               -2.78624807               -1.33243475
               8.38683522                1.91093770               48.51288454                0.58850220               -1.04035779               -0.27843852                1.17804380               -0.56258828               -2.63845734               -1.07581979
               9.37368456                1.22524967               48.23075532                0.49280877               -1.43052616               -0.08615913                0.35276652               -0.67815436               -0.55943415               -0.30471517
              10.35822469                0.51151156               47.97272882                0.44754004               -1.31933748                0.17539426               -0.52345129               -0.58170947                1.63692471               -0.23434859
              11.34729781               -0.23187793               47.73418196                0.44642793               -0.50838452                0.42784435               -1.44262839               -0.33350091                2.76409850               -0.01477858
              12.34805700               -0.99190543               47.49840113                0.48792366                0.59046652                0.67073563               -2.34594438               -0.28917847                2.06073149                0.19378948
              13.35910714               -1.75023851               47.24608138                0.57412203                1.31878910                0.89931118               -3.18530604               -0.35868640                0.18655752                0.33972889
              14.37443279               -2.49739928               46.97308098                0.71063314                1.56228754                1.11318697               -3.99313458               -0.33034785               -1.73958394                0.47246312
              15.39035290               -3.23392570               46.68173915                0.90719047                1.60946429                1.32665338               -4.81880395               -0.21753960               -2.27361821                1.07157913
              16.40662207               -3.96516092               46.39675629                1.00000000                1.62691769                1.63249714               -5.66906603               -0.24668353               -1.86933010               -1.75841028
               7.06714585                4.23889237               48.97987041                0.93178976               -0.60176712               -0.84542503                2.50236026               -0.07104725                0.64038385                2.89892074
               8.06112818                3.57540401               48.68952385                0.46727323               -0.41058568               -0.44562487                1.69793529               -0.13216831                1.88446478               -2.24529626
               9.05893414                2.90815332               48.42434911                0.08811383                0.27439570               -0.02326406                1.06226517               -0.97127200                4.29084986               -4.88336544
              10.06661609                2.22438808               48.18205900                0.00010000                1.10186318               -0.52438074                0.34124943               -2.07411934                6.26421710               -3.36194534
              11.08097140                1.51326550               47.95650648                0.00010000                1.45276024               -0.79698029               -0.40731092               -3.22123848                8.10031814               -1.54582692
              12.09567130                0.77240051               47.75142648                0.00010000                1.16870548               -0.40457082               -1.22067248               -3.91637895                9.24663122               -0.44468545
              13.10434551                0.01480193               47.54907358                0.00010000                0.62979546                0.18928745               -2.02970734               -3.67055118                8.59575695                0.65376844
              14.10826721               -0.74124540               47.33031594                0.07425401                0.43136962                0.46949183               -2.77490726               -2.51248976                6.83734815                2.56959714
              15.11297290               -1.48626741               47.09148296                0.27709026                0.68955561                0.69148775               -3.50006455               -0.98249512                5.22738455                4.48855306
              16.12205832               -2.22065917               46.83921540                0.57665026                1.12087782                1.12973930               -4.22400893               -0.31742697                3.20859670                2.59392221
              17.13539046               -2.94883595               46.55885972                0.91075518                1.33321394                1.63317607               -5.00239003               -0.22449234                1.86878011               -2.45616027
               7.72774554                5.23050637               48.87321029                0.85091072               -0.51581289               -0.80917933                2.26207434               -0.08667175                0.35785352                3.41845529
               8.72258741                4.57178677               48.54835646                0.32816364               -0.46599169               -0.27393139                1.22959290               -0.12205491                2.15636874               -3.19789090
               9.71842571                3.91047242               48.25977668                0.00010000                0.22512910                0.44247755                0.47165671               -1.97472927                8.99766868              -10.37756460
              10.72708999                3.21476205               48.07203959                0.00010000                1.36808914               -0.83791266               -0.06795060               -4.50874784               15.50885206               -6.36588194
              11.74578749                2.49557195               47.91365336                0.00010000                2.01719062               -1.42358440               -0.87095861               -6.11306537               17.17123367               -3.23434754
              12.76743381                1.76003065               47.75943485                0.00010000                2.12522012               -1.17786770               -1.55608130               -6.97485090               17.53089301               -0.91153247
              13.78829189                1.01188032               47.60811562                0.00010000                2.12464410               -0.59064195               -2.20089651               -6.82844638               17.78649497                1.44081034
              14.80992669                0.25915133               47.45815230                0.00010000                2.29523789               -0.32010199               -2.81666228               -5.27463928               16.95806986                4.73666807
              15.83419665               -0.48356953               47.28898763                0.12884135                1.83231026               -0.85150562               -2.78844452               -2.55867259               11.41795580                9.51371463
              16.84657289               -1.21133091               47.02572473                0.32702000                1.21445715                0.39952906               -3.46215383               -0.81512115                3.91985122                4.17433249
              17.85848579               -1.93249740               46.70537712                0.74519894                1.19128994                1.92806553               -4.41978577               -0.60308514                1.11521078               -3.17384686
               8.38285160                6.22270879               48.76579177                0.83930200               -0.41305763               -0.72657431                1.97917553               -0.06215684                0.05754716                3.31637658
               9.37872103                5.56992538               48.40637266                0.31196566               -0.31936670               -0.13228018                0.80636769                0.03477040                0.74335876               -3.13506616
              10.37646427                4.91700287               48.06089788                0.00010000                0.63102884                0.63620162               -0.25679924               -2.59963877               13.88625317              -10.87561631
              11.39134161                4.20762982               47.96431587                0.00010000                1.84886114               -0.41707760               -0.75691546               -5.44255123               26.10701033               -6.50791754
              12.41344149                3.48479381               47.86375279                0.00010000                2.42621521               -0.87105759               -1.31551789               -6.34931249               26.15327018               -3.60842253
              13.43986591                2.74884316               47.76825948                0.00010000                2.76072075               -1.04326695               -1.87872899               -6.99538290               26.59895925               -0.83410338
              14.46865591                2.00298909               47.67622165                0.00010000                2.91791791               -0.97802966               -2.38914316               -7.02445500               26.93295464                1.98488276
              15.49822427                1.25235256               47.58659627                0.00301776                3.18128902               -0.94894254               -2.78822415               -6.71190855               27.65682128                5.04439465
              16.53228169                0.49670248               47.50763098                0.13125795                2.82297507               -1.77754867               -3.22656278               -3.83782794               17.51756462                9.63897952
              17.55468377               -0.21266858               47.21408409                0.32367692                1.66900193               -0.03268604               -3.02960766               -0.56992804                3.49459687                3.52560046
              18.56566173               -0.91027464               46.85168013                0.74062334                1.09779585                2.10084962               -4.09210741               -0.08785526                0.11156130               -3.34950998
               9.03206922                7.21597488               48.65752361                0.83105849               -0.30804830               -0.62303868                1.70094335               -0.06020815                0.06191896                3.28763548
              10.02898874                6.56914117               48.26668998                0.30122578               -0.16703688               -0.02365731                0.38431229                0.08898503                0.55563173               -2.98877844
              11.02872849                5.92319645               47.88589820                0.00010000                1.07296424                0.64154332               -0.81789996               -3.22438145               18.32774631               -9.34684592
              12.05044803                5.20642050               47.85031644                0.00010000                2.44297096                0.02395437               -1.29189156               -6.63665942               35.50404970               -6.57296969
              13.07758791                4.47815080               47.81335259                0.00010000                2.94414224               -0.52567153               -1.74977217               -7.20745137               35.50543967               -3.55948268
              14.10933087                3.73916531               47.77800186                0.00010000                3.33527421               -0.91379440               -2.18287060               -7.60970867               35.78882787               -0.69751745
              15.14429339                2.99231973               47.74650440                0.00010000                3.63221297               -1.12770846               -2.56338749               -7.69401937               36.32382611                2.19968436
              16.18197513                2.24017247               47.72122624                0.00777765                3.90839235               -1.28819507               -2.88468087               -7.69173349               37.17958815                5.33274351
              17.22246124                1.48087950               47.70590670                0.13815812                3.00881589               -1.38172643               -3.15762164               -4.37318729               22.59950546                8.49171057
              18.24215145                0.78801537               47.38737893                0.33305599                1.47397802                0.18374867               -2.71916612               -0.62937586                3.84076306                2.50481643
              19.25194080                0.10951959               46.99334028                0.74620410                0.97893493                1.84594398               -3.87011900               -0.01749431                0.13174309               -3.85578597
               9.67531487                8.21024801               48.54990249                0.82295610               -0.20357079               -0.52302303                1.42340598               -0.05927749                0.06170552                3.32007763
              10.67327916                7.56945223               48.12775374                0.29058649               -0.03087784                0.08683415               -0.03617490                0.10396725                0.64398392               -2.92392758
              11.67469731                6.92983373               47.71735196                0.00010000                1.51874560                0.70967775               -1.34435601               -3.77670748               22.91427729               -8.91267872
              12.70365407                6.20810891               47.74031802                0.00010000                3.09251722                0.27551449               -1.76219286               -7.74201793               44.59705949               -6.18144823
              13.73654765                5.47428038               47.76366748                0.00010000                3.49243684               -0.29426124               -2.13130012               -8.24528854               44.70623544               -3.35079277
              14.77350281                4.73056727               47.78886790                0.00010000                3.86103526               -0.83083721               -2.45146107               -8.54387626               45.01346606               -0.49755881
              15.81376836                3.98043492               47.81816891                0.00010000                4.11635086               -1.21256746               -2.70766388               -8.59543886               45.57769068                2.39212203
              16.85582983                3.22658866               47.85412631                0.01263373                4.16033463               -1.34424577               -2.87614132               -8.66378233               46.43666012                5.34973790
              17.89697505                2.46906795               47.89954627                0.14509123                2.88131671               -1.02850091               -2.90699111               -4.94298545               27.47878856                8.31955375
              18.91345616                1.79100639               47.55412182                0.34263118                1.26641674                0.34959780               -2.41491969               -0.60156513                4.10684726                2.07863462
              19.92230339                1.12664424               47.12835941                0.75202040                0.88472280                1.60585224               -3.67130092               -0.00595133                0.16446349               -4.32305973
              10.31247524                9.20551442               48.44260557                0.81488754               -0.09928726               -0.42406593                1.14514240               -0.05892097                0.06460472                3.32346323
              11.31148237                8.57087785               47.98935991                0.28005395                0.10312091                0.19942569               -0.45607426                0.10277195                0.79278645               -2.87817583
              12.31453766                7.93739001               47.55071407                0.00010000                1.98393268                0.80603408               -1.85708930               -4.27284436               27.59426798               -8.73249701
              13.35116102                7.21193079               47.63310250                0.00010000                3.78430590                0.46906290               -2.19312140               -8.73332367               53.68632451               -5.85112299
              14.39022378                6.47226557               47.71610004                0.00010000                4.05688930               -0.15745096               -2.46441417               -9.24791527               53.82839637               -3.03509595
              15.43229881                5.72254857               47.80105834                0.00010000                4.30697238               -0.79724354               -2.67039401               -9.46136471               54.16912194               -0.25996926
              16.47636322                4.96806838               47.89041390                0.00010000                4.38838246               -1.24857329               -2.79083035               -9.40776062               54.78141860                2.55751128
              17.52006646                4.21328756               47.98684785                0.01757597                4.14102874               -1.32131140               -2.78475535               -9.30678828               55.65983142                5.48389707
              18.55918380                3.46030948               48.09238997                0.15214461                2.62386982               -0.76724080               -2.54562693               -5.17926017               32.21866628                8.40387381
              19.57254385                2.79500732               47.71714731                0.35233133                1.06811345                0.40665363               -2.09269281               -0.51262038                4.24128411                1.91657699
              20.58054607                2.14163664               47.25936292                0.75780185                0.80022150                1.40618517               -3.46608975               -0.00068092                0.19509861               -4.53632268
              10.94340958               10.20176670               48.33533702                0.80684676                0.00494270               -0.32566634                0.86562921               -0.05893413                0.06607461                3.29349759
              11.94345901                9.57344075               47.85120817                0.26967865                0.23889497                0.31421720               -0.87610778                0.08738032                0.97889841               -2.85226880
              12.94818748                8.94595442               47.38530676                0.00010000                2.53265097                0.89981508               -2.35652271               -4.74771413               32.37247751               -8.56295377
              13.99411203                8.21749017               47.52853914                0.00010000                4.63920437                0.55804536               -2.58761842               -9.50966321               62.82511414               -5.42768768
              15.04097157                7.47113136               47.67104602                0.00010000                4.71803390               -0.19811392               -2.74842614               -9.90456847               62.87822661               -2.62917880
              16.08847271                6.71462240               47.81452288                0.00010000                4.69512927               -0.82772129               -2.83465633               -9.87631110               63.21845842               -0.03788007
              17.13487416                5.95546345               47.96280339                0.00010000                4.44901231               -1.21552138               -2.81620196               -9.73926479               63.95496889                2.60629588
              18.17745296                5.20016243               48.11971317                0.02269226                3.83979648               -1.28001511               -2.63393352               -9.47554435               64.93650166                5.53134655
              19.21167009                4.45372313               48.28576103                0.15928540                2.22118203               -0.56453987               -2.08886680               -5.19880234               36.90832069                8.55352390
              20.22187660                3.79913946               47.87867439                0.36207354                0.86805251                0.39134283               -1.73814602               -0.42449370                4.28532432                1.95178232
              21.22903114                3.15476794               47.38860390                0.76360503                0.71545408                1.22505997               -3.23786848               -0.00190172                0.22127497               -4.52565818
              11.56794846               11.19900109               48.22769376                0.79874781                0.10937966               -0.22802093                0.58363311               -0.05962886                0.08199247                3.26520590
              12.56904225               10.57716220               47.71309203                0.25914454                0.37927473                0.43174658               -1.29617449                0.04763326                1.23509389               -2.88428147
              13.57553395                9.95538631               47.22145796                0.00010000                3.33742783                0.95453811               -2.83330534               -5.29699157               37.35680888               -8.13105671
              14.63579081                9.22309170               47.42861586                0.00010000                5.97331119                0.20828929               -2.93786694               -9.93855526               72.06140763               -4.56384366
              15.69500018                8.46830330               47.62984271                0.00010000                5.73248406               -0.71160275               -2.97670793               -9.42552257               71.72879716               -2.02102253
              16.75044049                7.70599414               47.82878550                0.00010000                5.05188599               -0.90068036               -2.94403453               -8.95706473               71.97623686                0.10327224
              17.79603790                6.94375795               48.03312533                0.00010000                4.09276996               -0.91359353               -2.79707266               -8.92676823               73.00308791                2.29977225
              18.83229589                6.18768726               48.25039754                0.02798686                3.00964128               -0.98705332               -2.45430231               -9.00066164               74.37543500                5.02228427
              19.85623072                5.44901868               48.47972784                0.16657404                1.53566370               -0.33483112               -1.55505289               -5.14105845               41.74109721                8.38439200
              20.86300917                4.80283418               48.04039155                0.37178335                0.65101731                0.32779017               -1.34275430               -0.38839812                4.32672115                2.18701524
              21.86925107                4.16613784               47.51812406                0.76939804                0.62419022                1.04833923               -2.97525159               -0.00993579                0.26704383               -4.35590031
              12.18589480               12.19720628               48.12008076                0.79054990                0.21316591               -0.13111343                0.30299940               -0.06007766               -0.03682674                2.83645132
              13.18802646               11.58207568               47.57395833                0.24890662                0.52116739                0.54947550               -1.72072541               -0.04691180                1.78361511               -2.59030569
              14.19631815               10.96504518               47.06408477                0.00010000                4.71987387                0.87494074               -3.27266166               -6.10616403               42.94913503               -6.02509062
              15.28242394               10.22165595               47.34036011                0.00010000                8.66202622               -1.76748754               -3.21644458               -8.02937742               81.30067082               -2.72815327
              16.36955868                9.45689931               47.59543220                0.00010000                7.57264098               -1.50630516               -3.13839903               -6.47739914               79.96606788               -1.12280425
              17.43387676                8.69660879               47.84289550                0.00010000                5.25435013               -0.95324735               -2.99895652               -5.58447755               80.02569184                0.11252625
              18.47464568                7.93719158               48.09652424                0.00010000                2.91511145               -0.32739960               -2.74501331               -5.90932393               81.49484911                1.40862540
              19.49217899                7.18042137               48.36996213                0.03357873                0.95281591                0.24232062               -2.29922646               -6.54869132               83.91122164                3.23501736
              20.49370200                6.44702651               48.66781294                0.17405709                0.24052463                0.15829924               -0.98330266               -4.77695076               47.27278921                6.07735273
              21.49698948                5.80569527               48.20468763                0.38159479                0.42615534                0.23553137               -0.89560261               -0.46890142                4.72764959                2.17688679
              22.50222510                5.17573473               47.64892870                0.77513139                0.52356222                0.87729911               -2.67091872               -0.03622153                0.18168697               -3.52732310
              12.79700810               13.19637883               48.00404907                0.89265381                0.32570135               -0.08274513               -0.01092664                0.28861816                1.29939814                2.40838081
              13.80026512               12.58815171               47.44128415                0.62111205                0.84111449                0.60760294               -2.11236845                0.04918043                4.48452685               -2.24121984
              14.81383039               11.97288512               46.94198768                0.48003705                9.15420078                0.78399464               -3.56327490               -8.26926367               49.48188202               -4.28903070
              15.98334913               11.18774195               47.27663131                0.44707570               13.83344807               -3.39140070               -3.38609648               -6.64287722               89.25322851               -1.47991895
              17.09049936               10.43817719               47.57106125                0.43765048                8.75547651               -1.87221140               -3.21994991               -2.94656959               86.86127911               -0.58176395
              18.15845866                9.68692920               47.85567596                0.44635926                5.17697442               -0.96795961               -3.00260140               -2.59017125               86.84787065                0.10077507
              19.19403884                8.93720996               48.14684504                0.47265142                1.65142375                0.00183756               -2.67272921               -2.78045976               88.57717282                0.82024734
              20.19148714                8.19253367               48.46180620                0.51870014               -2.93105189                1.21123045               -2.16212324               -4.32044944               91.89706446                1.90419280
              21.13541781                7.45218467               48.81321229                0.58953235               -3.32821110                0.51581606               -0.59325093               -5.07786224               54.12343837                4.17189607
              22.12492292                6.80754481               48.36442086                0.69397526               -0.34850486                0.18495408               -0.42723473               -0.63169894                7.92662344                2.02903691
              23.12844771                6.18368382               47.79313534                0.88942168                0.35247922                0.79490905               -2.26999133                0.23616192                1.87604674               -2.76340732
               6.67090169                3.39114452               50.12691308                0.99502096               -0.79052642               -0.87238872                2.92431487               -0.18373427               -2.10252622                2.42495591
               7.66299643                2.69189685               49.83333930                0.78860943               -0.79102785               -0.54193865                2.09821679               -0.17460296               -2.87986031               -1.40538784
               8.65508113                1.98938126               49.52474274                0.58402653               -1.05590527               -0.28461170                1.19490468               -0.56160135               -2.75432583               -1.05897969
               9.64187832                1.27088257               49.23417833                0.49131980               -1.42166835               -0.07744059                0.33150566               -0.66394414               -0.67212967               -0.31969476
              10.62664777                0.52477196               48.96720535                0.44740878               -1.29680660                0.19526009               -0.58345371               -0.56561554                1.49019138               -0.24146596
              11.61594219               -0.25040311               48.71927819                0.44615493               -0.50183728                0.45996431               -1.54207819               -0.32604121                2.61813999               -0.01921791
              12.61661102               -1.04222692               48.47426024                0.48640234                0.58101674                0.71257505               -2.48761694               -0.27587505                1.96558530                0.19193511
              13.62756252               -1.83311041               48.21332707                0.57005128                1.32693656                0.95026761               -3.37129950               -0.34108200                0.14498186                0.34237347
              14.64314975               -2.61357322               47.93203021                0.70230478                1.60848981                1.17537206               -4.22292185               -0.32092083               -1.77101081                0.46510389
              15.65973232               -3.38366569               47.63222782                0.89220159                1.68671809                1.39888237               -5.09071279               -0.22044409               -2.32293867                1.06795959
              16.67688411               -4.14831142               47.33854337                1.00000000                1.71517941                1.71544593               -5.98153398               -0.26460144               -1.92662004               -1.78785146
               7.36831202                4.38242064               50.00522173                0.91642353               -0.61799905               -0.86674249                2.58172346               -0.07392715                0.72350550                3.03304676
               8.36213203                3.68647746               49.70667256                0.44893175               -0.41698807               -0.45747244                1.73896870               -0.14470168                2.05095895               -2.38180373
               9.35997226                2.98653514               49.43507479                0.08161117                0.27057484               -0.01560145                1.08340310               -0.98820170                4.49827360               -5.11113608
              10.36754353                2.27010816               49.18543666                0.00010000                1.08310944               -0.54422357                0.33326834               -2.07051793                6.40844287               -3.59393841
              11.38163445                1.52672456               48.95226694                0.00010000                1.43188442               -0.78880499               -0.44368522               -3.18790806                8.19475948               -1.85927939
              12.39618122                0.75419654               48.73891338                0.00010000                1.17857376               -0.41178787               -1.28573257               -3.86460247                9.30889922               -0.74769886
              13.40520592               -0.03510117               48.52831813                0.00010000                0.68218193                0.16620370               -2.12538961               -3.63297012                8.69503807                0.38483988
              14.40982485               -0.82360774               48.30193018                0.06835777                0.50061304                0.47124936               -2.90603669               -2.51050926                6.98336816                2.32256274
              15.41521818               -1.60181950               48.05565924                0.26472103                0.75360626                0.72937681               -3.66754196               -0.98548995                5.38910581                4.58964800
              16.42489698               -2.36967687               47.79596097                0.55376803                1.18328208                1.18447484               -4.42957858               -0.32799582                3.34777640                2.67797783
              17.43888383               -3.13115696               47.50763915                0.89484368                1.39868468                1.71129570               -5.24473056               -0.24669682                1.98293735               -2.52623477
               8.06130949                5.37380967               49.89620901                0.83780177               -0.53216023               -0.83039891                2.34048389               -0.08638503                0.35331857                3.58069120
               9.05598789                4.68274740               49.56079337                0.31352278               -0.48115472               -0.28494216                1.25829179               -0.12078911                2.29181701               -3.37437182
              10.05168640                3.98906923               49.26450409                0.00010000                0.21453247                0.46542403                0.47205132               -2.02567562                9.37381547              -10.92022609
              11.06027854                3.25999810               49.07105182                0.00010000                1.35574164               -0.83389290               -0.13118490               -4.54360909               15.85386855               -6.93380820
              12.07880123                2.50899586               48.90457888                0.00010000                2.00986639               -1.42251635               -0.94649265               -6.08046907               17.44212249               -3.84043010
              13.10047587                1.74136114               48.74334585                0.00010000                2.14773305               -1.20511224               -1.66619162               -6.94438760               17.86787339               -1.50786212
              14.12175589                0.96109716               48.58539318                0.00010000                2.17974010               -0.64314880               -2.35028386               -6.79646796               18.15627346                0.88855912
              15.14407067                0.17631458               48.42910115                0.00010000                2.38765976               -0.35753913               -3.00012564               -5.26859588               17.69337597                4.25844700
              16.16950909               -0.59898568               48.26051253                0.12102609                1.92195980               -0.79179348               -2.91015442               -2.62093560               12.11155920                9.07679131
              17.18250987               -1.35997620               47.99042012                0.31187778                1.27006362                0.42862896               -3.59597547               -0.84952064                4.09764157                4.15711118
              18.19491036               -2.11408551               47.66027451                0.73447906                1.24004942                2.00255834               -4.59884484               -0.62662592                1.14245810               -3.43350122
               8.74870887                6.36581266               49.78592787                0.82670460               -0.42521697               -0.74563236                2.05044718               -0.06339546                0.05921587                3.45864642
               9.74445670                5.68077862               49.41450612                0.29821977               -0.32504078               -0.14017570                0.81952759                0.04916943                0.80142656               -3.28836294
              10.74220805                4.99584362               49.05819245                0.00010000                0.61440081                0.65423959               -0.28423264               -2.61288406               14.28435490              -11.40208802
              11.75674471                4.25343031               48.95641422                0.00010000                1.82269891               -0.36349572               -0.82468825               -5.48223493               26.73796146               -7.12943917
              12.77866203                3.49827423               48.85005391                0.00010000                2.42237279               -0.84712077               -1.42739665               -6.35210723               26.73275483               -4.19294619
              13.80519217                2.73009429               48.74871473                0.00010000                2.78305494               -1.02730209               -2.03629895               -6.99592531               27.18359332               -1.41144740
              14.83432313                1.95203586               48.65132346                0.00010000                2.96718039               -0.96440941               -2.60037428               -7.03341283               27.58455299                1.43127846
              15.86453578                1.16924148               48.55744668                0.00010000                3.23835592               -0.92408265               -3.05612527               -6.68916680               28.32155246                4.53900394
              16.89909025                0.38234463               48.47361877                0.12350872                2.92353072               -1.66295775               -3.59662877               -3.93312839               18.52627928                8.88107631
              17.92300639               -0.36110429               48.18298758                0.30902130                1.77398408                0.01493793               -3.19848501               -0.66182783                4.20425862                3.27875339
              18.93456993               -1.09110580               47.80972809                0.73039731                1.15635369                2.17301720               -4.30886959               -0.08590956                0.12976664               -3.79543459
               9.43010966                7.35889703               49.67484061                0.81882568               -0.31693408               -0.64020703                1.76420688               -0.06154673                0.06408872                3.43326498
              10.42694032                6.67994389               49.27052202                0.28789691               -0.16663139               -0.02564469                0.38143518                0.10475822                0.61892643               -3.13843281
              11.42677703                6.00215402               48.87748898                0.00010000                1.06314542                0.65588018               -0.86376587               -3.22823398               18.81667797               -9.76500959
              12.44820323                5.25272818               48.83694982                0.00010000                2.41590341                0.07719867               -1.38230158               -6.66305220               36.33570350               -7.08529452
              13.47509510                4.49205344               48.79515703                0.00010000                2.92962560               -0.46776413               -1.89309041               -7.21593681               36.32554744               -4.10268818
              14.50679574                3.72081510               48.75519231                0.00010000                3.34226740               -0.85028168               -2.38720793               -7.61624736               36.61551205               -1.23540863
              15.54194045                2.94180897               48.71956156                0.00010000                3.65914098               -1.05203890               -2.83962372               -7.69242922               37.17350750                1.68435478
              16.57997856                2.15783292               48.69064851                0.00382999                3.96259223               -1.18546960               -3.25382516               -7.63449597               38.04722597                4.84364114
              17.62119229                1.36775516               48.67200860                0.13015626                3.13725884               -1.25982396               -3.65763168               -4.42568989               23.91526335                8.15769145
              18.64272374                0.64032256               48.35920666                0.31808279                1.60014419                0.27216590               -2.93265289               -0.74261812                4.74539902                2.22406622
              19.65319518               -0.07062516               47.95340697                0.73577585                1.04714408                1.91812814               -4.13667256               -0.01496059                0.16578692               -4.34380230
              10.10538421                8.35300852               49.56440277                0.81097505               -0.20893408               -0.53831467                1.47819828               -0.06082122                0.06415016                3.46559363
              11.10329487                7.68026573               49.12730263                0.27766167               -0.02625681                0.09088738               -0.05477052                0.11893163                0.72877754               -3.07039743
              12.10485907                7.00896122               48.70361013                0.00010000                1.51446866                0.73014136               -1.40302095               -3.77216414               23.52432923               -9.30289332
              13.13358424                6.25497428               48.72214086                0.00010000                3.06986534                0.33516802               -1.87386660               -7.75641487               45.63572501               -6.63319488
              14.16625638                5.48891895               48.74150959                0.00010000                3.47637278               -0.21085302               -2.30468921               -8.24521732               45.75058274               -3.82866152
              15.20311170                4.71308866               48.76317394                0.00010000                3.86001679               -0.72668621               -2.69800607               -8.52908951               46.06939935               -0.97018210
              16.24345672                3.93099508               48.78951590                0.00010000                4.13939823               -1.08585835               -3.04245775               -8.55651264               46.66507436                1.95363057
              17.28589966                3.14553209               48.82330552                0.00856575                4.23150463               -1.20276288               -3.32102711               -8.56132333               47.59211519                5.00047267
              18.32808681                2.35714815               48.86774391                0.13688927                3.03173449               -0.91042095               -3.50122761               -4.96426907               29.04986435                8.18812162
              19.34653435                1.64433903               48.52883723                0.32728154                1.40396773                0.45749832               -2.66437174               -0.70690765                5.10707084                1.84028514
              20.35616616                0.94725677               48.09024093                0.74130234                0.96318114                1.68641912               -3.97857989               -0.00074617                0.20583622               -4.79205732
              10.77437882                9.34813073               49.45428433                0.80318863               -0.10125705               -0.43767382                1.19212153               -0.06047862                0.06711176                3.46794765
              11.77336625                8.68176163               48.98463486                0.26748704                0.11231895                0.20918079               -0.49001093                0.11538000                0.90423031               -3.02294313
              12.77662520                8.01675685               48.53177123                0.00010000                1.98754775                0.83497571               -1.92793286               -4.26172168               28.34410611               -9.10436717
              13.81311720                7.25943154               48.61053082                0.00010000                3.77255887                0.53279920               -2.32159894               -8.72805228               54.94954393               -6.25344855
              14.85207637                6.48783638               48.69049088                0.00010000                4.05103101               -0.06131510               -2.66238521               -9.22364146               55.10232846               -3.44258994
              15.89413782                5.70628137               48.77301893                0.00010000                4.31451959               -0.66908576               -2.95074910               -9.40913540               55.46370987               -0.64832878
              16.93836677                4.92009180               48.86073890                0.00010000                4.42305982               -1.09261423               -3.16928995               -9.32385276               56.13020386                2.22162954
              17.98259902                4.13377766               48.95673048                0.01337969                4.23666043               -1.15867354               -3.28098601               -9.18018168               57.13988631                5.25758279
              19.02309997                3.34954674               49.06393870                0.14369466                2.79389742               -0.65479262               -3.20629184               -5.18201461               34.02154200                8.42814626
              20.03847697                2.64947253               48.69497364                0.33663493                1.21223984                0.52013149               -2.36791649               -0.60123851                5.28990684                1.73931322
              21.04734477                1.96310322               48.22317026                0.74693904                0.88678041                1.49596569               -3.80207836                0.00618871                0.24161162               -4.96261542
              11.43691283               10.34425504               49.34418340                0.79545988                0.00635226               -0.33773605                0.90472867               -0.06062161                0.06835616                3.43579409
              12.43697636                9.68444934               48.84221005                0.25732501                0.25209481                0.32932725               -0.92481581                0.09796098                1.12548856               -2.99580000
              13.44195473                9.02566074               48.36135177                0.00010000                2.54836506                0.93195592               -2.43288682               -4.73443683               33.28018987               -8.91424373
              14.48794366                8.26563026               48.50195648                0.00010000                4.64894968                0.61739349               -2.72771210               -9.48813145               64.32886519               -5.77542457
              15.53493372                7.48769265               48.64251582                0.00010000                4.73649577               -0.10399977               -2.96304460               -9.85070269               64.39223270               -2.95747985
              16.58267357                6.69970694               48.78474153                0.00010000                4.72748221               -0.69619631               -3.13716749               -9.78251936               64.75998731               -0.33167666
              17.62948337                5.90914279               48.93277179                0.00010000                4.50837567               -1.04961890               -3.22055288               -9.61071732               65.57596001                2.37289493
              18.67284109                5.12235862               49.09102405                0.01835219                3.96341428               -1.10508011               -3.15497946               -9.34133278               66.77035880                5.40715928
              19.70875165                4.34405230               49.26173316                0.15059574                2.40560091               -0.45418026               -2.78917906               -5.19534530               38.93718982                8.71021967
              20.72095310                3.65474166               48.85998118                0.34600192                1.01384500                0.50231337               -2.02856630               -0.49763203                5.35192410                1.84465683
              21.72902855                2.97717608               48.35462099                0.75245907                0.80754490                1.32236939               -3.59088176                0.00559586                0.27223844               -4.89643812
              12.09277778               11.34137601               49.23368155                0.78755758                0.11419881               -0.23848138                0.61493335               -0.06131210                0.08529723                3.40653425
              13.09391977               10.68834818               48.69982309                0.24731769                0.39888780                0.45193054               -1.35960807                0.04999293                1.42755220               -3.02877934
              14.10075554               10.03539596               48.19271098                0.00010000                3.37014450                0.97776306               -2.91298637               -5.29032110               38.44530732               -8.45167686
              15.16132266                9.27177941               48.39850340                0.00010000                6.01150502                0.25292848               -3.08208385               -9.90432527               73.82210259               -4.83756002
              16.22098564                8.48575639               48.59899099                0.00010000                5.78573148               -0.63053111               -3.19883897               -9.35385392               73.48660050               -2.25718214
              17.27703729                7.69235745               48.79787173                0.00010000                5.12575530               -0.78513793               -3.25578891               -8.83742641               73.75930520               -0.09108510
              18.32350074                6.89909942               49.00327002                0.00010000                4.19127832               -0.76465873               -3.20840329               -8.76604617               74.88986811                2.16124198
              19.36086286                6.11167606               49.22356640                0.02350397                3.16546427               -0.80721043               -2.97168253               -8.85446747               76.58517688                4.96179033
              20.38681003                5.34046314               49.46096385                0.15764952                1.72688437               -0.21033136               -2.27447867               -5.14790997               44.00997532                8.64292847
              21.39540054                4.65951879               49.02563603                0.35538443                0.78889038                0.43137416               -1.63752618               -0.45673213                5.39627802                2.15671749
              22.40258784                3.98955061               48.48674151                0.75806135                0.71872938                1.14992725               -3.33407877               -0.00307259                0.32192941               -4.66309071
              12.74174226               12.33948541               49.12322528                0.77974595                0.22140072               -0.13950523                0.32654753               -0.06178701               -0.04045934                2.96094775
              13.74395626               11.69348795               48.55637180                0.23736964                0.54874086                0.57423221               -1.79902980               -0.06375182                2.03926338               -2.71880162
              14.75271707               11.04521600               48.03094297                0.00010000                4.77702319                0.86773141               -3.34652732               -6.08860697               44.25624518               -6.25089334
              15.83949673               10.27068883               48.30746778                0.00010000                8.72807702               -1.72983392               -3.35842736               -7.99578975               83.33071922               -2.89343457
              16.92727861                9.47508203               48.56296877                0.00010000                7.65426418               -1.44119941               -3.35826958               -6.41790487               81.94689319               -1.24749555
              17.99258201                8.68400419               48.81145008                0.00010000                5.37826066               -0.86470275               -3.30715966               -5.49251912               82.02264397                0.01729318
              19.03484383                7.89384962               49.06724471                0.00010000                3.09030056               -0.21870118               -3.14709274               -5.76810771               83.60302437                1.34969129
              20.05438802                7.10621441               49.34484622                0.02897435                1.15534471                0.36938854               -2.78793564               -6.41745890               86.50487699                3.21256600
              21.05795072                6.33984567               49.65481160                0.16494896                0.41714848                0.35302790               -1.70075884               -4.72891535               49.82205938                6.30651882
              22.06273099                5.66336914               49.19444088                0.36480201                0.54763777                0.32944567               -1.18321501               -0.55557172                5.80333397                2.21058338
              23.06890348                5.00017463               48.62062344                0.76359260                0.61724851                0.97981521               -3.02284736               -0.03380320                0.23482715               -3.74024154
              13.38353696               13.33858591               49.00400716                0.88728646                0.33771866               -0.08995060                0.00278437                0.30416230                1.35464232                2.51534775
              14.38691415               12.69983282               48.41971655                0.61545974                0.91227779                0.63448711               -2.20383529                0.00402280                4.89604361               -2.35112811
              15.40178252               12.05275059               47.90600438                0.47892385                9.23133435                0.75345941               -3.63023860               -8.22595992               51.06002356               -4.45111835
              16.57154084               11.23718274               48.24206427                0.44695582               13.87648349               -3.35060973               -3.52004663               -6.58649868               91.48234343               -1.54955159
              17.67931219               10.45693240               48.53783541                0.43771564                8.84392393               -1.81496264               -3.42709554               -2.90260985               89.00904874               -0.62707404
              18.74841932                9.67506339               48.82426303                0.44613892                5.33080887               -0.89407954               -3.29437706               -2.52661967               89.00071465                0.07362328
              19.78592837                8.89472540               49.11837789                0.47167479                1.90491546                0.08757799               -3.05471964               -2.69152403               90.83953853                0.81594063
              20.78651762                8.11906383               49.43821089                0.51631549               -2.54256863                1.28494230               -2.61962670               -4.14712495               94.74846712                1.91341339
              21.73507699                7.34752370               49.80418931                0.58487799               -3.12787349                0.76780228               -1.29656329               -4.93517910               57.00318341                4.36137935
              22.72396015                6.66610771               49.35895381                0.68546853               -0.33880970                0.27385684               -0.69527706               -0.79592291                9.15101705                2.09545967
              23.72830080                6.00914691               48.76893271                0.88355551                0.43406444                0.89722846               -2.60305052                0.24365254                2.00329847               -2.90579251
               6.94728677                3.53929667               51.15666548                0.98642146               -0.82219211               -0.90392965                3.04426737               -0.19441488               -2.16929807                2.53280960
               7.93906485                2.80592499               50.85461425                0.77767245               -0.81885456               -0.56111268                2.16788109               -0.18718743               -2.99098141               -1.48268295
               8.93090968                2.06909402               50.53678263                0.57965390               -1.06427442               -0.29247668                1.21429996               -0.55671000               -2.87994961               -1.04230251
               9.91777936                1.31633912               50.23738544                0.48988286               -1.39905081               -0.07033014                0.30934335               -0.64540338               -0.79203313               -0.33447563
              10.90292866                0.53655907               49.96105975                0.44713665               -1.25868156                0.21473156               -0.64825597               -0.54746811                1.33714953               -0.24814002
              11.89260573               -0.27153266               49.70334039                0.44589432               -0.48044156                0.49115394               -1.64947331               -0.31784209                2.46474519               -0.02384043
              12.89331983               -1.09618250               49.44864879                0.48493416                0.58155430                0.75482953               -2.63895506               -0.26226560                1.86153673                0.19021918
              13.90423681               -1.92059726               49.17865539                0.56597366                1.33959986                1.00290374               -3.56835901               -0.32297323                0.09476047                0.34487859
              14.92011183               -2.73535526               48.88862255                0.69400142                1.65720725                1.23984950               -4.46486116               -0.31053792               -1.80987998                0.45827512
              15.93738096               -3.54003282               48.57992490                0.87730938                1.76733646                1.47409049               -5.37682377               -0.22241367               -2.37815957                1.06385969
              16.95545856               -4.33910950               48.27712561                1.00000000                1.80775976                1.80177213               -6.30953698               -0.28423897               -1.98851207               -1.81968611
               7.67871430                4.53025738               51.03150488                0.90123964               -0.64199964               -0.89413090                2.68534075               -0.07652959                0.80458234                3.18170786
               8.67229430                3.80031387               50.72430322                0.43052916               -0.42893914               -0.47296080                1.79383155               -0.15121517                2.22493184               -2.52640476
               9.67013552                3.06616925               50.44601718                0.07524650                0.26492485               -0.00718915                1.10479412               -0.99720832                4.71807712               -5.35295035
              10.67759280                2.31563582               50.18872437                0.00010000                1.06271768               -0.56153958                0.32155247               -2.05748273                6.56436777               -3.86028042
              11.69138987                1.53870638               49.94763277                0.00010000                1.41026464               -0.77913417               -0.48641959               -3.14248433                8.30438459               -2.20372300
              12.70579809                0.73337888               49.72571183                0.00010000                1.19198002               -0.41976389               -1.35763941               -3.79846681                9.38919906               -1.09164901
              13.71522947               -0.08863421               49.50656579                0.00010000                0.73976843                0.14143382               -2.22826424               -3.58024293                8.80729511                0.06409552
              14.72059346               -0.91056822               49.27219521                0.06236301                0.57473789                0.47005115               -3.04348341               -2.49422578                7.13802617                2.01897644
              15.72672423               -1.72295677               49.01813212                0.25232663                0.82202393                0.76810189               -3.84031232               -0.98633283                5.55733835                4.68091974
              16.73703394               -2.52529191               48.75062383                0.53095286                1.24843109                1.24087581               -4.63991175               -0.33761102                3.49216530                2.76461824
              17.75169285               -3.32109178               48.45396511                0.87910112                1.46589102                1.79265645               -5.49261149               -0.27160555                2.10255853               -2.60209665
               8.40564319                5.52141406               50.92001997                0.82469558               -0.55145224               -0.85036308                2.42546826               -0.08657171                0.35049310                3.75239224
               9.40012867                4.79646578               50.57352230                0.29914388               -0.49998162               -0.29422024                1.28826482               -0.11365753                2.44000519               -3.56004390
              10.39564356                4.06895023               50.26921771                0.00010000                0.19819489                0.49034818                0.46988396               -2.06248492                9.75489269              -11.48840392
              11.40409257                3.30510833               50.06941590                0.00010000                1.33461751               -0.82463849               -0.19741748               -4.56636319               16.21279432               -7.54224971
              12.42233591                2.52097638               49.89472351                0.00010000                1.99422061               -1.41748211               -1.02701264               -6.03150257               17.74208453               -4.50703848
              13.44397698                1.72007206               49.72611102                0.00010000                2.16630764               -1.23055631               -1.78508164               -6.89300412               18.22097270               -2.18548161
              14.46566206                0.90664617               49.56110994                0.00010000                2.23489372               -0.69597605               -2.51171367               -6.74413709               18.54364222                0.23121267
              15.48867486                0.08880377               49.39814979                0.00010000                2.47233986               -0.39232515               -3.19678515               -5.24364225               18.49677267                3.65192900
              16.51510886               -0.71999323               49.23078454                0.11321393                2.00444447               -0.71076523               -3.04019796               -2.67384612               12.88395684                8.46508730
              17.52876375               -1.51521530               48.95380522                0.29678240                1.32586577                0.47059243               -3.72560230               -0.88187347                4.29781931                4.08362649
              18.54162618               -2.30325637               48.61340022                0.72386944                1.28624317                2.08879935               -4.77707404               -0.64994791                1.17169564               -3.76122347
               9.12687942                6.51325012               50.80680072                0.81420119               -0.43944430               -0.76243870                2.12639124               -0.06481649                0.06099214                3.60935149
              10.12248497                5.79442946               50.42276321                0.28445502               -0.33180739               -0.14448885                0.83183379                0.06581599                0.87043186               -3.44936841
              11.12024327                5.07597621               50.05521323                0.00010000                0.58772047                0.67641747               -0.31176145               -2.61478628               14.70173851              -11.94813551
              12.13423938                4.29914305               49.94782211                0.00010000                1.77764067               -0.30601793               -0.89455442               -5.51089967               27.38619355               -7.77547824
              13.15579608                3.51035674               49.83520485                0.00010000                2.40144182               -0.81675181               -1.54522452               -6.34274229               27.32748060               -4.83396434
              14.18226822                2.70876775               49.72753350                0.00010000                2.79094681               -1.00370652               -2.20559357               -6.98254367               27.77912199               -2.07054675
              15.21161502                1.89744627               49.62421416                0.00010000                3.00458961               -0.94158921               -2.83028790               -7.02685972               28.24171465                0.76762932
              16.24236001                1.08158528               49.52547377                0.00010000                3.28256762               -0.88086585               -3.35070960               -6.64102943               28.96581566                3.88069797
              17.27726637                0.26282793               49.43569841                0.11581079                3.01498003               -1.50492949               -4.00410021               -4.01829282               19.64989033                7.85504246
              18.30265961               -0.51588006               49.15011439                0.29440012                1.87548297                0.09311670               -3.38808275               -0.76231991                5.05283210                2.91802879
              19.31477603               -1.27931579               48.76550273                0.72026064                1.21164180                2.26935424               -4.55159882               -0.08208523                0.15378680               -4.36878745
               9.84198817                7.50616528               50.69280774                0.80656995               -0.32692743               -0.65669739                1.83106352               -0.06299180                0.06650747                3.58623399
              10.83871890                6.79357600               50.27431868                0.27462622               -0.16769582               -0.02490061                0.37729423                0.12378351                0.69566905               -3.29555127
              11.83863425                6.08247858               49.86862288                0.00010000                1.03875764                0.67587068               -0.90758485               -3.22428205               19.32960139              -10.19508475
              12.85949405                5.29898797               49.82267041                0.00010000                2.36110541                0.13604828               -1.47400287               -6.68037536               37.18529912               -7.63045450
              13.88585636                4.50464135               49.77549078                0.00010000                2.88712651               -0.39917217               -2.04328059               -7.21299428               37.15484724               -4.69921321
              14.91723658                3.69999793               49.73025770                0.00010000                3.32254902               -0.77153732               -2.60721194               -7.61053437               37.44164631               -1.85255337
              15.95230734                2.88781439               49.68971193                0.00010000                3.66180161               -0.95580399               -3.14349175               -7.67441177               38.00617268                1.06020146
              16.99047261                2.07118645               49.65614974                0.00010000                3.99505024               -1.05345707               -3.66711432               -7.54110503               38.86614174                4.20572330
              18.03220835                1.24990818               49.63275407                0.12210173                3.25942270               -1.09638218               -4.22294221               -4.46825800               25.38355002                7.63794508
              19.05566106                0.48664703               49.32872587                0.30323063                1.73237915                0.39625888               -3.18472435               -0.86682610                5.83948608                1.83921805
              20.06685593               -0.25786928               48.91060683                0.72547485                1.11948649                2.01777948               -4.44800588               -0.00979705                0.20950015               -4.94994881
              10.55079814                8.50011617               50.57946645                0.79892954               -0.21507967               -0.55362714                1.53661943               -0.06205922                0.06719846                3.61897602
              11.54864734                7.79393145               50.12665832                0.26464481               -0.02262391                0.09677858               -0.07502651                0.13693194                0.83280047               -3.22431145
              12.55034566                7.08949363               49.68929154                0.00010000                1.49108832                0.75412221               -1.45964507               -3.75889371               24.16346234               -9.70106395
              13.57846911                6.30186401               49.70284069                0.00010000                3.00902859                0.40291191               -1.98543968               -7.75910687               46.69001589               -7.11498441
              14.61052624                5.50237330               49.71757369                0.00010000                3.42076903               -0.11168982               -2.48587046               -8.23005694               46.79810561               -4.35662833
              15.64688449                4.69333700               49.73490778                0.00010000                3.82060136               -0.59917648               -2.96486920               -8.49773509               47.11348629               -1.51606866
              16.68693826                3.87833019               49.75731976                0.00010000                4.12798115               -0.92846545               -3.41541301               -8.49362285               47.71943811                1.41642537
              17.72944411                3.06051614               49.78770577                0.00449903                4.27511827               -1.02328830               -3.82932019               -8.41190651               48.68157498                4.52800791
              18.77244063                2.24090028               49.82952172                0.12860825                3.18282228               -0.75125137               -4.19460711               -4.96539444               30.80087632                7.90835361
              19.79310056                1.49204512               49.50083439                0.31209636                1.55860508                0.60013029               -2.96324709               -0.82055607                6.33266093                1.51581307
              20.80361273                0.76103980               49.04878781                0.73081544                1.05121688                1.79367766               -4.34324586                0.00592470                0.25855798               -5.35641317
              11.25311642                9.49509274               50.46644800                0.79150225               -0.10363428               -0.45154076                1.24212853               -0.06185280                0.06979088                3.62035014
              12.25208008                8.79551157               49.97955969                0.25489475                0.12036995                0.22025291               -0.52611805                0.13106785                1.04144725               -3.17449330
              13.25552382                8.09756103               49.51215541                0.00010000                1.96760817                0.86180800               -1.99233168               -4.23830896               29.13008014               -9.48366366
              14.29143224                7.30704621               49.58667053                0.00010000                3.71292057                0.60725411               -2.44840705               -8.70486487               56.22633217               -6.68031786
              15.32978223                6.50240755               49.66285234                0.00010000                3.99463716                0.05541797               -2.86886001               -9.17634338               56.37403951               -3.89382119
              16.37132498                5.68801440               49.74204335                0.00010000                4.27367609               -0.51004677               -3.25631634               -9.33152385               56.73741474               -1.10006448
              17.41525575                4.86924508               49.82702810                0.00010000                4.41697020               -0.89699780               -3.59717219               -9.20605708               57.43517447                1.80368283
              18.45966439                4.05072068               49.92122813                0.00922721                4.30578642               -0.95232208               -3.86143552               -8.99536392               58.53832937                4.93631199
              19.50137148                3.23488316               50.02826414                0.13517416                2.97230199               -0.49989529               -3.99494213               -5.15274579               36.02150866                8.33861821
              20.51911043                2.49864964               49.66978898                0.32102344                1.38067881                0.66625437               -2.70097979               -0.69760990                6.59174894                1.49343602
              21.52898506                1.77800427               49.18332135                0.73612547                0.98746290                1.61140680               -4.20456241                0.01464091                0.30126446               -5.46330841
              11.94872342               10.49108535               50.35343160                0.78398897                0.00769984               -0.35014194                0.94633432               -0.06213919                0.07126154                3.58584440
              12.94880042                9.79833651               49.83271185                0.24521594                0.26607176                0.34566457               -0.97653947                0.10641137                1.30542804               -3.14575981
              13.95404485                9.10672979               49.33664902                0.00010000                2.53624369                0.96002724               -2.50162620               -4.70457219               34.23358224               -9.26945914
              14.99952529                8.31400909               49.47398490                0.00010000                4.59931605                0.68914969               -2.86313757               -9.43637596               65.84660859               -6.14126663
              16.04603117                7.50348166               49.61178512                0.00010000                4.69455989                0.01495772               -3.18636719               -9.76456985               65.90036681               -3.32097535
              17.09341649                6.68313607               49.75177953                0.00010000                4.70398313               -0.52752517               -3.46931891               -9.65344199               66.27513042               -0.67584191
              18.14011084                5.86039023               49.89839233                0.00010000                4.52411355               -0.83676047               -3.68528244               -9.43907696               67.14791867                2.07812362
              19.18389876                5.04146970               50.05661359                0.01398344                4.06729603               -0.88098946               -3.78008017               -9.14233194               68.51023826                5.21940166
              20.22145676                4.23090238               50.22997745                0.14191648                2.60642468               -0.30421729               -3.64124777               -5.15551888               41.16908600                8.78801797
              21.23602725                3.50537020               49.83810306                0.33006280                1.18697680                0.64295945               -2.38178704               -0.57939023                6.68916544                1.68606490
              22.24519629                2.79326794               49.31678627                0.74147099                0.91690408                1.44346522               -4.01583934                0.01445591                0.33684831               -5.32209002
              12.63737132               11.48808990               50.23999242                0.77644967                0.11925480               -0.24928650                0.64826434               -0.06304470                0.08875916                3.55569403
              13.63856387               10.80242486               49.68589987                0.23543857                0.41942334                0.47348417               -1.42706844                0.04826476                1.66348538               -3.17985860
              14.64575979               10.11676157               49.16319823                0.00010000                3.36944897                1.00020620               -2.97871417               -5.26467229               39.59236726               -8.76742086
              15.70595285                9.32082920               49.36697418                0.00010000                5.98020338                0.31086515               -3.21867306               -9.82838114               75.59912039               -5.12346271
              16.76536386                8.50270670               49.56586593                0.00010000                5.76973574               -0.51883385               -3.42861725               -9.24411175               75.23793381               -2.51844650
              17.82134757                7.67746390               49.76366972                0.00010000                5.13883639               -0.62863580               -3.60006243               -8.67798127               75.51517126               -0.32092983
              18.86814059                6.85250987               49.96895726                0.00010000                4.24790198               -0.56563483               -3.68886892               -8.55819079               76.72954237                1.98335257
              19.90630561                6.03310090               50.19096389                0.01903032                3.31100050               -0.57207514               -3.61098828               -8.64500913               78.69176063                4.87275317
              20.93436060                5.22879881               50.43423826                0.14872059                1.94257298               -0.04854758               -3.16147612               -5.12501478               46.47504771                8.85065232
              21.94515706                4.51150883               50.00764103                0.33914514                0.95590572                0.56094763               -1.99694973               -0.53540820                6.74541476                2.09199654
              22.95347871                3.80687357               49.45144248                0.74682546                0.83216451                1.27353800               -3.76534422                0.00448617                0.39055878               -5.00571998
              13.31879259               12.48609962               50.12661171                0.76890178                0.23014463               -0.14839392                0.35131359               -0.06379986               -0.04426226                3.09196242
              14.32109404               11.80780619               49.53797773                0.22595043                0.57772388                0.60073895               -1.88220128               -0.08704062                2.35531207               -2.85280183
              15.33034707               11.12673391               48.99715422                0.00010000                4.79592458                0.84891854               -3.40086517               -6.03282215               45.63917267               -6.47236877
              16.41701253               10.32022640               49.27319157                0.00010000                8.70835846               -1.66356315               -3.48838288               -7.92084031               85.37986140               -3.06475202
              17.50451424                9.49310498               49.52826680                0.00010000                7.65205826               -1.34021394               -3.58309200               -6.32726678               83.92534844               -1.38588928
              18.57005370                8.67056335               49.77675231                0.00010000                5.43978899               -0.73440731               -3.64755044               -5.37222678               83.99593447               -0.09704609
              19.61331002                7.84907754               50.03358239                0.00010000                3.23279680               -0.06237356               -3.62235232               -5.58969959               85.67402147                1.27154379
              20.63470963                7.03002819               50.31420342                0.02426253                1.36192531                0.54858486               -3.40928283               -6.24033235               88.98910809                3.18694443
              21.64054853                6.22993143               50.63379776                0.15573543                0.62673466                0.59290198               -2.60152181               -4.65305380               52.56141515                6.51167764
              22.64724433                5.51658916               50.18102333                0.34814826                0.70040013                0.44596526               -1.53644683               -0.65749706                7.16508482                2.22733826
              23.65455653                4.81873870               49.58847176                0.75212960                0.73122031                1.10379259               -3.44734786               -0.03118745                0.30251000               -3.97079430
              13.99268219               13.48512202               50.00410476                0.88196115                0.35065852               -0.09776010                0.01703902                0.32072146                1.41320607                2.62768644
              14.99618877               12.81443964               49.39720744                0.60990267                1.00004780                0.66334513               -2.30151458               -0.05963086                5.38030460               -2.46537983
              16.01268314               12.13373994               48.86938291                0.47778239                9.24881015                0.70060317               -3.67521168               -8.11047827               52.73920728               -4.61973553
              17.18116498               11.28755794               49.20623038                0.44683116               13.78992115               -3.26684606               -3.63698452               -6.47663145               93.74534890               -1.62052745
              18.28848157               10.47590243               49.50251934                0.43781380                8.83827481               -1.72025529               -3.63402205               -2.84237681               91.16412029               -0.67964231
              19.35793047                9.66277575               49.78978842                0.44589130                5.42000937               -0.77876028               -3.61271094               -2.44432398               91.13666041                0.03736008
              20.39688175                8.85126240               50.08575065                0.47062890                2.13572991                0.21848606               -3.50510278               -2.57798462               93.07108032                0.80373893
              21.40064507                8.04407259               50.40941367                0.51396734               -2.10715981                1.40443995               -3.20770085               -3.93673372               97.48436004                1.92897918
              22.35473856                7.24065685               50.78728102                0.58025719               -2.87226078                1.07254250               -2.18655713               -4.76321989               60.06982590                4.54429567
              23.34319985                6.52042813               50.35051532                0.67705205               -0.30913379                0.38389790               -1.02910693               -0.98981857               10.66540462                2.15620407
              24.34855588                5.82894942               49.74107433                0.87777434                0.53560274                1.02107288               -3.00829336                0.25206414                2.14492281               -3.05524234
               7.23161819                3.69212193               52.18779842                0.97784536               -0.85585419               -0.94216206                3.18087460               -0.20679010               -2.25441005                2.63609312
               8.22305965                2.92286525               51.87669693                0.76681999               -0.84536183               -0.58239285                2.24936441               -0.19691917               -3.11571476               -1.56750900
               9.21471096                2.15006612               51.54902874                0.57514320               -1.06495554               -0.30250649                1.23766355               -0.54733247               -3.01321742               -1.02252181
              10.20176054                1.36151520               51.24036520                0.48842427               -1.36375775               -0.06431013                0.28647011               -0.62467558               -0.91583214               -0.34977311
              11.18743580                0.54666311               50.95424023                0.44698199               -1.20562447                0.23232253               -0.71714654               -0.52701118                1.17708710               -0.25456349
              12.17764805               -0.29562278               50.68628872                0.44569391               -0.44545198                0.52157177               -1.76329928               -0.30756901                2.30234982               -0.02771335
              13.17852676               -1.15425653               50.42148114                0.48339405                0.59179632                0.79761204               -2.79917966               -0.24931606                1.74690838                0.18836053
              14.18948398               -2.01329248               50.14195989                0.56192597                1.35779412                1.05698673               -3.77640328               -0.30500944                0.03397470                0.34756123
              15.20568264               -2.86342686               49.84273299                0.68570755                1.70910450                1.30637641               -4.71920988               -0.29932688               -1.85771827                0.45198309
              16.22366607               -3.70378638               49.52469134                0.86251413                1.85149014                1.55215412               -5.67720946               -0.22374172               -2.44029641                1.05941150
              17.24271245               -4.53838415               49.21235263                1.00000000                1.90463795                1.89106366               -6.65294313               -0.30577738               -2.05625531               -1.85547527
               7.99880697                4.68270031               52.05892855                0.88611843               -0.66886066               -0.92801268                2.79985791               -0.08107419                0.88158088                3.33123164
               8.99211837                3.91704132               51.74254919                0.41225595               -0.44471581               -0.48893581                1.85669621               -0.15643311                2.40486632               -2.68081640
               9.98991266                3.14704105               51.45717067                0.06888001                0.25484593                0.00194891                1.12680329               -0.99947634                4.95313179               -5.60372619
              10.99721529                2.36087210               51.19186771                0.00010000                1.04110110               -0.57299173                0.30626982               -2.03933136                6.73830229               -4.15736819
              12.01073468                1.54898634               50.94253855                0.00010000                1.39084477               -0.76900516               -0.53418561               -3.08835802                8.43416712               -2.57714700
              13.02503218                0.70959294               50.71176059                0.00010000                1.20668842               -0.42736914               -1.43503766               -3.72029527                9.48811106               -1.47712481
              14.03486845               -0.14628041               50.48375285                0.00010000                0.79934333                0.11647823               -2.33647794               -3.51261718                8.93521986               -0.31249657
              15.04101905               -1.00272261               50.24106051                0.05648817                0.65339380                0.46835360               -3.18580490               -2.46175682                7.30506198                1.65230975
              16.04793632               -1.85036309               49.97885299                0.23995163                0.89441227                0.80883145               -4.01711658               -0.98460391                5.73486886                4.75634081
              17.05890729               -2.68826483               49.70316273                0.50827210                1.31580595                1.29960768               -4.85370182               -0.34629577                3.64402995                2.85243493
              18.07425244               -3.51947351               49.39778692                0.86346361                1.53451498                1.87682719               -5.74506093               -0.29877610                2.22874402               -2.68941628
               8.76131469                5.67356168               51.94471837                0.81175623               -0.57244400               -0.87442009                2.51848011               -0.08767738                0.34817478                3.93033672
               9.75559025                4.91308653               51.58655866                0.28473727               -0.52120173               -0.30232269                1.32099516               -0.10610662                2.60172174               -3.75501567
              10.75089065                4.15010509               51.27390177                0.00010000                0.17191884                0.52173431                0.46809016               -2.08799525               10.14761268              -12.07975193
              11.75902863                3.35005536               51.06710347                0.00010000                1.30285739               -0.81029341               -0.26374112               -4.57802057               16.58875366               -8.18536151
              12.77694780                2.53128301               50.88403863                0.00010000                1.97401328               -1.40793301               -1.11236369               -5.97299795               18.07301498               -5.23218678
              13.79850889                1.69582983               50.70764422                0.00010000                2.18210802               -1.25281322               -1.91200152               -6.82384276               18.59228674               -2.94685290
              14.82058996                0.84807304               50.53515890                0.00010000                2.29113179               -0.74665670               -2.68377980               -6.67032678               18.95070239               -0.53912750
              15.84433153               -0.00392541               50.36516544                0.00010000                2.54714136               -0.42109488               -3.40443023               -5.19872373               19.37395280                2.90447764
              16.87153279               -0.84725023               50.19970857                0.10536769                2.07595195               -0.60804771               -3.18082663               -2.71788552               13.74896310                7.65751045
              17.88585057               -1.67779422               49.91590807                0.28191206                1.38107424                0.53002354               -3.85128145               -0.91229796                4.53033650                3.93535075
              18.89915428               -2.50084760               49.56473303                0.71342772                1.33037086                2.18926781               -4.95538359               -0.67451184                1.20339222               -4.18278516
               9.51800372                6.66521191               51.82845569                0.80167319               -0.45508964               -0.78028552                2.20716806               -0.06654215                0.06288600                3.77045415
              10.51345282                5.91099487               51.43114280                0.27078687               -0.34098960               -0.14743931                0.84487252                0.08560697                0.95316398               -3.61531392
              11.51118392                5.15747574               51.05195723                0.00010000                0.55120700                0.70344563               -0.33890621               -2.61009809               15.14367430              -12.51210951
              12.52447696                4.34466623               50.93852313                0.00010000                1.71581629               -0.24774257               -0.96484272               -5.53176869               28.05506745               -8.44246653
              13.54550025                3.52082768               50.81914941                0.00010000                2.36441702               -0.77913361               -1.66810533               -6.32363049               27.93833070               -5.53090453
              14.57176530                2.68453667               50.70460286                0.00010000                2.78584514               -0.97200453               -2.38583705               -6.95712965               28.38575153               -2.81441362
              15.60121715                1.83878646               50.59471770                0.00010000                3.03012698               -0.90828176               -3.07722827               -7.00496373               28.90515300               -0.01506238
              16.63236784                0.98885549               50.49043248                0.00010000                3.31151391               -0.81796037               -3.66706251               -6.56913906               29.59143647                3.05129617
              17.66744743                0.13747595               50.39353676                0.10801273                3.09454335               -1.30295101               -4.44294422               -4.08827437               20.90126229                6.52897499
              18.69425871               -0.67766436               50.11522592                0.28003603                1.97107681                0.20905718               -3.60028706               -0.86769900                6.05008566                2.41271679
              19.70686897               -1.47568815               49.71869612                0.71022750                1.26102603                2.39691926               -4.82247893               -0.07892978                0.18432932               -5.10209787
              10.26841793                7.65795597               51.71146188                0.79442274               -0.33793693               -0.67320661                1.90186820               -0.06478609                0.06917713                3.74904042
              11.26503856                6.91013775               51.27806791                0.26121704               -0.17002990               -0.02281873                0.37261728                0.14455030                0.79090644               -3.45823172
              12.26501733                6.16417401               50.85933729                0.00010000                1.00013753                0.69658375               -0.94678636               -3.21376021               19.87270999              -10.64020599
              13.28504131                5.34510051               50.80746976                0.00010000                2.27937090                0.20041231               -1.56532414               -6.69241098               38.05391209               -8.20469424
              14.31060475                4.51570034               50.75429142                0.00010000                2.81831036               -0.32014268               -2.19904037               -7.20298089               37.99285266               -5.34855057
              15.34140752                3.67638974               50.70304807                0.00010000                3.27835580               -0.67775174               -2.84164721               -7.59614369               38.26537772               -2.55285101
              16.37617187                2.82990740               50.65669173                0.00010000                3.64258670               -0.83895258               -3.47251329               -7.64220074               38.81846103                0.31598453
              17.41425925                1.97971539               50.61730622                0.00010000                4.00576460               -0.89208173               -4.11887007               -7.41276480               39.63173418                3.39668288
              18.45628716                1.12669075               50.58754976                0.11415441                3.37007189               -0.88353983               -4.84157714               -4.49000910               27.01575633                6.88682459
              19.48166069                0.32638692               50.29551218                0.28840419                1.86680500                0.56282715               -3.48414077               -0.99685966                7.13798467                1.32882153
              20.49362326               -0.45290922               49.86444685                0.71522455                1.19625678                2.15510687               -4.81447823               -0.00153859                0.26636008               -5.69838886
              11.01234444                8.65174778               51.59513516                0.78705705               -0.22186482               -0.56916878                1.59848238               -0.06426159                0.06983954                3.78163509
              12.01012579                7.91053849               51.12580210                0.25177879               -0.01992396                0.10402460               -0.09681133                0.15544277                0.96021100               -3.38403820
              13.01194596                7.17140741               50.67441723                0.00010000                1.44883114                0.77760443               -1.51204331               -3.73826960               24.83890966              -10.11063142
              14.03910241                6.34867447               50.68243207                0.00010000                2.91027221                0.47902322               -2.09389177               -7.75384907               47.76082877               -7.62269055
              15.07015140                5.51442482               50.69179218                0.00010000                3.32664766                0.00240965               -2.67279145               -8.20566268               47.84607090               -4.93462314
              16.10563536                4.67098164               50.70387655                0.00010000                3.74480473               -0.44907047               -3.25004730               -8.45572935               48.14061113               -2.14023131
              17.14504749                3.82200741               50.72120764                0.00010000                4.08469161               -0.74072601               -3.82355563               -8.41270821               48.73283101                0.76731858
              18.18732919                2.97101386               50.74671912                0.00042474                4.29641100               -0.80596511               -4.39638548               -8.21659651               49.68662382                3.90630951
              19.23097571                2.11980515               50.78385177                0.12041653                3.32961427               -0.54136864               -4.97778056               -4.93697717               32.74840761                7.43305542
              20.25392148                1.33359218               50.46957229                0.29699978                1.72273789                0.78428259               -3.32536668               -0.93985665                7.81550348                1.08963126
              21.26543047                0.56741398               50.00337601                0.72030654                1.15089918                1.93739076               -4.78100894                0.01628334                0.32711333               -6.03555398
              11.74955127                9.64657259               51.47912690                0.77978567               -0.10634858               -0.46601354                1.29514901               -0.06377955                0.07262471                3.78186317
              12.74848778                8.91221824               50.97411250                0.24238184                0.12823459                0.23277363               -0.56439521                0.14476045                1.21110970               -3.33225279
              13.75211596                8.17972610               50.49192459                0.00010000                1.92295683                0.89106629               -2.04646417               -4.20649457               29.96019842               -9.86653440
              14.78694692                7.35468098               50.56156268                0.00010000                3.60341881                0.69133993               -2.56936499               -8.66701243               57.51602510               -7.12840652
              15.82418434                6.51574853               50.63311368                0.00010000                3.88817161                0.19173639               -3.08062451               -9.11388054               57.63803156               -4.38918754
              16.86471035                5.66740833               50.70789261                0.00010000                4.18505724               -0.32089491               -3.58426877               -9.23610188               57.98107592               -1.62140258
              17.90788548                4.81509288               50.78879546                0.00010000                4.37096121               -0.66156503               -4.07141877               -9.06260291               58.68109609                1.28893415
              18.95212957                3.96359609               50.87950177                0.00489683                4.35419067               -0.70014827               -4.52363673               -8.75489836               59.82899478                4.49168529
              19.99496929                3.11586338               50.98403986                0.12677985                3.15625769               -0.29833112               -4.90845981               -5.09276644               38.23966956                8.09572677
              21.01525473                2.34207257               50.64095404                0.30558184                1.56680113                0.85093623               -3.10576778               -0.80093296                8.18869686                1.16758440
              22.02630532                1.58583860               50.13907901                0.72550542                1.10505878                1.75995846               -4.68993730                0.02503452                0.37823606               -6.05068979
              12.47977755               10.64242751               51.36311009                0.77262749                0.00899432               -0.36314058                0.99066460               -0.06401338                0.07416943                3.74503878
              13.47986749                9.91519397               50.82267926                0.23307662                0.27878892                0.36334455               -1.03145849                0.11485622                1.52898532               -3.30207356
              14.48535333                9.18922874               50.31131925                0.00010000                2.49361167                0.99081235               -2.55412576               -4.66400430               35.24174923               -9.61821941
              15.52973973                8.36250127               50.44469373                0.00010000                4.48965513                0.77112592               -2.98886891               -9.36393684               67.37517951               -6.52282955
              16.57514643                7.51825955               50.57878847                0.00010000                4.59146243                0.15786236               -3.41374232               -9.65365474               67.39424239               -3.72040838
              17.62156897                6.66456374               50.71535515                0.00010000                4.62306275               -0.32211318               -3.82752647               -9.49722095               67.74963622               -1.07742893
              18.66760769                5.80877611               50.85906614                0.00010000                4.49458783               -0.57582327               -4.20775180               -9.23204493               68.64752296                1.70611267
              19.71146073                4.95701089               51.01542245                0.00965537                4.15181059               -0.60273959               -4.51004178               -8.88250384               70.12393814                4.94125128
              20.75064390                4.11383853               51.18890820                0.13322412                2.82334343               -0.11037527               -4.65223648               -5.08677215               43.63591824                8.75292524
              21.76792760                3.35061090               50.81234544                0.31425274                1.38776075                0.81829412               -2.81231486               -0.66877434                8.34913558                1.46949163
              22.77839911                2.60261315               50.27430420                0.73058801                1.04715126                1.59560594               -4.52916148                0.02476485                0.41886042               -5.80759360
              13.20273808               11.63930978               51.24664684                0.76532296                0.12455928               -0.26075906                0.68354893               -0.06509424                0.09223322                3.71347196
              14.20398367               10.91948513               50.67128172                0.22369209                0.43952421                0.49651874               -1.49840683                0.04425287                1.95864084               -3.33715788
              15.21152857               10.19954234               50.13313670                0.00010000                3.33268464                1.01776009               -3.02190747               -5.22241363               40.81004989               -9.07106117
              16.27063737                9.37010349               50.33412994                0.00010000                5.87601049                0.38181626               -3.34026911               -9.71974581               77.38655856               -5.41822153
              17.32904878                8.51890578               50.53041865                0.00010000                5.68060054               -0.37743624               -3.66009835               -9.10295065               76.97172985               -2.80596059
              18.38424938                7.66096607               50.72587048                0.00010000                5.08743255               -0.43095861               -3.97261773               -8.48566105               77.22423091               -0.59302544
              19.43079743                6.80357642               50.92949264                0.00010000                4.25838464               -0.31444991               -4.23687170               -8.30796583               78.49041706                1.75120508
              20.46941707                5.95154129               51.15134664                0.01453052                3.44182061               -0.27536888               -4.37550244               -8.37132325               80.65631549                4.73005814
              21.49963384                5.11365587               51.39773432                0.13977507                2.18437747                0.15989671               -4.23667533               -5.06938119               49.18401869                8.98296568
              22.51310462                4.35843846               50.98569704                0.32297061                1.15811376                0.72153549               -2.43654139               -0.62370292                8.43770610                1.98895791
              23.52279611                3.61775072               50.41143462                0.73574038                0.96914939                1.42568711               -4.28685302                0.01411192                0.47788749               -5.38554099
              13.91812497               12.63721233               51.13025156                0.75799986                0.23950232               -0.15781256                0.37752729               -0.06591651               -0.04771896                3.23064171
              14.92051999               11.92512434               50.51872777                0.21449176                0.60808632                0.62903368               -1.97067677               -0.11849842                2.74794025               -2.99300687
              15.93028669               11.20958394               49.96292567                0.00010000                4.77306933                0.81780834               -3.42479862               -5.94857904               47.11394166               -6.68032016
              17.01598138               10.37013760               50.23770012                0.00010000                8.59690749               -1.57044658               -3.59741732               -7.80995488               87.44396177               -3.23983488
              18.10222484                9.51071083               50.49130693                0.00010000                7.56018705               -1.20356486               -3.80570909               -6.21026286               85.88820615               -1.53885665
              19.16718512                8.65594457               50.73849907                0.00010000                5.43241526               -0.56138524               -4.01527406               -5.22759428               85.92239822               -0.23498567
              20.21087315                7.80248711               50.99479766                0.00010000                3.33848471                0.14436183               -4.16974502               -5.37568776               87.66831176                1.16427567
              21.23395481                6.95150352               51.27666056                0.01961585                1.57429822                0.78408094               -4.17079984               -6.00966279               91.31486088                3.13990148
              22.24235911                6.11703647               51.60278117                0.14659763                0.87019430                0.88936111               -3.70753971               -4.53619408               55.53934104                6.67670597
              23.25135870                5.36504161               51.16371194                0.33165198                0.88488585                0.59046759               -1.97098067               -0.77696248                8.88335917                2.22407214
              24.26005683                4.63112690               50.55167648                0.74085500                0.86981321                1.25431038               -3.96169603               -0.02721514                0.38882932               -4.21915148
              14.62559572               13.63615353               51.00434794                0.87661752                0.36463704               -0.10587959                0.03174613                0.33830311                1.47535613                2.74700601
              15.62924209               12.93206580               50.37368625                0.60429754                1.09740033                0.69414636               -2.40608730               -0.14054063                5.96345003               -2.58586687
              16.64754373               12.21589851               49.83250015                0.47668206                9.20346453                0.63145695               -3.68183278               -7.94285842               54.53385187               -4.77468537
              17.81331138               11.33869456               50.16932458                0.44677259               13.57464117               -3.14430352               -3.72830337               -6.32020067               96.03479760               -1.69565260
              18.91903655               10.49483448               50.46515497                0.43787852                8.73049150               -1.58763470               -3.83257714               -2.76663882               93.31662010               -0.74039237
              19.98792121                9.64973837               50.75200881                0.44566972                5.43440854               -0.62061993               -3.95197000               -2.34493172               93.23343984               -0.01160476
              21.02772472                8.80646365               51.04827584                0.46961526                2.33766217                0.39765449               -4.02193826               -2.44061512               95.23029892                0.77686096
              22.03467446                7.96722291               51.37405688                0.51159279               -1.61764317                1.57193971               -3.93525830               -3.67906330              100.04767942                1.93891638
              22.99537186                7.13144309               51.76045816                0.57562814               -2.55997571                1.44066274               -3.28246445               -4.54748044               63.35862350                4.70480993
              23.98347494                6.37024781               51.33837167                0.66875321               -0.26453052                0.52061938               -1.44466752               -1.21868384               12.53963675                2.20879919
              24.99008125                5.64283692               50.70876684                0.87207199                0.66063064                1.17100294               -3.50185268                0.26135377                2.30361236               -3.20999453
               7.52440156                3.84975829               53.22028298                0.96940533               -0.88813284               -0.97962280                3.31472109               -0.21849501               -2.34303277                2.73642411
               8.51552023                3.04287028               52.89960154                0.75591043               -0.87122517               -0.60344756                2.33173758               -0.20700126               -3.24478592               -1.65599616
               9.50697706                2.23235972               52.56153590                0.57079558               -1.06345058               -0.31380217                1.26520477               -0.53632403               -3.15143467               -1.00011558
              10.49425122                1.40633863               52.24311484                0.48700753               -1.32150925               -0.05884585                0.26364337               -0.60045289               -1.04388091               -0.36407069
              11.48054687                0.55487117               51.94671682                0.44675045               -1.14197017                0.24938756               -0.78875160               -0.50511911                1.00995390               -0.26066397
              12.47141182               -0.32303066               51.66807441                0.44539813               -0.39800220                0.55115476               -1.88343177               -0.29807407                2.12951233               -0.03232208
              13.47258683               -1.21695870               51.39266520                0.48203804                0.61263208                0.83968017               -2.96744826               -0.23611891                1.61899893                0.18659990
              14.48366446               -2.11184727               51.10312732                0.55791286                1.38195914                1.11196947               -3.99380402               -0.28683637               -0.03893383                0.35033704
              15.50022601               -2.99855562               50.79423835                0.67740740                1.76454611                1.37500817               -4.98636720               -0.28766850               -1.91641311                0.44648282
              16.51895538               -3.87578737               50.46638071                0.84790426                1.93924249                1.63274316               -5.99184703               -0.22407476               -2.51132442                1.05494606
              17.53901086               -4.74708757               50.14406675                0.99293677                2.00554795                1.98270780               -7.01147219               -0.32916968               -2.13060876               -1.89707197
               8.32910462                4.83996206               53.08750203                0.87102472               -0.69551172               -0.96323221                2.91484572               -0.08639836                0.96094697                3.48210754
               9.32214950                4.03683580               52.76143715                0.39417622               -0.46124911               -0.50492074                1.92164926               -0.16404407                2.59313480               -2.84373153
              10.31987964                3.22922170               52.46855324                0.06245648                0.24207315                0.01044594                1.15156508               -1.00058384                5.20411713               -5.86112836
              11.32699097                2.40575018               52.19484976                0.00010000                1.01503444               -0.57964823                0.29027123               -2.01885469                6.93144918               -4.48105952
              12.34018033                1.55736505               51.93694906                0.00010000                1.36775240               -0.75746950               -0.58388963               -3.02803459                8.58633861               -2.97947198
              13.35434602                0.68248089               51.69701107                0.00010000                1.22268083               -0.43383032               -1.51651998               -3.63181611                9.60976823               -1.90675934
              14.36463394               -0.20856190               51.45983623                0.00010000                0.86242681                0.09287345               -2.44820772               -3.43202027                9.08148452               -0.74936256
              15.37159455               -1.10072757               51.20847911                0.05056032                0.73427176                0.46843075               -3.33063072               -2.41519218                7.48667751                1.21721221
              16.37931938               -1.98480553               50.93778979                0.22761388                0.96930307                0.85144154               -4.19684301               -0.98064429                5.92500659                4.80697567
              17.39098061               -2.85945994               50.65354980                0.48588856                1.38499912                1.36079504               -5.06930789               -0.35321620                3.80483495                2.93992544
              18.40701936               -3.72726049               50.33906389                0.84813351                1.60387495                1.96331499               -5.99979619               -0.32839249                2.36215868               -2.79210457
               9.12892611                5.83049364               52.97038957                0.79880855               -0.59463970               -0.90231836                2.61875636               -0.08926260                0.34456686                4.11503211
              10.12297971                5.03277186               52.59994220                0.27054138               -0.54375512               -0.31109309                1.35739635               -0.10138932                2.77619414               -3.96073108
              11.11805101                4.23256864               52.27857951                0.00010000                0.13755334                0.55384023                0.46783082               -2.10847057               10.55066765              -12.68717503
              12.12573078                3.39474567               52.06414107                0.00010000                1.26022300               -0.79113734               -0.32616383               -4.58446409               16.98548750               -8.86405038
              13.14325547                2.53972178               51.87247624                0.00010000                1.94858327               -1.39395926               -1.20153225               -5.90751446               18.43475038               -6.01533588
              14.16470245                1.66829274               51.68787099                0.00010000                2.19497093               -1.27026322               -2.04614378               -6.73770344               18.98279413               -3.79600291
              15.18715489                0.78489876               51.50743435                0.00010000                2.34509009               -0.79129506               -2.86614673               -6.57584411               19.38072966               -1.43100566
              16.21160425               -0.10247865               51.33006118                0.00010000                2.60953045               -0.44010005               -3.62219363               -5.13252083               20.32705623                2.00328617
              17.23934550               -0.98152678               51.16716800                0.09755382                2.13708858               -0.48141151               -3.33740320               -2.74570113               14.71920155                6.63309784
              18.25434602               -1.84857147               50.87677959                0.26709854                1.43493094                0.61150562               -3.96936383               -0.93865652                4.80622045                3.69116932
              19.26804411               -2.70782127               50.51429255                0.70312201                1.36980956                2.30944618               -5.12907386               -0.69983644                1.23737603               -4.72178365
               9.92276293                6.82191569               52.85094408                0.78925335               -0.47162085               -0.80135085                2.29324713               -0.06849793                0.06493998                3.94135781
              10.91804672                6.03061394               52.43966066                0.25720776               -0.35132551               -0.15099005                0.85994558                0.10323578                1.05103374               -3.78754011
              11.91573642                5.24029850               52.04843510                0.00010000                0.50509105                0.73229080               -0.36109910               -2.60254579               15.61415027              -13.09035797
              12.92814854                4.38992743               51.92852525                0.00010000                1.63732762               -0.18802631               -1.03392599               -5.54626320               28.74515966               -9.12965195
              13.94848297                3.52948586               51.80184275                0.00010000                2.31332096               -0.73471074               -1.79512816               -6.29860840               28.56395123               -6.28325482
              14.97441496                2.65707562               51.67981676                0.00010000                2.77027387               -0.93127623               -2.57688045               -6.92161436               29.00280497               -3.64666898
              16.00388845                1.77561220               51.56266959                0.00010000                3.04773604               -0.86273096               -3.34051837               -6.96708363               29.57694846               -0.92540944
              17.03536968                0.89047043               51.45213252                0.00010000                3.33048636               -0.73439366               -4.00338668               -6.47004707               30.20175595                2.03379864
              18.07049818                0.00556624               51.34683953                0.10019162                3.15661433               -1.05717730               -4.89303396               -4.13641170               22.29331159                4.87318074
              19.09850197               -0.84722983               51.07810865                0.26571803                2.05120266                0.37242851               -3.84434711               -0.97300782                7.20583011                1.72543456
              20.11152223               -1.68107157               50.66905316                0.70031211                1.30202608                2.56521595               -5.12942877               -0.07069034                0.22667403               -6.04070376
              10.71015966                7.81446663               52.73084511                0.78215921               -0.34980379               -0.69159211                1.97716754               -0.06655094                0.07218207                3.92267059
              11.70666162                7.02975206               52.28177103                0.24799863               -0.17365264               -0.02039201                0.36832161                0.16352980                0.90961457               -3.62672843
              12.70668660                6.24721445               51.84968715                0.00010000                0.94782699                0.71975946               -0.98078459               -3.20047253               20.45020330              -11.09274326
              13.72561816                5.39098514               51.79136393                0.00010000                2.17242504                0.26949268               -1.65339236               -6.70123488               38.94047401               -8.80497494
              14.75013510                4.52502757               51.73150997                0.00010000                2.72628327               -0.23136461               -2.35938279               -7.18988682               38.83727971               -6.05026459
              15.78014382                3.64966721               51.67342476                0.00010000                3.21416545               -0.56938912               -3.08994049               -7.57585604               39.08434661               -3.33990717
              16.81441841                2.76764415               51.62026166                0.00010000                3.60527209               -0.70196831               -3.82503372               -7.59849349               39.60975279               -0.55812151
              17.85224926                1.88283347               51.57377234                0.00010000                3.99495522               -0.70118243               -4.60147233               -7.25758498               40.34537125                2.39244188
              18.89431752                0.99732967               51.53592252                0.10619419                3.46372017               -0.62474713               -5.49991666               -4.49494741               28.81950373                5.87090979
              19.92152367                0.15887710               51.25904306                0.27380547                1.99981348                0.78128520               -3.84405740               -1.12311015                8.64577060                0.66094553
              20.93431379               -0.65651695               50.81431727                0.70509972                1.27901184                2.33840629               -5.24992220                0.01186171                0.34105255               -6.62593237
              11.49086104                8.80808385               52.61143610                0.77523126               -0.22915517               -0.58557786                1.66378250               -0.06587172                0.07287938                3.95488046
              12.48856949                8.03020610               52.12472210                0.23894765               -0.01835766                0.11186492               -0.11937414                0.17264012                1.11751267               -3.54940249
              13.49049389                7.25469369               51.65905068                0.00010000                1.38706223                0.80569335               -1.55141317               -3.71489075               25.55666102              -10.52134755
              14.51631073                6.39531728               51.66096285                0.00010000                2.77546405                0.56156372               -2.19664128               -7.74448155               48.84764458               -8.15303212
              15.54600317                5.52485857               51.66411787                0.00010000                3.19852639                0.12999719               -2.86342932               -8.17758059               48.89029854               -5.56161619
              16.58028126                4.64568784               51.66990684                0.00010000                3.63745740               -0.27797308               -3.55203655               -8.40824187               49.14610427               -2.84666389
              17.61875232                3.76157283               51.68084864                0.00010000                4.01255984               -0.52394425               -4.26358969               -8.31954846               49.69876452               -0.00577535
              18.66053246                2.87644678               51.69977806                0.00010000                4.29016444               -0.54912068               -5.01323274               -7.98754568               50.60102333                3.10832779
              19.70455561                1.99307129               51.72996611                0.11220002                3.46769652               -0.27942069               -5.83560632               -4.88279110               34.89707926                6.71484396
              20.72988639                1.16839587               51.43432705                0.28199576                1.89959791                1.01755427               -3.76818060               -1.05265990                9.56595898                0.54310267
              21.74254756                0.36569656               50.95316763                0.71002751                1.26611749                2.12896171               -5.31023080                0.02937081                0.41611559               -6.85115193
              12.26459772                9.80275507               52.49235098                0.76831663               -0.10931435               -0.48088315                1.35094336               -0.06619972                0.07547410                3.95340338
              13.26350458                9.03198936               51.96827178                0.22988086                0.13399418                0.24598544               -0.60452444                0.15873633                1.42407401               -3.49545933
              14.26727761                8.26332832               51.47122613                0.00010000                1.85295357                0.92298000               -2.08416824               -4.17007309               30.84318743              -10.24261322
              15.30056365                7.40221642               51.53528323                0.00010000                3.44676633                0.78339784               -2.67975095               -8.62259469               58.81584295               -7.59439202
              16.33621293                6.52762751               51.60123985                0.00010000                3.73505376                0.34549780               -3.29431243               -9.04286215               58.88830485               -4.92742195
              17.37526472                5.64410775               51.67035798                0.00010000                4.05277882               -0.10391136               -3.93171170               -9.13059822               59.18616595               -2.21711835
              18.41726851                4.75716526               51.74559973                0.00010000                4.28675812               -0.38787628               -4.58761457               -8.90075040               59.85468700                0.66308567
              19.46099989                3.87185106               51.83075539                0.00076256                4.37220451               -0.39984605               -5.25799703               -8.47105050               60.99452243                3.89441019
              20.50471260                2.99174126               51.93009494                0.11833899                3.34226606               -0.04024393               -5.93970991               -4.99631763               40.69605751                7.64734314
              21.52784521                2.17922818               51.60767362                0.29023964                1.77936202                1.08105829               -3.60261375               -0.89756981               10.10935554                0.75083562
              22.54029984                1.38606228               51.08952261                0.71491116                1.24546306                1.95319489               -5.28056954                0.03883064                0.47782850               -6.73721712
              13.03106847               10.79846619               52.37324489                0.76134084                0.01024981               -0.37685974                1.03730924               -0.06661292                0.07684092                3.91368853
              14.03117096               10.03512581               51.81208268                0.22094659                0.28984515                0.38219190               -1.08894527                0.12146792                1.81039233               -3.46407456
              15.03686537                9.27315329               51.28556651                0.00010000                2.41943445                1.02028016               -2.58300678               -4.61528016               36.31943146               -9.96064800
              16.07955965                8.41098524               51.41420752                0.00010000                4.31946130                0.86209791               -3.09792396               -9.27731727               68.91088323               -6.91411081
              17.12325460                7.53176852               51.54351028                0.00010000                4.42859473                0.32207659               -3.64010518               -9.52653213               68.86497366               -4.15492034
              18.16813155                6.64360961               51.67522900                0.00010000                4.48697017               -0.08241377               -4.20740965               -9.32298797               69.16994578               -1.54204569
              19.21299400                5.75381530               51.81423730                0.00010000                4.42019529               -0.26814063               -4.78268789               -8.99777480               70.05307025                1.24098013
              20.25653545                4.86844986               51.96641275                0.00525450                4.21290665               -0.26935583               -5.33666576               -8.56792704               71.57983701                4.54140209
              21.29725213                3.99226642               52.13693272                0.12460554                3.05392573                0.14219537               -5.82148122               -4.97274247               46.36224488                8.55409788
              22.31761397                3.19001704               51.78185676                0.29862684                1.62019239                1.03466514               -3.33914463               -0.75701411               10.37912183                1.18620921
              23.32965598                2.40476045               51.22620304                0.71987505                1.20420114                1.78640959               -5.15188249                0.03741412                0.52392242               -6.36111250
              13.78994622               11.79521787               52.25366340                0.75432173                0.13006115               -0.27274168                0.72088602               -0.06760161                0.09603258                3.88064526
              14.79124683               11.03963320               51.65593173                0.21197763                0.45831758                0.52078582               -1.57347182                0.03619086                2.32963391               -3.50097276
              15.79911257               10.28373393               51.10276008                0.00010000                3.25776199                1.03053817               -3.03348939               -5.16933188               42.11667560               -9.35769140
              16.85640207                9.41945838               51.30016880                0.00010000                5.69726709                0.46249113               -3.43728891               -9.58570126               79.17991442               -5.71663694
              17.91305791                8.53406904               51.49266396                0.00010000                5.51780576               -0.20884997               -3.88648650               -8.93870403               78.67560305               -3.11915524
              18.96675819                7.64245947               51.68421737                0.00010000                4.97074288               -0.19421539               -4.36769527               -8.26936077               78.86741831               -0.91308087
              20.01247277                6.75180245               51.88421983                0.00010000                4.22160245               -0.01177237               -4.84653904               -8.02373850               80.14080186                1.44921919
              21.05119024                5.86646394               52.10345384                0.00999789                3.56088973                0.08330632               -5.26134293               -8.03646963               82.43387090                4.50353928
              22.08369057                4.99458516               52.34950476                0.13093234                2.45103262                0.42376455               -5.50215733               -4.97553098               52.16665497                8.99863639
              23.10021089                4.19992149               51.95891020                0.30698365                1.39353638                0.91894632               -2.97504500               -0.71962308               10.53469409                1.84212419
              24.11156129                3.42179047               51.36570542                0.72480702                1.13504056                1.61314965               -4.91949570                0.02430185                0.58836749               -5.80539688
              14.54088579               12.79301135               52.13416225                0.74731165                0.24929437               -0.16742546                0.40527415               -0.06865938               -0.05191239                3.37719032
              15.54337873               12.04554153               51.49856419                0.20307860                0.63838833                0.65860697               -2.06389105               -0.15942805                3.24268331               -3.13959888
              16.55365355               11.29376406               50.92865825                0.00010000                4.70658904                0.76816766               -3.40458037               -5.83485894               48.70236857               -6.86934987
              17.63751051               10.42023506               51.20124322                0.00010000                8.39129316               -1.45312028               -3.67432739               -7.66842470               89.51403502               -3.41627698
              18.72147942                9.52759153               51.45215262                0.00010000                7.37502074               -1.03352731               -4.01782153               -6.07189683               87.82206543               -1.70616546
              19.78501093                8.63972531               51.69644683                0.00010000                5.35176709               -0.34676550               -4.40348431               -5.06457292               87.77905470               -0.40046658
              20.82851476                7.75357986               51.95018749                0.00010000                3.40062094                0.40204074               -4.78321602               -5.13212138               89.54453020                1.01756050
              21.85302335                6.87011598               52.23078742                0.01500094                1.78846058                1.07971767               -5.07026385               -5.73060262               93.42647069                3.04828580
              22.86428397                6.00074171               52.55964697                0.13754671                1.14964257                1.24069469               -5.03097892               -4.39071754               58.78730499                6.77791953
              23.87601620                5.20839597               52.14160372                0.31530470                1.10600350                0.76815867               -2.50561024               -0.91226189               11.02666657                2.19841823
              24.88640404                4.43702345               51.50923783                0.72967689                1.03878439                1.43891680               -4.58719233               -0.02342721                0.49887653               -4.48353337
              15.28351269               13.79186937               52.00473968                0.87132870                0.37928794               -0.11419882                0.04699779                0.35628742                1.54005544                2.87241342
              16.28730557               13.05280534               51.34908570                0.59872968                1.21045836                0.72638121               -2.51600456               -0.24592056                6.67075534               -2.71200119
              17.30772186               12.29909728               50.79574625                0.47552540                9.09502694                0.53332229               -3.63933923               -7.71363808               56.47857656               -4.92435913
              18.46920611               11.39039597               51.13166431                0.44661880               13.22039377               -2.98390916               -3.78063639               -6.11537957               98.34725617               -1.77245889
              19.57212973               10.51339850               51.42586780                0.43798973                8.51361449               -1.41930302               -4.01402995               -2.67855884               95.45502502               -0.81071714
              20.63947840                9.63552416               51.71074902                0.44542688                5.36549683               -0.42011435               -4.30467778               -2.23101457               95.26991904               -0.07654309
              21.67943967                8.75984326               52.00531189                0.46857159                2.49689682                0.62634057               -4.59853814               -2.28080237               97.27321619                0.72794674
              22.68941633                7.88805830               52.33070850                0.50920217               -1.09217184                1.79423144               -4.79889548               -3.38291142              102.37753523                1.92926944
              23.65759623                7.01939906               52.72163173                0.57097721               -2.18662119                1.86573508               -4.60013000               -4.30745579               66.88133266                4.82294843
              24.64568391                6.21528466               52.32162197                0.66042143               -0.18792216                0.68886926               -1.95987400               -1.47474106               14.83949321                2.25197873
              25.65383779                5.45056881               51.67103727                0.86639487                0.81538786                1.35453627               -4.10590071                0.27178986                2.48501439               -3.36613504
               7.82612041                4.01241230               54.25409284                0.96088283               -0.92094025               -1.01764286                3.44844897               -0.23029067               -2.43516107                2.84046802
               8.81691101                3.16607411               53.92333168                0.74512984               -0.89757225               -0.62480845                2.41503306               -0.21727373               -3.37999738               -1.74879152
               9.80816896                2.31602913               53.57433284                0.56633607               -1.06045003               -0.32542543                1.29435043               -0.52416693               -3.29626036               -0.97582857
              10.79570201                1.45076394               53.24563806                0.48545117               -1.27468263               -0.05392642                0.24081320               -0.57754433               -1.17830108               -0.37818341
              11.78267531                0.56098535               52.93846520                0.44659125               -1.07060439                0.26521296               -0.86308254               -0.48284176                0.83330761               -0.26610890
              12.77428992               -0.35414256               52.64862009                0.44521168               -0.34107424                0.58037287               -2.00857041               -0.28755122                1.94525249               -0.03632178
              13.77585383               -1.28486659               52.36213217                0.48048245                0.64211156                0.88297859               -3.14384951               -0.22470956                1.47872736                0.18445067
              14.78713215               -2.21698931               52.06208381                0.55389414                1.41235854                1.16770790               -4.22116363               -0.26998494               -0.12673277                0.35248633
              15.80410100               -3.14160008               51.74300564                0.66924187                1.82395167                1.44468394               -5.26443901               -0.27533933               -1.98846115                0.44193870
              16.82361118               -4.05702564               51.40485440                0.83325609                2.03135978                1.71604207               -6.32122845               -0.22411955               -2.59154798                1.05090707
              17.84472819               -4.96631988               51.07212319                0.98311730                2.11170100                2.07784700               -7.38777192               -0.35550062               -2.21255258               -1.94630534
               8.67015569                5.00223587               54.11722546                0.85594850               -0.72258318               -0.99960106                3.03124184               -0.09196662                1.04587640                3.63872809
               9.66292986                4.15982603               53.78098218                0.37608667               -0.47866518               -0.52128584                1.98849182               -0.17239098                2.79164164               -3.01672620
              10.66058238                3.31277487               53.48020197                0.05604023                0.22592975                0.02253021                1.17943550               -1.00325931                5.46917786               -6.12847136
              11.66744845                2.45022467               53.19767313                0.00010000                0.98588785               -0.58325352                0.27629417               -1.99988727                7.14265068               -4.83001766
              12.68030014                1.56363748               52.93086076                0.00010000                1.34459632               -0.74513718               -0.63363693               -2.96629570                8.76229873               -3.41245092
              13.69434038                0.65166117               52.68143019                0.00010000                1.23649824               -0.43766741               -1.59907190               -3.53787690                9.75622619               -2.38331188
              14.70503011               -0.27603681               52.43478869                0.00010000                0.92293322                0.07430748               -2.56325659               -3.34064347                9.25083359               -1.25268742
              15.71279904               -1.20531223               52.17444790                0.04462554                0.81678307                0.47381093               -3.47780992               -2.35547930                7.68631536                0.70472859
              16.72136577               -2.12715324               51.89491613                0.21543007                1.04654230                0.89810315               -4.37756840               -0.97277854                6.12981684                4.81938651
              17.73372989               -3.03986521               51.60177658                0.46374248                1.45508303                1.42479749               -5.28642981               -0.35744618                3.97858763                3.02636845
              18.75046743               -3.94554141               51.27779099                0.83281466                1.67375403                2.05236677               -6.25772029               -0.36023466                2.50664654               -2.91535092
               9.50910076                5.99242028               53.99709350                0.78608720               -0.61765731               -0.93261720                2.72350721               -0.09150523                0.33907791                4.30760413
              10.50292419                5.15564840               53.61370659                0.25646304               -0.56978115               -0.32053952                1.39646383               -0.09439687                2.96282080               -4.17882487
              11.49770514                4.31647973               53.28325838                0.00010000                0.09587336                0.58930328                0.47138463               -2.12647891               10.96752467              -13.31103286
              12.50484165                3.43909887               53.06058020                0.00010000                1.21038815               -0.76871675               -0.38405498               -4.59365319               17.40139363               -9.57678645
              13.52191290                2.54608261               52.86000799                0.00010000                1.91825068               -1.37543162               -1.29322793               -5.84035714               18.82344069               -6.85979840
              14.54320667                1.63710409               52.66672134                0.00010000                2.20507289               -1.28058263               -2.18783593               -6.64044382               19.39134811               -4.73934032
              15.56601436                0.71661956               52.47783597                0.00010000                2.39661633               -0.82561195               -3.05900478               -6.46034628               19.83382793               -2.45580865
              16.59113899               -0.20751309               52.29272157                0.00010000                2.65920273               -0.44337285               -3.85116798               -5.04117915               21.35324946                0.93192919
              17.61919841               -1.12363801               52.13296050                0.08983079                2.18557179               -0.33308583               -3.51581070               -2.75224152               15.80457471                5.38321645
              18.63485043               -2.02852969               51.83652079                0.25256399                1.48387360                0.72230401               -4.07670080               -0.96013692                5.14217422                3.31699697
              19.64887588               -2.92527254               51.46215155                0.69292423                1.40254543                2.45072306               -5.29573867               -0.72198565                1.27629950               -5.41511356
              10.34186934                6.98358353               53.87432064                0.77696998               -0.48868784               -0.82514613                2.38369090               -0.07138016                0.06696471                4.12102277
              11.33698247                6.15341524               53.44834171                0.24375364               -0.36335035               -0.15533274                0.87703643                0.12210151                1.16829821               -3.96787604
              12.33460234                5.32456094               53.04473524                0.00010000                0.44950226                0.76119187               -0.37566475               -2.59207692               16.11234389              -13.67304500
              13.34597251                4.43485034               52.91784461                0.00010000                1.54427164               -0.12677267               -1.10034057               -5.56228845               29.45221784               -9.83841852
              14.36548777                3.53612885               52.78324685                0.00010000                2.25110194               -0.68313403               -1.92618222               -6.27121028               29.20053176               -7.09252794
              15.39099455                2.62604952               52.65306525                0.00010000                2.74762966               -0.88012861               -2.77972422               -6.87708980               29.62691675               -4.57269522
              16.42044036                1.70745095               52.52790734                0.00010000                3.06192391               -0.80268171               -3.62136452               -6.91121080               30.25559126               -1.97328730
              17.45223303                0.78582031               52.41036475                0.00010000                3.34485842               -0.62841133               -4.35984251               -6.34495428               30.81014478                0.81544162
              18.48733753               -0.13381495               52.29567608                0.09253463                3.19643245               -0.76898138               -5.33367388               -4.15156729               23.81210417                2.86846079
              19.51616168               -1.02541913               52.03833898                0.25148640                2.10879470                0.59585548               -4.13374684               -1.06905311                8.50105969                0.80781655
              20.52951343               -1.89652695               51.61610754                0.69048846                1.33517486                2.78650996               -5.48551383               -0.05978087                0.28544364               -7.23928465
              11.16800973                7.97591736               53.75100523                0.77019852               -0.36209253               -0.71220079                2.05634905               -0.06952719                0.07480785                4.10673883
              12.16438881                7.15254174               53.28543434                0.23486618               -0.17906151               -0.01827751                0.36464671                0.18326041                1.05521074               -3.80184680
              13.16442850                6.33170357               52.83972159                0.00010000                0.88195848                0.74402746               -1.00283267               -3.18711240               21.06713887              -11.54493051
              14.18202797                5.43656341               52.77440191                0.00010000                2.04305061                0.34220979               -1.73579705               -6.71340199               39.84331424               -9.42921388
              15.20528951                4.53241993               52.70710376                0.00010000                2.61573944               -0.13331114               -2.52386969               -7.17681366               39.68200248               -6.80433149
              16.23434276                3.61950152               52.64124926                0.00010000                3.13649162               -0.44671894               -3.35300563               -7.55109412               39.89352978               -4.21761989
              17.26801934                2.70056592               52.58019105                0.00010000                3.55815258               -0.54485622               -4.20147937               -7.54358185               40.37951048               -1.57163370
              18.30550582                1.77991868               52.52527677                0.00010000                3.96935843               -0.48114782               -5.11069283               -7.07921992               41.01263444                1.17883926
              19.34740651                0.86098236               52.47755142                0.09816628                3.53377720               -0.31277147               -6.17530660               -4.47502441               30.78653981                4.54115344
              20.37618136               -0.01661258               52.21863103                0.25920587                2.12446873                1.06213993               -4.28794129               -1.23236209               10.35312306               -0.19608361
              21.38989589               -0.86954234               51.75944840                0.69507858                1.37145291                2.58562759               -5.77649081                0.03493324                0.44014985               -7.77270671
              11.98723003                8.96933951               53.62841081                0.76337149               -0.23685646               -0.60427415                1.73263866               -0.06851114                0.07571869                4.13891121
              12.98486146                8.15304969               53.12341462                0.22609941               -0.01958034                0.12033626               -0.14223115                0.19036434                1.31641740               -3.72100597
              13.98683842                7.33944149               52.64338897                0.00010000                1.30633256                0.83272181               -1.57206030               -3.69076963               26.32559191              -10.93067869
              15.01098811                6.44169453               52.63849925                0.00010000                2.60874841                0.64925277               -2.28941373               -7.73783897               49.94389810               -8.70106832
              16.03901339                5.53346262               52.63452360                0.00010000                3.04192787                0.26938768               -3.05644177               -8.14966129               49.92403129               -6.23603255
              17.07182667                4.61711514               52.63283582                0.00010000                3.50690881               -0.08788588               -3.87063205               -8.35888845               50.12278926               -3.63848685
              18.10915156                3.69655383               52.63593584                0.00010000                3.92027611               -0.27999905               -4.73424657               -8.21776604               50.61412942               -0.91304661
              19.15023219                2.77619736               52.64645446                0.00010000                4.26083693               -0.25345437               -5.67078147               -7.73026068               51.42115623                2.11096275
              20.19436830                1.85992962               52.66713964                0.10401853                3.59034720                0.04306346               -6.74863170               -4.79039971               37.25231989                5.70452075
              21.22203914                0.99582366               52.39420868                0.26709471                2.08516601                1.30860753               -4.31781105               -1.14555987               11.58775943               -0.14959210
              22.23607162                0.15518561               51.89717139                0.69982542                1.40324860                2.38005980               -5.95627767                0.04959600                0.53332539               -7.83489008
              12.79921915                9.96383187               53.50614577                0.75673035               -0.11250353               -0.49753268                1.41008929               -0.06790303                0.07897030                4.13591189
              13.79809412                9.15494847               52.96202201                0.21747129                0.13745565                0.26014190               -0.64631291                0.17091953                1.69284248               -3.66483309
              14.80196826                8.34835800               52.45024123                0.00010000                1.75779710                0.95201711               -2.09727227               -4.13106509               31.79237415              -10.61394713
              15.83325006                7.44954847               52.50796766                0.00010000                3.24537081                0.88194745               -2.77387606               -8.57624100               60.12091116               -8.07018741
              16.86687568                6.53780768               52.56722744                0.00010000                3.54118655                0.51372044               -3.50692716               -8.96968131               60.11564247               -5.50611740
              17.90407379                5.61774380               52.62925837                0.00010000                3.88530625                0.13741479               -4.29670354               -9.02137678               60.34268440               -2.89017842
              18.94458181                4.69496594               52.69704317                0.00010000                4.17255123               -0.07891115               -5.14203341               -8.72802155               60.94727622               -0.08571881
              19.98752481                3.77484960               52.77434183                0.00010000                4.36952032               -0.05284338               -6.05314788               -8.14962307               62.01799554                3.11602281
              21.03197221                2.86184363               52.86524566                0.10993088                3.52446796                0.27905280               -7.06548639               -4.86067718               43.39649734                6.94411205
              22.05801417                2.00955957               52.56890177                0.27510958                2.00958558                1.36374227               -4.21787971               -0.97920946               12.37209403                0.22718852
              23.07216392                1.17805885               52.03346762                0.70455597                1.41497511                2.20112415               -6.00035058                0.05559768                0.60530766               -7.54205614
              13.60363878               10.95938886               53.38385628                0.75008545                0.01149455               -0.39132759                1.08667106               -0.06848653                0.08040558                4.09336359
              14.60375372               10.15825253               52.80090035                0.20891941                0.29891712                0.40178483               -1.14912062                0.12392670                2.16738917               -3.63245139
              15.60961712                9.35848183               52.25965911                0.00010000                2.31299483                1.04693822               -2.57805412               -4.56311516               37.48067106              -10.28329832
              16.65001362                8.45933348               52.38273525                0.00010000                4.09036536                0.95932955               -3.18234440               -9.18315404               70.44703894               -7.30844431
              17.69142443                7.54373703               52.50598637                0.00010000                4.21136273                0.50363242               -3.86037496               -9.39167284               70.30069995               -4.62148848
              18.73424087                6.61986343               52.63120696                0.00010000                4.30304576                0.18714120               -4.60490018               -9.13966700               70.52219502               -2.07306411
              19.77748534                5.69497561               52.76341238                0.00010000                4.30605858                0.08223318               -5.40409433               -8.74638782               71.34781892                0.66943821
              20.82036204                4.77514049               52.90868913                0.00090475                4.24797197                0.11939058               -6.24601254               -8.20900911               72.85089373                3.98677318
              21.86244478                3.86551067               53.07247858                0.11589689                3.29388391                0.45353617               -7.13149829               -4.82518093               49.37478202                8.14953756
              22.88623972                3.02309851               52.74556255                0.28314961                1.88701188                1.29872056               -3.98851488               -0.83594592               12.81558157                0.82926960
              23.90018502                2.19920809               52.17126655                0.70926153                1.39452953                2.02745630               -5.90815663                0.05141334                0.65818383               -6.98876131
              14.40012208               11.95600532               53.26106456                0.74334564                0.13575973               -0.28545024                0.76056010               -0.06991280                0.10004559                4.05820071
              15.40147968               11.16298416               52.63981229                0.20034920                0.47514630                0.54629350               -1.65228691                0.02076907                2.80119370               -3.67144656
              16.40962501               10.36929677               52.07246691                0.00010000                3.14260476                1.03644690               -2.99451269               -5.11055930               43.53209252               -9.61407262
              17.46433177                9.46873506               52.26538416                0.00010000                5.44436320                0.54915340               -3.50009746               -9.43311776               80.96987495               -6.01172671
              18.51851227                8.54788033               52.45268892                0.00010000                5.28550508               -0.01766762               -4.10064366               -8.76051568               80.33493778               -3.45551590
              19.57004188                7.62148663               52.63851658                0.00010000                4.79323616                0.07700732               -4.77916403               -8.03896255               80.42651368               -1.28462225
              20.61437699                6.69661061               52.83256186                0.00010000                4.13838447                0.33853272               -5.50966651               -7.71557028               81.65336012                1.06393574
              21.65280956                5.77723741               53.04611978                0.00543650                3.65667896                0.50370376               -6.25346292               -7.65167770               83.98718496                4.16159665
              22.68751057                4.87091435               53.28769118                0.12210686                2.73941369                0.74786036               -6.95007470               -4.84296440               55.45377639                8.85513880
              23.70759784                4.03553399               52.92619614                0.29110503                1.67312289                1.15998499               -3.63788418               -0.81224668               13.08701363                1.64745799
              24.72097303                3.21860798               52.31304471                0.71396084                1.33751928                1.84581432               -5.68939758                0.03645470                0.72976949               -6.26803850
              15.18828283               12.95367985               53.13835704                0.73656584                0.25948222               -0.17791914                0.43479848               -0.07100932               -0.05559427                3.53207234
              16.19087766               12.16917840               52.47744995                0.19182064                0.66861025                0.68993073               -2.16174570               -0.21490678                3.86939775               -3.29206017
              17.20165504               11.37921077               51.89483406                0.00010000                4.59450242                0.69692769               -3.32113065               -5.69751048               50.42885399               -7.02841621
              18.28276770               10.47031655               52.16421357                0.00010000                8.09037523               -1.31659274               -3.70652141               -7.50119490               91.57934186               -3.58852874
              19.36346254                9.54338368               52.41095050                0.00010000                7.09818200               -0.83452707               -4.21101598               -5.91864487               89.71050096               -1.88649155
              20.42473134                8.62140358               52.65042938                0.00010000                5.19803063               -0.09417558               -4.80454543               -4.89018944               89.54469236               -0.59587373
              21.46742316                7.70174626               52.89913334                0.00010000                3.41466998                0.70815930               -5.45282870               -4.86682239               91.26694278                0.82157636
              22.49302474                6.78521456               53.17525529                0.01035169                1.99328792                1.43643637               -6.09418741               -5.40913145               95.27128630                2.89299276
              23.50728891                5.88046788               53.50216159                0.12842473                1.46382089                1.65090924               -6.57403441               -4.21709421               62.34985840                6.78328560
              24.52230116                5.04629821               53.11359974                0.29908270                1.37386050                0.98584439               -3.16411767               -1.05410384               13.66447690                2.14880300
              25.53476612                4.23612438               52.45993263                0.71861855                1.24649627                1.66536851               -5.35047199               -0.01848809                0.63966295               -4.76687535
              15.96770481               13.95244694               53.00528790                0.86609413                0.39458228               -0.12329143                0.06350694                0.37578124                1.60919075                3.00459808
              16.97165063               13.17678278               52.32336616                0.59323879                1.34159199                0.76043819               -2.63161992               -0.38328358                7.53832820               -2.84315299
              17.99453665               12.38323532               51.75971336                0.47434771                8.92421668                0.40245553               -3.52058380               -7.43081813               58.59421096               -5.05323994
              19.15013496               11.44240320               52.09371185                0.44651587               12.72578485               -2.79133457               -3.78120374               -5.86555105              100.67101501               -1.85067690
              20.24905234               10.53118979               52.38487437                0.43799303                8.18702720               -1.21938944               -4.16966977               -2.58102450               97.56514357               -0.89071344
              21.31387551                9.61960312               52.66591526                0.44519343                5.20886102               -0.18004647               -4.66303907               -2.10638359               97.22723615               -0.16010051
              22.35322956                8.71077379               52.95630508                0.46761034                2.60149050                0.90275302               -5.22452373               -2.10120839               99.16462933                0.64970501
              23.36590532                7.80596614               53.27807897                0.50686496               -0.55722592                2.07515702               -5.78494144               -3.05400551              104.41331699                1.88290308
              24.34208504                6.90393254               53.66845556                0.56635942               -1.75230248                2.34646564               -6.14862830               -4.05615004               70.69583872                4.88199738
              25.33085927                6.05525087               53.29917419                0.65224885               -0.05670539                0.89526645               -2.59737830               -1.74504887               17.64164586                2.28688494
              26.34095094                5.25191535               52.62664883                0.86083384                1.00916701                1.57909744               -4.84625263                0.28492885                2.69449557               -3.52682764
               8.13722068                4.18030241               55.28925196                0.95243280               -0.95403817               -1.05664487                3.58388134               -0.24209326               -2.53313496                2.94879623
               9.12768029                3.29259344               54.94790220                0.73437215               -0.92376051               -0.64670785                2.49989922               -0.22732359               -3.52304407               -1.84613172
              10.11874547                2.40110488               54.58742291                0.56195076               -1.05637299               -0.33781531                1.32400788               -0.51175257               -3.44972563               -0.95011686
              11.10655283                1.49470483               54.24793110                0.48392350               -1.22572331               -0.04971407                0.21763196               -0.55411303               -1.32175557               -0.39163270
              12.09423100                0.56475789               53.92945517                0.44635347               -0.99514688                0.28153573               -0.94017807               -0.46028180                0.64666283               -0.27104934
              13.08664990               -0.38937729               53.62790300                0.44499484               -0.27666727                0.60906947               -2.13775489               -0.27775987                1.74674621               -0.04048302
              14.08869765               -1.35858272               53.32978821                0.47903400                0.68032200                0.92632793               -3.32737034               -0.21389524                1.32190240                0.18226173
              15.10025634               -2.32952571               53.01870405                0.54983513                1.44942734                1.22549510               -4.45853507               -0.25404694               -0.22829635                0.35513388
              16.11768620               -3.29353782               52.68894957                0.66096887                1.88752692                1.51651581               -5.55460912               -0.26431028               -2.07527584                0.43783163
              17.13800687               -4.24861359               52.33995614                0.81892308                2.12680142                1.80146189               -6.66395375               -0.22351023               -2.68660851                1.04827447
              18.16022223               -5.19734929               51.99631131                0.97328006                2.22153541                2.17534166               -7.77846839               -0.38344690               -2.30710443               -2.00265958
               9.02250871                5.16973597               55.14812687                0.84099379               -0.75028878               -1.03759315                3.14993463               -0.09791948                1.13596289                3.80239200
              10.01500583                4.28612636               54.80120698                0.35814081               -0.49682343               -0.53788034                2.05718103               -0.18091447                3.00073913               -3.20026814
              11.01257225                3.39772672               54.49214195                0.04975999                0.20896858                0.03549168                1.20971415               -1.00681214                5.74947301               -6.40536036
              12.01918520                2.49420769               54.20037565                0.00010000                0.95484991               -0.58331859                0.26540153               -1.98486309                7.37212845               -5.20568324
              13.03166924                1.56757325               53.92427632                0.00010000                1.31787026               -0.73090857               -0.68291307               -2.90710764                8.96115967               -3.87915488
              14.04554260                0.61671340               53.66502964                0.00010000                1.24818329               -0.43759169               -1.68149919               -3.44205803                9.92595283               -2.91340851
              15.05663291               -0.34931944               53.40857110                0.00010000                0.98254065                0.06233352               -2.67960360               -3.24252993                9.44327456               -1.82915808
              16.06519342               -1.31727076               53.13892291                0.03872115                0.89770632                0.48843937               -3.62773796               -2.28824281                7.90966686                0.10807194
              17.07458704               -2.27837266               52.85023842                0.20324131                1.12420441                0.94577092               -4.56070548               -0.96883220                6.35420933                4.77661756
              18.08767750               -3.23059897               52.54782120                0.44164922                1.52682115                1.49098243               -5.50483913               -0.36158109                4.16522050                3.11289169
              19.10512346               -4.17559587               52.21390948                0.81775901                1.74459542                2.14545979               -6.51741869               -0.39537172                2.66127574               -3.06043474
               9.90248149                6.15955055               55.02485971                0.77338555               -0.64102425               -0.96557738                2.83111623               -0.09390319                0.33236172                4.50879500
              10.89607125                5.28183584               54.62787148                0.24224180               -0.59767959               -0.32988473                1.43756881               -0.08717935                3.16488402               -4.41025763
              11.89052790                4.40181471               54.28800721                0.00010000                0.04689024                0.63238343                0.47981221               -2.14446134               11.40216097              -13.95565239
              12.89700905                3.48303846               54.05645997                0.00010000                1.15276198               -0.74351738               -0.43675640               -4.60894500               17.83309236              -10.32578518
              13.91358314                2.55013972               53.84661168                0.00010000                1.88461872               -1.35168603               -1.38757380               -5.77819286               19.23336800               -7.77078240
              14.93470143                1.60187087               53.64411427                0.00010000                2.21240396               -1.28097996               -2.33817608               -6.53627794               19.81414414               -5.78794674
              15.95783122                0.64266395               53.44625425                0.00010000                2.44216374               -0.84445962               -3.26481985               -6.32799665               20.30906711               -3.62737903
              16.98354470               -0.31975692               53.25303783                0.00010000                2.69032747               -0.42525924               -4.09299774               -4.93379673               22.44738233               -0.32619053
              18.01163776               -1.27462240               53.09685179                0.08214708                2.22268793               -0.16414024               -3.73119033               -2.74290105               17.02444622                3.90810111
              19.02799846               -2.21879394               52.79524558                0.23805074                1.53354161                0.87076181               -4.17916337               -0.97017437                5.56166075                2.78014977
              20.04230860               -3.15444009               52.40837778                0.68287054                1.43101386                2.62208754               -5.46271322               -0.73608897                1.32449217               -6.30258711
              10.77606008                7.15042442               54.89861789                0.76468328               -0.50620012               -0.85196596                2.47808286               -0.07376959                0.06964532                4.30964215
              11.77099808                6.27952867               54.45720139                0.23031425               -0.37898427               -0.15968108                0.89562980                0.14640987                1.30869957               -4.15784149
              12.76848040                5.41037439               54.04092181                0.00010000                0.38416063                0.79237042               -0.37892015               -2.58287069               16.64535248              -14.27158684
              13.77868129                4.47933734               53.90651844                0.00010000                1.43962892               -0.06461133               -1.16211973               -5.58708222               30.17232483              -10.56771244
              14.79727297                3.54053952               53.76331910                0.00010000                2.18057609               -0.62377632               -2.06187830               -6.24494364               29.84015500               -7.96226755
              15.82229281                2.59109380               53.62422227                0.00010000                2.72138989               -0.81633177               -2.99674055               -6.82612295               30.25044499               -5.60012142
              16.85170077                1.63379136               53.49024230                0.00010000                3.07555092               -0.72404912               -3.92346120               -6.83599260               30.93698049               -3.17121798
              17.88380383                0.67422406               53.36493567                0.00010000                3.35326291               -0.49612655               -4.73784947               -6.19249745               31.43165519               -0.61997145
              18.91876603               -0.28165547               53.24016605                0.08473987                3.21439357               -0.43442085               -5.76951772               -4.11757469               25.45165013                0.51975073
              19.94809170               -1.21318373               52.99543371                0.23743546                2.14639768                0.89398322               -4.48527700               -1.14039789                9.91482910               -0.40640737
              20.96169398               -2.12315412               52.55934288                0.68082595                1.36022794                3.07025766               -5.90492657               -0.03836694                0.36781541               -8.76565540
              11.64279759                8.14251123               54.77197209                0.75817734               -0.37481245               -0.73514397                2.13929946               -0.07151628                0.07792056                4.30180822
              12.63904947                7.27864221               54.28906396                0.22190943               -0.18678918               -0.01651775                0.36182272                0.20362422                1.23877573               -3.98519880
              13.63906181                6.41766212               53.82963050                0.00010000                0.80264025                0.75930469               -1.00410485               -3.17276377               21.72858161              -11.99843689
              14.65510227                5.48174623               53.75664799                0.00010000                1.89329975                0.41964136               -1.81013947               -6.73125767               40.75109038              -10.07355759
              15.67692780                4.53766419               53.68103258                0.00010000                2.49124268               -0.02626394               -2.69273657               -7.16638765               40.51651228               -7.61158663
              16.70492713                3.58554424               53.60636465                0.00010000                3.05266523               -0.30924038               -3.63332793               -7.52246182               40.68268380               -5.19117912
              17.73798111                2.62818296               53.53623207                0.00010000                3.51072278               -0.36657902               -4.60512059               -7.47540987               41.12253627               -2.73482628
              18.77514158                1.67032055               53.47155848                0.00010000                3.93564746               -0.23115400               -5.64693346               -6.87729167               41.64437444               -0.26030495
              19.81669406                0.71668918               53.41241639                0.09030802                3.57737837                0.05614725               -6.84991544               -4.40765307               32.88415071                2.86059468
              20.84668915               -0.20091427               53.17328423                0.24488138                2.23939864                1.41585119               -4.84156377               -1.31029965               12.22032711               -1.28900339
              21.86148203               -1.09303494               52.69878745                0.68522456                1.47928808                2.90668278               -6.41425942                0.06766694                0.56959870               -9.18898547
              12.50236779                9.13572154               54.64608887                0.75169806               -0.24481138               -0.62416965                1.80500557               -0.07096965                0.07913260                4.33482819
              13.49991968                8.27919831               54.12187748                0.21354828               -0.02233444                0.12823745               -0.16556505                0.20277234                1.56821531               -3.89986068
              14.50192110                7.42556049               53.62760947                0.00010000                1.20671956                0.85585582               -1.56662579               -3.66752587               27.15293895              -11.32791131
              15.52405407                6.48773017               53.61517458                0.00010000                2.41130577                0.74152167               -2.36773839               -7.73264248               51.04053943               -9.26249681
              16.55014722                5.54001425               53.60298903                0.00010000                2.86353676                0.41890995               -3.25098306               -8.12569566               50.93378377               -6.95618290
              17.58132480                4.58490899               53.59249420                0.00010000                3.36345238                0.11944037               -4.20736749               -8.30894557               51.05838928               -4.51861278
              18.61741626                3.62645978               53.58616371                0.00010000                3.82134907               -0.01043090               -5.23677017               -8.10792764               51.47094660               -1.96367471
              19.65775178                2.66960098               53.58636243                0.00010000                4.22157614                0.08081504               -6.36693679               -7.44882903               52.14779974                0.89396358
              20.70184779                1.71946748               53.59499348                0.09584432                3.69290213                0.42976895               -7.68230165               -4.65395674               39.77685724                4.35317723
              21.73160983                0.81513329               53.34797083                0.25246236                2.27204305                1.66661805               -5.00464953               -1.20559821               13.84547347               -1.01275312
              22.74728865               -0.06502046               52.83404208                0.68973485                1.56788216                2.70804692               -6.74232350                0.07423723                0.68339523               -9.01195362
              13.35442465               10.13002784               54.52055277                0.74533467               -0.11586803               -0.51534370                1.47241639               -0.07105617                0.08181919                4.33044180
              14.35326597                9.28120696               53.95534552                0.20504835                0.13773945                0.27440925               -0.68944541                0.17738152                2.03552155               -3.84138508
              15.35717944                8.43477924               53.42928068                0.00010000                1.63648483                0.98505787               -2.07320520               -4.09537513               32.82000084              -10.96388587
              16.38599566                7.49657667               53.47980570                0.00010000                3.00278152                0.98348395               -2.84553886               -8.53088703               61.42048776               -8.55036367
              17.41723507                6.54604239               53.53110131                0.00010000                3.31535073                0.69315139               -3.71583631               -8.89969786               61.30529783               -6.12139769
              18.45230268                5.58793304               53.58442391                0.00010000                3.69477535                0.39905676               -4.67893901               -8.91217035               61.43614737               -3.64205374
              19.49113057                4.62797435               53.64275906                0.00010000                4.04273151                0.26127956               -5.73313342               -8.54721297               61.94656063               -0.96668985
              20.53315731                3.67193685               53.70969244                0.00010000                4.34760163                0.34031985               -6.90000094               -7.79772228               62.89289099                2.13323344
              21.57808261                2.72528456               53.78878521                0.10158465                3.69539081                0.66720857               -8.24640478               -4.67460935               46.31739976                5.92711282
              22.60706513                1.83241809               53.52331603                0.26006104                2.25958390                1.70873845               -4.98574312               -1.03153773               14.95617174               -0.41769207
              23.62327429                0.96112600               52.96951559                0.69421828                1.62091599                2.52143019               -6.87694674                0.07694142                0.77050371               -8.47975516
              14.19858842               11.12541466               54.39497831                0.73888515                0.01274918               -0.40733567                1.13897479               -0.07146502                0.08372076                4.28444068
              15.19871591               10.28468650               53.78910027                0.19693513                0.30277388                0.42238551               -1.21188961                0.12246842                2.62414107               -3.80774665
              16.20464390                9.44526164               53.23400542                0.00010000                2.17286316                1.07491436               -2.52455021               -4.51417700               38.74782872              -10.57596870
              17.24217317                8.50739985               53.35056063                0.00010000                3.80764930                1.05844258               -3.23256821               -9.09012360               71.97167768               -7.69689657
              18.28079688                7.55387727               53.46630278                0.00010000                3.94881324                0.69761049               -4.07011013               -9.25602659               71.68485628               -5.11551933
              19.32114944                6.59289013               53.58313100                0.00010000                4.08356602                0.48057822               -5.01734568               -8.95395324               71.78924144               -2.67131167
              20.36246820                5.63168537               53.70615541                0.00010000                4.16688443                0.46929275               -6.06634851               -8.48382797               72.51513205               -0.01821778
              21.40448713                4.67640737               53.84149250                0.00010000                4.27030786                0.55964387               -7.22532358               -7.81132075               73.91417120                3.25294377
              22.44787436                3.73281165               53.99430276                0.10735641                3.53252512                0.83601868               -8.53138573               -4.62460936               52.65614715                7.47058138
              23.47513763                2.84930806               53.70208647                0.26774782                2.17686446                1.62076838               -4.79876054               -0.89355014               15.66365141                0.38774134
              24.49141165                1.98540814               53.10803990                0.69880742                1.62740194                2.33188097               -6.83233806                0.06927102                0.83370783               -7.70680221
              15.03445168               12.12188113               54.26887461                0.73243304                0.14166796               -0.29926017                0.80286770               -0.07266206                0.10429461                4.24701083
              16.03586836               11.28965467               53.62288599                0.18866379                0.48654351                0.57299736               -1.73487179               -0.00149259                3.40890025               -3.84938823
              17.04418255               10.45627752               53.04286982                0.00010000                2.98546024                1.03438168               -2.88746889               -5.05430217               45.08523288               -9.82825900
              18.09557756                9.51774552               53.23016685                0.00010000                5.12208538                0.63684753               -3.51630597               -9.27375909               82.73936627               -6.29462339
              19.14662426                8.55999460               53.41065109                0.00010000                4.99189758                0.18994847               -4.29626981               -8.57620826               81.93160465               -3.81084897
              20.19541551                7.59754461               53.58863409                0.00010000                4.56562580                0.37595108               -5.20195597               -7.80309542               81.88191812               -1.70834558
              21.23793677                6.63736020               53.77402650                0.00010000                4.01945537                0.72913988               -6.21701931               -7.39276896               83.00542158                0.58617460
              22.27580462                5.68312972               53.97838458                0.00098067                3.73764800                0.98046381               -7.33229713               -7.22107867               85.27731981                3.67555756
              23.31268973                4.74200493               54.21050326                0.11329912                3.03965041                1.14156926               -8.54316051               -4.66169699               59.05400923                8.49536032
              24.33659763                3.86483345               53.88615252                0.27545431                1.98849068                1.45429565               -4.46045851               -0.89221257               16.12676653                1.39906669
              25.35245955                3.00776362               53.25191747                0.70331310                1.58619162                2.13368397               -6.62936478                0.04900950                0.91049309               -6.78434114
              15.86158808               13.11942946               54.14285822                0.72587542                0.27015797               -0.18907605                0.46661913               -0.07388645               -0.05951442                3.69677982
              16.86428966               12.29614645               53.45532928                0.18057395                0.69394635                0.72275877               -2.26483286               -0.28509363                4.67305765               -3.45217515
              17.87546701               11.46594928               52.86223564                0.00010000                4.43456272                0.59981779               -3.14913469               -5.54659033               52.33032053               -7.14799434
              18.95298092               10.52013680               53.12711279                0.00010000                7.70033091               -1.16798195               -3.68033398               -7.31925970               93.61971701               -3.75103664
              20.02947363                9.55767624               53.36793230                0.00010000                6.73705059               -0.61290595               -4.37777826               -5.75613548               91.53452659               -2.07722937
              21.08772193                8.60040915               53.60035592                0.00010000                4.97770403                0.19028966               -5.21185104               -4.71155862               91.19889464               -0.82156698
              22.12902771                7.64626817               53.84113091                0.00010000                3.38494479                1.05668456               -6.16650573               -4.58803642               92.80530281                0.57031077
              23.15542082                6.69601665               54.10890367                0.00565096                2.19544906                1.84696383               -7.21929680               -5.04487870               96.79333319                2.64831511
              24.17293669                5.75564303               54.42816628                0.11948194                1.80569329                2.12230619               -8.30577794               -3.99473128               66.23457176                6.65258881
              25.19153469                4.87839397               54.07832136                0.28318825                1.67974093                1.25199966               -3.97517323               -1.19176398               16.84733428                2.07274263
              26.20653151                4.02808182               53.40222840                0.70777821                1.49968181                1.94181234               -6.27789023               -0.01527120                0.81760954               -5.07009552
              16.67953998               14.11809960               54.00600982                0.86080274                0.41066912               -0.13298566                0.08167849                0.39621399                1.68246188                3.14512141
              17.68364667               13.30410985               53.29645330                0.58765106                1.48602055                0.79634020               -2.75377226               -0.55558558                8.62064359               -2.98153611
              18.70926039               12.46827388               52.72533458                0.47314799                8.69093666                0.23246014               -3.29621120               -7.10686052               60.92505452               -5.15345556
              19.85746540               11.49438588               53.05604024                0.44638355               12.09844031               -2.57509207               -3.71650451               -5.57842132              102.98353255               -1.92778823
              20.95122920               10.54773648               53.34247440                0.43812994                7.75635053               -0.99397632               -4.29230441               -2.47621711               99.62992771               -0.97969813
              22.01259241                9.60135040               53.61748824                0.44496364                4.96696753                0.09412506               -5.02101942               -1.97508087               99.08829714               -0.26334558
              23.05056855                8.65849389               53.90082141                0.46657736                2.64698867                1.22257210               -5.88742251               -1.90998628              100.87506228                0.53641527
              24.06553219                7.72006900               54.21500968                0.50445442               -0.00753822                2.40523518               -6.87105149               -2.69100561              106.08994109                1.78365313
              25.05041778                6.78445106               54.59865917                0.56176987               -1.26043121                2.88080229               -7.88911422               -3.76166841               74.78031471                4.84008593
              26.04032356                5.88987345               54.26967441                0.64417255                0.11803235                1.14794744               -3.38165120               -2.01367217               21.00101057                2.31204625
              27.05277843                5.04659987               53.57411222                0.85533931                1.24548661                1.85180470               -5.74472456                0.29733397                2.93799171               -3.68847221
               8.45815722                4.35363839               56.32577047                0.94396024               -0.98780482               -1.09624399                3.72148692               -0.25389755               -2.63656494                3.06284211
               9.44827917                3.42254192               55.97332966                0.72365543               -0.95058341               -0.66905266                2.58665667               -0.23744551               -3.67451335               -1.94866500
              10.43914555                2.48758871               55.60081299                0.55759004               -1.05222660               -0.35053396                1.35445388               -0.49922300               -3.61369787               -0.92343303
              11.42723464                1.53804220               55.24999070                0.48249523               -1.17544387               -0.04600591                0.19394312               -0.53113147               -1.47648218               -0.40462172
              12.41563667                0.56592206               54.91966164                0.44611422               -0.91714178                0.29758155               -1.01915902               -0.43911717                0.44670214               -0.27539913
              13.40889180               -0.42920549               54.60586499                0.44475275               -0.20729236                0.63872258               -2.27182467               -0.26817399                1.53387722               -0.04421141
              14.41149083               -1.43878714               54.29558477                0.47754976                0.72565294                0.97011264               -3.51639531               -0.20479294                1.14839373                0.17992395
              15.42340486               -2.45032435               53.97291311                0.54583117                1.49262836                1.28397842               -4.70358956               -0.23968049               -0.34863883                0.35760025
              16.44134339               -3.45542114               53.63191346                0.65289668                1.95562067                1.58980340               -5.85455156               -0.25246897               -2.17843549                0.43561569
              17.46251727               -4.45179027               53.27157532                0.80448368                2.22661859                1.88934495               -7.01934881               -0.22281860               -2.79293926                1.04635538
              18.48587576               -5.44156942               52.91655382                0.96356164                2.33584893                2.27528523               -8.18409468               -0.41385433               -2.41096608               -2.07060635
               9.38671472                5.34267595               56.18022415                0.82618838               -0.77851625               -1.07666199                3.27047112               -0.10409429                1.23142562                3.97461778
              10.37892956                4.41585139               55.82212580                0.34020055               -0.51557698               -0.55465395                2.12754368               -0.18986920                3.22145638               -3.39432877
              11.37640318                3.48408337               55.50439626                0.04332611                0.19135461                0.04990581                1.24171345               -1.01274721                6.04616332               -6.69248937
              12.38275665                2.53758214               55.20298116                0.00010000                0.92330821               -0.58009141                0.25676255               -1.97605539                7.61722265               -5.60725716
              13.39486934                1.56889787               54.91720249                0.00010000                1.29040043               -0.71489384               -0.73085924               -2.85555547                9.18110933               -4.38387975
              14.40856466                0.57718173               54.64780021                0.00010000                1.25664899               -0.43209923               -1.76445981               -3.35143525               10.12242606               -3.50349571
              15.42000232               -0.42908601               54.38119662                0.00010000                1.03801998                0.05939528               -2.79619517               -3.14424921                9.66051817               -2.48930658
              16.42932506               -1.43748457               54.10189314                0.03285599                0.97746691                0.51373473               -3.77898952               -2.21764290                8.15469179               -0.58391051
              17.43955166               -2.43952311               53.80370202                0.19117015                1.20190861                1.00087601               -4.74552214               -0.96380327                6.60018326                4.65186348
              18.45336323               -3.43289682               53.49167979                0.41995119                1.59823550                1.56255365               -5.72503898               -0.36265415                4.37091086                3.19302331
              19.47151637               -4.41881657               53.14744262                0.80284717                1.81531424                2.24058730               -6.77999804               -0.43069665                2.83183282               -3.24079595
              10.30972446                6.33210515               56.05371583                0.76067374               -0.66500895               -1.00059803                2.94178048               -0.09660472                0.32514225                4.72087788
              11.30307437                5.41144884               55.64245797                0.22835040               -0.62823006               -0.33927321                1.48030842               -0.07976724                3.38370088               -4.65536230
              12.29715986                4.48858682               55.29285463                0.00010000               -0.00876716                0.67112689                0.49071529               -2.16096578               11.85725820              -14.61283479
              13.30289903                3.52644037               55.05184507                0.00010000                1.08830534               -0.71370296               -0.48283468               -4.63487900               18.27890106              -11.11383132
              14.31892597                2.55162418               54.83225651                0.00010000                1.84739751               -1.32176371               -1.48532620               -5.72850748               19.65636372               -8.75544699
              15.33984698                1.56215252               54.61995782                0.00010000                2.21730870               -1.26925114               -2.49894556               -6.43539106               20.24343339               -6.95479914
              16.36327214                0.56240077               54.41253957                0.00010000                2.48210604               -0.84326089               -3.48746355               -6.18689612               20.80204910               -4.96492045
              17.38948910               -0.44004966               54.21086162                0.00010000                2.71037209               -0.38076014               -4.35564103               -4.80935291               23.59346945               -1.79233822
              18.41747958               -1.43540362               54.05833670                0.07440109                2.25342788                0.02692835               -4.00819057               -2.70843572               18.39606728                2.20543976
              19.43455766               -2.42053920               53.75293753                0.22383843                1.58108736                1.06554444               -4.27814253               -0.97179304                6.09146068                2.03024733
              20.44910133               -3.39675768               53.35289728                0.67301066                1.45436725                2.82834224               -5.62770201               -0.74509692                1.37950353               -7.43535220
              11.22609526                7.32266399               55.92388229                0.75259736               -0.52427167               -0.88113067                2.57630461               -0.07681014                0.07202213                4.50891979
              12.22085254                6.40906593               55.46625430                0.21710433               -0.39514618               -0.16435779                0.91578869                0.16367239                1.48028280               -4.35835934
              13.21819234                5.49750591               55.03715684                0.00010000                0.30845867                0.82301714               -0.36063759               -2.57507997               17.21398341              -14.87024015
              14.22702172                4.52330808               54.89460222                0.00010000                1.31973521               -0.00021221               -1.21784987               -5.61473165               30.89430553              -11.31994395
              15.24458704                3.54246260               54.74200929                0.00010000                2.10292655               -0.55529571               -2.20278978               -6.22671182               30.47050214               -8.89728023
              16.26908025                2.55179671               54.59313044                0.00010000                2.69397707               -0.73732531               -3.23121301               -6.77319290               30.86065550               -6.73935789
              17.29846658                1.55404877               54.44943811                0.00010000                3.09310711               -0.62263892               -4.25263684               -6.74461916               31.61229669               -4.53447445
              18.33094239                0.55490023               54.31560776                0.00010000                3.37029547               -0.33322606               -5.14751159               -6.01567128               32.07341787               -2.28912356
              19.36587249               -0.43898454               54.18028573                0.07711307                3.21695191               -0.06147779               -6.20642432               -4.03009845               27.18563073               -2.15682550
              20.39528143               -1.41158593               53.94863344                0.22353005                2.15894510                1.28047160               -4.92351585               -1.18030016               11.41693875               -1.98802981
              21.40905139               -2.36224973               53.49800901                0.67119614                1.37699654                3.43682131               -6.40384305               -0.00737476                0.48411148              -10.68838593
              12.13538439                8.31448254               55.79379122                0.74634402               -0.38784873               -0.76042999                2.22556732               -0.07507509                0.08098375                4.50804767
              13.13150591                7.40816168               55.29267079                0.20893083               -0.19841422               -0.01475061                0.35969767                0.22086269                1.47216796               -4.17781102
              14.13141611                6.50504717               54.81963950                0.00010000                0.70708993                0.78635859               -0.97947340               -3.16589000               22.44080095              -12.44324845
              15.14564771                5.52643612               54.73819912                0.00010000                1.72434939                0.49894001               -1.87254246               -6.75656374               41.65135410              -10.73638043
              16.16590310                4.54051826               54.65324903                0.00010000                2.35746201                0.09038213               -2.86614196               -7.16238494               41.32429232               -8.47377407
              17.19279695                3.54740602               54.56858270                0.00010000                2.96865698               -0.15565437               -3.93439806               -7.49153727               41.43492398               -6.26762711
              18.22527624                2.54994799               54.48808864                0.00010000                3.47060199               -0.16477125               -5.04196982               -7.39422554               41.82766727               -4.05957393
              19.26220899                1.55328582               54.41233810                0.00010000                3.90437700                0.05212216               -6.21506976               -6.65825666               42.24839510               -1.94241103
              20.30336378                0.56336682               54.34055312                0.08245774                3.60039280                0.48044407               -7.52640981               -4.28955184               35.05743924                0.81873085
              21.33421684               -0.39492977               54.12179975                0.23061687                2.34588220                1.85613677               -5.54070319               -1.33847498               14.19219315               -2.66747593
              22.35028142               -1.32802125               53.63116322                0.67544689                1.60645798                3.32340588               -7.19187524                0.11813347                0.74404073              -10.92191748
              13.03723548                9.30745539               55.66451092                0.74011682               -0.25303059               -0.64656338                1.88074982               -0.07416647                0.08220245                4.54205695
              14.03470517                8.40877091               55.12010332                0.20085772               -0.03176906                0.13681442               -0.18929231                0.21742050                1.89185513               -4.08694267
              15.03660009                7.51323308               54.61205645                0.00010000                1.08570871                0.88185842               -1.52311129               -3.64960229               28.05211402              -11.71071687
              16.05641934                6.53328688               54.59114448                0.00010000                2.18846765                0.83595083               -2.42651235               -7.73856764               52.12076160               -9.83112649
              17.08036945                5.54427024               54.56950394                0.00010000                2.67002157                0.57738565               -3.44606126               -8.10714586               51.90012308               -7.72060887
              18.10981978                4.54868362               54.54868847                0.00010000                3.21664083                0.34299559               -4.56508492               -8.25874285               51.93306659               -5.49083649
              19.14470226                3.55075335               54.53120044                0.00010000                3.72693235                0.28462287               -5.77539485               -7.98863477               52.25411324               -3.16688365
              20.18435842                2.55594267               54.51911573                0.00010000                4.17973892                0.45491857               -7.10091750               -7.14907535               52.78601187               -0.55956353
              21.22829704                1.57062434               54.51349361                0.08783978                3.77707904                0.88548912               -8.62242782               -4.45365182               42.39909929                2.62916942
              22.25990000                0.62553680               54.29411569                0.23790753                2.46499945                2.10099330               -5.87120922               -1.21077841               16.27328897               -2.08491278
              23.27759703               -0.29578161               53.76232492                0.67972363                1.76970286                3.12435901               -7.70162521                0.11283133                0.88326166              -10.42366889
              13.93127003               10.30155127               55.53559409                0.73394514               -0.11933928               -0.53497798                1.53768263               -0.07364078                0.08545384                4.53670578
              14.93007663                9.41089797               54.94823310                0.19285648                0.13190377                0.28931064               -0.73390116                0.18186608                2.47715674               -4.02547243
              15.93390810                8.52268434               54.40877712                0.00010000                1.48812796                1.00701181               -2.00174617               -4.06147977               33.94505358              -11.28825624
              16.95983919                7.54315514               54.45105688                0.00010000                2.72276671                1.08737630               -2.88550087               -8.49439431               62.69524357               -9.02430554
              17.98836343                6.55206598               54.49291071                0.00010000                3.06498945                0.88033124               -3.91900770               -8.83537350               62.43492390               -6.76965312
              19.02113898                5.55426593               54.53567959                0.00010000                3.49405277                0.67716997               -5.07979318               -8.80361165               62.44465414               -4.47381830
              20.05824449                4.55564045               54.58238050                0.00010000                3.91087512                0.62952325               -6.36169581               -8.35787595               62.83641050               -1.98657190
              21.09935648                3.56238419               54.63634181                0.00010000                4.32260607                0.77822737               -7.79088425               -7.42120716               63.61380912                0.92736913
              22.14469661                2.58107661               54.70031756                0.09332402                3.85253706                1.12899546               -9.44975034               -4.43086905               49.38856880                4.55989104
              23.17640722                1.64709010               54.46918691                0.24520832                2.52391291                2.12400228               -5.95265127               -1.03675383               17.80330812               -1.21095406
              24.19517487                0.73446593               53.89592869                0.68406485                1.87676458                2.92258905               -7.94938664                0.10534642                0.98704318               -9.58450666
              14.81706927               11.29675583               55.40663577                0.72773942                0.01401623               -0.42428246                1.19416133               -0.07411201                0.08767429                4.48804806
              15.81720943               10.41455713               54.77666256                0.18512751                0.30220316                0.44347100               -1.27709419                0.11016559                3.21285841               -3.99111889
              16.82311333                9.53337331               54.20916811                0.00010000                1.99701936                1.09085185               -2.39656345               -4.46910099               40.14248373              -10.82268362
              17.85714982                8.55503440               54.31808388                0.00010000                3.47189296                1.15676472               -3.23864882               -8.99989034               73.46325936               -8.06790534
              18.89255119                7.56187686               54.42458417                0.00010000                3.65116277                0.89839232               -4.26572212               -9.12468435               72.99238720               -5.63193542
              19.93017307                6.56222702               54.53086005                0.00010000                3.84376453                0.79144338               -5.44406003               -8.76836038               72.94884786               -3.33602814
              20.96942648                5.56334381               54.64208541                0.00010000                4.01625245                0.88590717               -6.76607370               -8.21146789               73.53513631               -0.82685703
              22.01049812                4.57150722               54.76418266                0.00010000                4.27736381                1.04765958               -8.25557801               -7.38084220               74.76413758                2.31897366
              23.05497376                3.59320425               54.90185087                0.09889244                3.76387417                1.29407140               -9.97958134               -4.36820837               56.14094584                6.46863832
              24.08577560                2.66801685               54.64958734                0.25248897                2.49892730                2.00951615               -5.81609322               -0.91111709               18.86903218               -0.15168558
              25.10495230                1.76267017               54.03461979                0.68843203                1.91766976                2.71333683               -7.96459461                0.08923867                1.06104793               -8.53417350
              15.69418520               12.29306562               55.27712191                0.72166979                0.14772634               -0.31378010                0.84777829               -0.07576533                0.10849297                4.44789212
              16.69566246               11.41976739               54.60511485                0.17714655                0.49318018                0.60052310               -1.82086755               -0.04061440                4.19506775               -4.03575501
              17.70404880               10.54450137               54.01471753                0.00010000                2.78376856                1.02064062               -2.68820887               -5.00561738               46.80477433               -9.97711885
              18.75133784                9.56629043               54.19505804                0.00010000                4.73141624                0.71940152               -3.47292526               -9.10759929               84.46430892               -6.55557978
              19.79867713                8.57003382               54.36676352                0.00010000                4.64834948                0.40694570               -4.46839174               -8.39184394               83.43904188               -4.17985751
              20.84430483                7.57009480               54.53447746                0.00010000                4.30289020                0.69455339               -5.63325412               -7.56688395               83.21131301               -2.18256559
              21.88473493                6.57335859               54.70822148                0.00010000                3.87871873                1.15068766               -6.96039862               -7.06012168               84.17534964                0.01161775
              22.92187920                5.58333739               54.89947383                0.00010000                3.80439422                1.50242751               -8.47253552               -6.75213185               86.28322873                3.02929230
              23.96082282                4.60695803               55.11682797                0.10455009                3.34198811                1.60797508              -10.21827484               -4.42340303               62.91775981                7.85013799
              24.98871896                3.68728042               54.83698697                0.25991037                2.34150890                1.81071641               -5.48763683               -0.94076203               19.63233297                1.09472955
              26.00765300                2.78873267               54.18045741                0.69272162                1.89340335                2.49287714               -7.77738323                0.06282182                1.14264397               -7.36029780
              16.56215043               13.29048023               55.14768942                0.71535843                0.28109644               -0.20097282                0.50092860               -0.07716981               -0.06382464                3.87121435
              17.56496139               12.42656759               54.43215329                0.16940526                0.71637553                0.75683171               -2.37217726               -0.38089130                5.70886908               -3.61991396
              18.57647794               11.55378613               53.83185137                0.00010000                4.22519935                0.47334800               -2.85747922               -5.38715811               54.44658229               -7.20826407
              19.64946538               10.56942243               54.09060689                0.00010000                7.22160050               -1.01489412               -3.58117582               -7.12211984               95.60587509               -3.89843222
              20.72090995                9.57001578               54.32339493                0.00010000                6.30226228               -0.37611000               -4.51257641               -5.58892902               93.26738948               -2.27474294
              21.77551063                8.57611809               54.54619236                0.00010000                4.70357538                0.49883833               -5.62126689               -4.53342990               92.72060499               -1.07604896
              22.81498146                7.58635757               54.77580323                0.00010000                3.31727079                1.43812557               -6.91300982               -4.30439398               94.13679664                0.26140818
              23.84185604                6.60155577               55.03086935                0.00102025                2.37906007                2.30449041               -8.41201856               -4.65033140               97.95818996                2.30152598
              24.86256266                5.62536375               55.33604603                0.11041970                2.16648457                2.63952262              -10.16402428               -3.75604026               70.43330903                6.34520740
              25.88518573                4.70423118               55.03409627                0.26725608                2.03707974                1.57526468               -4.98261830               -1.30642882               20.58877757                1.97264208
              26.90330425                3.81252771               54.33437483                0.69701940                1.81185200                2.28227966               -7.40825953               -0.01123871                1.04820133               -5.39720557
              17.42046709               14.28904617               55.00692147                0.85570381                0.42716517               -0.14340645                0.10176923                0.41745201                1.75960457                3.29356178
              18.42473874               13.43490402               54.26829072                0.58221819                1.64918527                0.83364358               -2.88082586               -0.77615665                9.98262781               -3.12698346
              19.45345080               12.55396833               53.69378914                0.47195701                8.39635219                0.01822060               -2.93626084               -6.74828779               63.52023346               -5.21075486
              20.59266579               11.54599255               54.01938176                0.44619251               11.33760476               -2.34298818               -3.57115509               -5.25279469              105.25018713               -2.00114585
              21.68020289               10.56251162               54.29902828                0.43820084                7.23143262               -0.75041541               -4.37772714               -2.36675510              101.62445586               -1.07579801
              22.73729444                9.58007156               54.56549487                0.44472348                4.65032395                0.39534727               -5.37550424               -1.84114461              100.83585164               -0.38589376
              23.77320937                8.60212110               54.83855663                0.46564305                2.62859720                1.57635375               -6.57699191               -1.70942692              102.38515547                0.38623006
              24.78986638                7.62942719               55.14065794                0.50213219                0.49086179                2.78714221               -8.01866563               -2.31759655              107.37850574                1.61541505
              25.78302661                6.65974849               55.51067328                0.55719105               -0.72199800                3.43847337               -9.76680306               -3.48567890               79.14349287                4.68146697
              26.77542642                5.71878572               55.23154117                0.63607949                0.39042680                1.45545401               -4.35323919               -2.24444231               24.93955369                2.33355019
              27.79083514                4.83437826               54.51175434                0.84988704                1.54087199                2.18505437               -6.84004393                0.31234333                3.23615840               -3.85497541
               8.78937100                4.53265189               57.36368169                0.93560459               -1.02234928               -1.13689236                3.86139502               -0.26610867               -2.74677589                3.18195482
               9.77914750                3.55602787               56.99963534                0.71310132               -0.97802647               -0.69163824                2.67502420               -0.24757496               -3.83522895               -2.05645684
              10.76981047                2.57546969               56.61451199                0.55310122               -1.04864805               -0.36343913                1.38537626               -0.48685100               -3.78883096               -0.89583609
              11.75817454                1.58063148               56.25180997                0.48096682               -1.12598573               -0.04232969                0.16990961               -0.51018772               -1.64362817               -0.41704824
              12.74729075                0.56416820               55.90907199                0.44588617               -0.83851144                0.31325818               -1.09961202               -0.42000819                0.23160181               -0.28013471
              13.74140431               -0.47413195               55.58246651                0.44454874               -0.13366717                0.66826099               -2.40885193               -0.25953881                1.30384152               -0.04767680
              14.74461741               -1.52620795               55.25946030                0.47610982                0.77752765                1.01475680               -3.71008384               -0.19679724                0.95632794                0.17758186
              15.75695487               -2.58033376               54.92463226                0.54184507                1.54189333                1.34362849               -4.95447165               -0.22703643               -0.48591573                0.36015619
              16.77545528               -3.62840264               54.57185854                0.64470535                2.02764300                1.66440038               -6.16261043               -0.24320617               -2.30014561                0.43371043
              17.79750773               -4.66789542               54.19956916                0.79033843                2.32953176                1.97947143               -7.38583974               -0.22207893               -2.91887764                1.04719890
              18.82204591               -5.70053901               53.83262941                0.95401006                2.45381842                2.37837595               -8.60248034               -0.44550386               -2.53260052               -2.14749989
               9.76333394                5.52128297               57.21353629                0.81147065               -0.80710823               -1.11709608                3.39286137               -0.11069570                1.33314467                4.15633282
              10.75526285                4.54911148               56.84375786                0.32242463               -0.53468921               -0.57138903                2.19936825               -0.19943538                3.45416014               -3.59939063
              11.75264015                3.57183530               56.51697622                0.03715068                0.17302799                0.06638680                1.27495433               -1.02139044                6.36003823               -6.99009670
              12.75872341                2.58020818               56.20551090                0.00010000                0.89161175               -0.57453512                0.24989873               -1.97619366                7.88128279               -6.03384046
              13.77047239                1.56730078               55.90965914                0.00010000                1.26367934               -0.69721077               -0.77712162               -2.81753085                9.42293174               -4.93132151
              14.78399700                0.53255066               55.62974044                0.00010000                1.26389777               -0.42116950               -1.84762479               -3.27392216               10.34273483               -4.16163241
              15.79575034               -0.51606038               55.35264719                0.00010000                1.08924239                0.06659960               -2.91393451               -3.05485710                9.90282888               -3.24392247
              16.80578185               -1.56689748               55.06334312                0.02693065                1.05268513                0.55077240               -3.93178325               -2.15180789                8.42556028               -1.38607094
              17.81680404               -2.61175863               54.75532797                0.17923869                1.27866388                1.06526613               -4.93244482               -0.95876537                6.86990240                4.40343487
              18.83135512               -3.64810070               54.43332042                0.39836442                1.67152096                1.63763897               -5.94795411               -0.36186299                4.59372335                3.26833144
              19.85023446               -4.67675525               54.07830952                0.78812639                1.88793381                2.34127423               -7.04604409               -0.46879233                3.01586013               -3.45249263
              10.73150005                6.51030997               57.08369532                0.74822250               -0.68935896               -1.03777741                3.05509499               -0.09986010                0.31666097                4.94480046
              11.72460646                5.54460008               56.65747765                0.21462320               -0.66070451               -0.34814143                1.52401641               -0.07231015                3.62027595               -4.91409880
              12.71828596                4.57679743               56.29782151                0.00010000               -0.07106352                0.71747085                0.50725964               -2.18436543               12.33896159              -15.27393394
              13.72318519                3.56914078               56.04680328                0.00010000                1.01558494               -0.68118863               -0.52219356               -4.67909500               18.73442338              -11.94043213
              14.73859766                2.55022398               55.81690515                0.00010000                1.80509206               -1.28496921               -1.58676491               -5.70068525               20.08170990               -9.82180259
              15.75928703                1.51744466               55.59413536                0.00010000                2.21853711               -1.24344488               -2.67229192               -6.35099203               20.66951355               -8.25501745
              16.78296840                0.47512405               55.37650498                0.00010000                2.51649653               -0.81934095               -3.73137502               -6.05219660               21.30221992               -6.49037334
              17.80961696               -0.56931831               55.16592500                0.00010000                2.72573985               -0.30687147               -4.65068242               -4.67893157               24.76105199               -3.49341102
              18.83748320               -1.60709731               55.01668798                0.06681249                2.28250617                0.23751167               -4.36808421               -2.65877038               19.92866834                0.25865166
              19.85526709               -2.63514264               54.70968273                0.20976589                1.62479783                1.31470755               -4.37751279               -0.96320705                6.77597712                1.00993997
              20.86997915               -3.65371352               54.29582374                0.66324062                1.47120691                3.07837402               -5.79354880               -0.73755788                1.44929778               -8.86360345
              11.69275650                7.50052742               56.95014399                0.74041283               -0.54273124               -0.91332047                2.67742487               -0.07997304                0.07467744                4.71861795
              12.68732919                6.54214865               56.47551716                0.20380896               -0.41721752               -0.16815528                0.93721438                0.18476950                1.69688934               -4.56964586
              13.68441215                5.58618472               56.03370906                0.00010000                0.21928843                0.85500538               -0.31676142               -2.57503521               17.82029869              -15.45172620
              14.69171496                4.56658441               55.88216144                0.00010000                1.18713236                0.06677937               -1.26495004               -5.66243454               31.60211445              -12.09512764
              15.70815480                3.54160140               55.71926331                0.00010000                2.01810704               -0.47649635               -2.34859383               -6.22351179               31.07563016               -9.90295489
              16.73207710                2.50768176               55.55959801                0.00010000                2.66572908               -0.64055012               -3.48604061               -6.72748155               31.43929437               -8.00299122
              17.76146938                1.46755280               55.40518957                0.00010000                3.11737377               -0.49474435               -4.61646483               -6.64530071               32.26342351               -6.08129486
              18.79442457                0.42696510               55.26198543                0.00010000                3.39917918               -0.13586653               -5.60413503               -5.82665756               32.74056116               -4.20672025
              19.82945296               -0.60700840               55.11603756                0.06939618                3.21413110                0.34766138               -6.66204108               -3.89368264               28.97199911               -5.13643993
              20.85870720               -1.62180655               54.89696339                0.20964142                2.15860559                1.76982993               -5.48362290               -1.17617713               12.96530536               -4.04256672
              21.87262508               -2.61518777               54.43126602                0.66175235                1.39178797                3.89621628               -7.00944607                0.04471669                0.65447749              -13.10852931
              12.64665812                8.49204356               56.81648343                0.73437162               -0.40135682               -0.78838081                2.31582224               -0.07713114                0.08508964                4.72638822
              13.64264455                7.54123698               56.29625792                0.19611622               -0.21543083               -0.01257486                0.35796956                0.23680170                1.77177460               -4.38090117
              14.64234950                6.59389754               55.81004103                0.00010000                0.59376357                0.80119019               -0.91952614               -3.16252716               23.21445520              -12.87530223
              15.65451982                5.57047636               55.71919714                0.00010000                1.53402849                0.58327360               -1.91687606               -6.79483103               42.52629715              -11.41248999
              16.67303007                4.54069406               55.62370974                0.00010000                2.21330873                0.21694966               -3.04287538               -7.16959116               42.08257125               -9.39385306
              17.69878600                3.50463366               55.52767669                0.00010000                2.88744903                0.01568065               -4.25950391               -7.46261825               42.12604747               -7.45630960
              18.73077905                2.46522916               55.43539268                0.00010000                3.44295077                0.06387247               -5.52032015               -7.30337020               42.47645751               -5.55984888
              19.76764501                1.42796436               55.34725708                0.00010000                3.88010712                0.37204509               -6.82843767               -6.43094824               42.82703115               -3.87561590
              20.80838119                0.39985591               55.26188819                0.07451622                3.61389513                0.96474081               -8.22661909               -4.11667749               37.23603082               -1.59753789
              21.83992291               -0.59974604               55.06247017                0.21652802                2.46273626                2.39272183               -6.43600336               -1.30540085               16.19365405               -4.40789066
              22.85763592               -1.57578920               54.55494995                0.66581756                1.77130054                3.84642286               -8.14854478                0.19120129                0.97709083              -13.05245197
              13.59282704                9.48475980               56.68370387                0.72855367               -0.26157943               -0.67032288                1.95991502               -0.07638457                0.08594213                4.76277030
              14.59021125                8.54189716               56.11809163                0.18843477               -0.04524079                0.14506457               -0.21326479                0.22151225                2.31066499               -4.28367816
              15.59192222                7.60220852               55.59714725                0.00010000                0.94052857                0.90024590               -1.42848249               -3.63700257               29.03685543              -12.07176180
              16.60902182                6.57824988               55.56664433                0.00010000                1.93417296                0.93373922               -2.45710604               -7.75105022               53.16191924              -10.39925134
              17.63060568                5.54594039               55.53406781                0.00010000                2.46339080                0.74375187               -3.63979442               -8.09868721               52.79519219               -8.52965892
              18.65828963                4.50799537               55.50119250                0.00010000                3.07327958                0.58257239               -4.94687316               -8.20850826               52.71874598               -6.56108935
              19.69207127                3.46883025               55.47065581                0.00010000                3.64446098                0.60643896               -6.35747726               -7.85859318               52.94362264               -4.53220765
              20.73117885                2.43440600               55.44434408                0.00010000                4.13792688                0.87264686               -7.88021848               -6.83462075               53.33907146               -2.26210321
              21.77482981                1.41228642               55.42254492                0.07969141                3.85327202                1.41346032               -9.58405312               -4.18652100               45.03978138                0.52485472
              22.80824429                0.42604788               55.23054665                0.22343912                2.68528026                2.62367006               -6.97773947               -1.14742405               18.77933408               -3.41483271
              23.82853542               -0.53825931               54.68000958                0.66991656                2.02911245                3.64651003               -8.88273652                0.16406386                1.14711755              -12.12212161
              14.53085572               10.47863710               56.55130642                0.72273403               -0.12296430               -0.55559987                1.60603966               -0.07681901                0.08906949                4.75622717
              15.52962607                9.54413827               55.94066750                0.18085145                0.12005047                0.30426052               -0.77974872                0.17474250                3.04622655               -4.21865723
              16.53325673                8.61190246               55.38924576                0.00010000                1.30704376                1.03295196               -1.85844001               -4.04185487               35.18520696              -11.56275104
              17.55576695                7.58915115               55.42209569                0.00010000                2.40270539                1.18953493               -2.88467553               -8.46664377               63.92050126               -9.48511796
              18.58131083                6.55556910               55.45272115                0.00010000                2.79795103                1.07226811               -4.11399499               -8.78016314               63.47247578               -7.44856012
              19.61172597                5.51628510               55.48282804                0.00010000                3.29428652                0.96881637               -5.50164381               -8.69378181               63.33867684               -5.38791744
              20.64719656                4.47735794               55.51552514                0.00010000                3.78852300                1.02385026               -7.03245252               -8.15453855               63.59573699               -3.15188165
              21.68749643                3.44541729               55.55387475                0.00010000                4.29061620                1.26244120               -8.72577281               -7.02036228               64.18970204               -0.50977904
              22.73300889                2.42812512               55.59979020                0.08497558                4.00118667                1.66937956              -10.66522223               -4.11155712               52.52278860                2.81789816
              23.76752016                1.45272736               55.40426301                0.23048957                2.82613490                2.62132012               -7.18029832               -0.97395310               20.81309266               -2.18338593
              24.78953159                0.49714100               54.81052786                0.67403722                2.20114233                3.42276284               -9.26412759                0.14297837                1.26936155              -10.89203141
              15.46028832               11.47364781               56.41886154                0.71673905                0.01524200               -0.44258921                1.25228251               -0.07754646                0.09136299                4.70433404
              16.46044074               10.54798237               55.76355839                0.17322837                0.28919636                0.46552869               -1.34472677                0.08838895                3.98351350               -4.18309513
              17.46607225                9.62286756               55.18607415                0.00010000                1.77907798                1.10747148               -2.16836040               -4.44318356               41.69180865              -10.99656593
              18.49602230                8.60204058               55.28578766                0.00010000                3.08981074                1.24798827               -3.19036948               -8.92155039               74.88564035               -8.41342136
              19.52786846                7.56738575               55.38098834                0.00010000                3.33014262                1.10087957               -4.44418740               -8.99970168               74.19080082               -6.16606707
              20.56262515                6.52737170               55.47424980                0.00010000                3.59899244                1.11379391               -5.88621604               -8.58103244               73.97118579               -4.06655468
              21.59984831                5.48930726               55.57083393                0.00010000                3.86896343                1.32584013               -7.50405387               -7.92330294               74.39057840               -1.76009723
              22.64000442                4.45965482               55.67638094                0.00010000                4.27201455                1.58057931               -9.32497963               -6.91334858               75.40109323                1.17527486
              23.68528860                3.44567401               55.79471113                0.09030007                3.98724639                1.83437033              -11.44779983               -4.03288154               59.76568597                5.11135682
              24.71974935                2.47847429               55.58576460                0.23745518                2.86395488                2.47458742               -7.09830366               -0.86916928               22.34942628               -0.80892357
              25.74256770                1.53019594               54.94874801                0.67821791                2.28183511                3.18308115               -9.34644905                0.11416347                1.35440453               -9.49569981
              16.38063566               12.46978532               56.28583017                0.71092535                0.15384330               -0.32968060                0.89514323               -0.07887098                0.11318586                4.66124860
              17.38217410               11.55344884               55.58646864                0.16565305                0.48495904                0.62949669               -1.90998566               -0.09345395                5.21932625               -4.23090080
              18.39033484               10.63405189               54.98910565                0.00010000                2.53218275                0.99224125               -2.36644283               -4.97325639               48.73226556              -10.04160159
              19.43281775                9.61411091               55.16070835                0.00010000                4.28254178                0.79019292               -3.35787004               -8.94663216               86.10583067               -6.78318266
              20.47598568                8.57758669               55.32128325                0.00010000                4.26830333                0.62654357               -4.61392497               -8.20912230               84.82305462               -4.55724571
              21.51818382                7.53856098               55.47596900                0.00010000                4.02308531                1.02495285               -6.07283265               -7.33056845               84.38688881               -2.70457728
              22.55644739                6.50387474               55.63481853                0.00010000                3.73394443                1.59269650               -7.73577801               -6.71468824               85.14582145               -0.66037503
              23.59286271                5.47702888               55.80893387                0.00010000                3.85422041                2.06041222               -9.64982647               -6.23624075               87.00257004                2.20707582
              24.63353179                4.46481253               56.00613776                0.09581998                3.63760683                2.15139298              -11.91687578               -4.08612136               66.98425597                6.88154520
              25.66561484                3.50221911               55.77639978                0.24463035                2.74198720                2.24091654               -6.77419030               -0.93889060               23.52767427                0.72173677
              26.68837154                2.56080262               55.09636980                0.68233926                2.27566952                2.93224200               -9.17157424                0.07688764                1.43887032               -8.01532294
              17.29138385               13.46705419               56.15287679                0.70496317                0.29212467               -0.21392871                0.53807604               -0.08029367               -0.06806188                4.05598510
              18.29430510               12.56057230               55.40788574                0.15830195                0.72806018                0.79232410               -2.48367628               -0.50421732                7.05275066               -3.79571184
              19.30594505               11.64271239               54.80508605                0.00010000                3.96248805                0.30656777               -2.40974489               -5.22443458               56.82257785               -7.19057813
              20.37355486               10.61784444               55.05548927                0.00010000                6.66454482               -0.86488421               -3.39712075               -6.91917552               97.48890207               -4.02155374
              21.43923595                9.57991662               55.27768078                0.00010000                5.80854374               -0.13164339               -4.61259283               -5.41770787               94.87466196               -2.47585265
              22.48972573                8.54787076               55.48793058                0.00010000                4.39253502                0.82332633               -6.03194022               -4.35790774               94.08522253               -1.35631165
              23.52708665                7.52116119               55.70287072                0.00010000                3.23080441                1.84184774               -7.68400892               -4.01732455               95.24588252               -0.10478212
              24.55434182                6.50086307               55.94066330                0.00010000                2.56446496                2.78856249               -9.64106953               -4.21681881               98.74744175                1.84550423
              25.57837595                5.48870187               56.22488580                0.10152667                2.53198111                3.20066843              -12.05244762               -3.43489178               74.87424825                5.81125681
              26.60498144                4.52329262               55.97866900                0.25167278                2.42812368                1.97177762               -6.23853093               -1.37211746               24.83277264                1.84292017
              27.62693842                3.58884078               55.25406320                0.68642870                2.19569806                2.69693590               -8.77878122               -0.00999711                1.34022372               -5.76121713
              18.19199357               14.46550674               56.00804521                0.85048629                0.44379825               -0.15474498                0.12456759                0.43983068                1.84121989                3.45006980
              19.19643156               13.56929533               55.23883678                0.57675683                1.82902216                0.87230248               -3.01247782               -1.05352920               11.70714057               -3.27920207
              20.22857402               12.64018324               54.66660936                0.47080708                8.03992240               -0.25291471               -2.40245254               -6.36120854               66.41879895               -5.20719822
              21.35723000               11.59681323               54.98461713                0.44596717               10.45155930               -2.10312090               -3.33624544               -4.89395643              107.41992607               -2.06566659
              22.43760520               10.57495382               55.25491986                0.43821614                6.62755485               -0.49628060               -4.42433151               -2.25236072              103.51414954               -1.17672764
              23.48978110                9.55502751               55.50997815                0.44445046                4.27516925                0.71567506               -5.72725239               -1.70656930              102.44891344               -0.52524169
              24.52310859                8.54071169               55.76928157                0.46460216                2.56022738                1.95505079               -7.28546065               -1.50917516              103.68710517                0.19925279
              25.54098565                7.53280013               56.05463636                0.49968549                0.96479103                3.19370648               -9.19649175               -1.92990707              108.25386656                1.37619092
              26.54240441                6.52882590               56.40332310                0.55271105               -0.14760352                4.01240278              -11.67413875               -3.15442757               83.72557778                4.35938187
              27.53803358                5.54165466               56.18260962                0.62817301                0.73354255                1.83620449               -5.56009041               -2.39901413               29.42102702                2.35004029
              28.55707526                4.61474134               55.43731134                0.84451328                1.90416810                2.59005579               -8.16307529                0.32235176                3.59595512               -4.03704181
               9.13131442                4.71756829               58.40299837                0.92736250               -1.05701220               -1.17793095                4.00251832               -0.27804891               -2.86358282                3.30722779
              10.12074430                3.69316774               58.02683015                0.70230737               -1.00600593               -0.71464705                2.76500387               -0.25838482               -4.00605786               -2.16966010
              11.11119430                2.66474352               57.62852052                0.54872884               -1.04711103               -0.37716124                1.41768161               -0.47775805               -3.97715465               -0.86804314
              12.09980208                1.62229937               57.25338889                0.47944545               -1.07910657               -0.03873541                0.14575492               -0.49019173               -1.82337595               -0.42908221
              13.08961217                0.55914506               56.89766940                0.44565847               -0.76108788                0.32932112               -1.18095442               -0.40168634                0.00155538               -0.28422154
              14.08458032               -0.52470690               56.55768795                0.44427704               -0.05802680                0.69871327               -2.54785999               -0.25261928                1.05710580               -0.05165716
              15.08845163               -1.62160928               56.22138309                0.47465495                0.83539961                1.06001467               -3.90687080               -0.19134340                0.74586597                0.17534796
              16.10128831               -2.72054295               55.87382368                0.53782674                1.59759723                1.40442167               -5.21040968               -0.21710893               -0.64424311                0.36209138
              17.12040358               -3.81368581               55.50866125                0.63679337                2.10402679                1.74019561               -6.47641635               -0.23340998               -2.44237346                0.43358293
              18.14336885               -4.89834881               55.12385853                0.77632033                2.43498356                2.07050523               -7.75770272               -0.22096166               -3.05958938                1.05008422
              19.16910325               -5.97587964               54.74450422                0.94456675                2.57344017                2.48188954               -9.02696534               -0.47787097               -2.66662427               -2.23591821
              10.15293449                5.70578898               58.24808138                0.79685316               -0.83616528               -1.15874113                3.51672677               -0.11784118                1.44111500                4.34821862
              11.14457283                4.68602127               57.86611316                0.30499986               -0.55417909               -0.58800910                2.27268524               -0.21038348                3.69942821               -3.81564677
              12.14185090                3.66097191               57.52989534                0.03088633                0.15632780                0.08158928                1.31037165               -1.03450478                6.69349093               -7.29521658
              13.14769939                2.62191201               57.20797914                0.00010000                0.86237665               -0.56590943                0.24314432               -1.99159298                8.16523462               -6.48391892
              14.15909844                1.56243827               56.90166006                0.00010000                1.23659545               -0.67805521               -0.82251217               -2.80079283                9.68689438               -5.52449475
              15.17243130                0.48228023               56.61084771                0.00010000                1.26788934               -0.40492505               -1.93165930               -3.21951514               10.58808048               -4.89579531
              16.18445622               -0.61100914               56.32291793                0.00010000                1.13620921                0.08301057               -3.03321317               -2.98518550               10.17139831               -4.10613575
              17.19515548               -1.70649873               56.02325747                0.02117164                1.12580924                0.59913789               -4.08816034               -2.10179422                8.72157654               -2.31886264
              18.20697241               -2.79628385               55.70505313                0.16726870                1.35503329                1.13728162               -5.12257797               -0.96266898                7.16455808                3.98625453
              19.22225615               -3.87764376               55.37272071                0.37718527                1.74414796                1.71827213               -6.17277072               -0.36021516                4.83814226                3.33192874
              20.24185537               -4.95106075               55.00652174                0.77368880                1.95992198                2.44467007               -7.31379777               -0.50659771                3.21795031               -3.70693671
              11.16849303                6.69439347               58.11481773                0.73582484               -0.71393305               -1.07703716                3.17104162               -0.10319321                0.30750062                5.18148934
              12.16135370                5.68140755               57.67293829                0.20097837               -0.69397861               -0.35642628                1.56860672               -0.06828682                3.87947628               -5.18667447
              13.15461346                4.66637531               57.30299982                0.00010000               -0.14249228                0.76399758                0.52990617               -2.21616259               12.84327825              -15.91887709
              14.15850385                3.61098118               57.04140120                0.00010000                0.93073159               -0.64501718               -0.55440005               -4.74904915               19.19286054              -12.80553371
              15.17322809                2.54558396               56.80052121                0.00010000                1.75667857               -1.24196793               -1.69116877               -5.71109696               20.49789166              -10.97616884
              16.19363743                1.46719460               56.56651198                0.00010000                2.21494002               -1.20423393               -2.85900493               -6.30122278               21.07953879               -9.70428063
              17.21752689                0.38005093               56.33791207                0.00010000                2.54448569               -0.77278428               -4.00117199               -5.94316930               21.79392804               -8.22937187
              18.24452714               -0.70856019               56.11784797                0.00010000                2.73841678               -0.20337610               -4.98757785               -4.56204826               25.91436884               -5.46536826
              19.27229523               -1.79094017               55.97097501                0.05921336                2.32071509                0.46851478               -4.85158827               -2.60305368               21.64795256               -1.94271421
              20.29094144               -2.86398337               55.66538727                0.19577580                1.67550209                1.62095273               -4.48625113               -0.94715697                7.65780535               -0.35874082
              21.30580527               -3.92698624               55.23702631                0.65362144                1.48638263                3.37571129               -5.96724093               -0.71627107                1.53445922              -10.65967328
              12.17684245                7.68424824               57.97743079                0.72841266               -0.56171950               -0.94715240                2.78158565               -0.08334025                0.07799546                4.94141609
              13.17122526                6.67889274               57.48499859                0.19068153               -0.44442122               -0.17191804                0.95919830                0.20168613                1.97170133               -4.79230775
              14.16795403                5.67625186               57.03082161                0.00010000                0.11422493                0.88638129               -0.24597780               -2.58642681               18.47641150              -16.01121351
              15.17350976                4.60901167               56.86930322                0.00010000                1.03545230                0.13611286               -1.29735978               -5.73259297               32.28128195              -12.88826502
              16.18866308                3.53759891               56.69503741                0.00010000                1.92150578               -0.38736269               -2.49714047               -6.24846144               31.63606447              -10.98439379
              17.21193987                2.45819556               56.52340962                0.00010000                2.63422778               -0.52546305               -3.76234760               -6.70331023               31.96332138               -9.40466790
              18.24134763                1.37353518               56.35710881                0.00010000                3.14828732               -0.33830808               -5.02171089               -6.55318565               32.86485316               -7.83331525
              19.27490562                0.28943375               56.20352506                0.00010000                3.44934418                0.09875258               -6.12513984               -5.63608910               33.42083918               -6.39418361
              20.31033451               -0.78691355               56.04704491                0.06184792                3.22267291                0.79244401               -7.17543709               -3.70411832               30.75525619               -8.39651446
              21.33935908               -1.84522471               55.83896098                0.19612312                2.16005871                2.36562674               -6.20475361               -1.12731188               14.51551357               -6.68698797
              22.35353569               -2.88354652               55.35782009                0.65246535                1.41766115                4.45861967               -7.74980133                0.12073901                0.89619552              -16.12303919
              13.17753723                8.67545042               57.84010766                0.72275306               -0.41534248               -0.81802133                2.40925513               -0.08130551                0.08775760                4.95819220
              14.17338380                7.67796919               57.29983019                0.18344597               -0.23856159               -0.01024874                0.35644080                0.24511737                2.15859861               -4.59511925
              15.17276599                6.68410293               56.80124897                0.00010000                0.45605711                0.81706267               -0.80559722               -3.17176438               24.05924373              -13.28044533
              16.18250494                5.61370344               56.69986160                0.00010000                1.31544901                0.66958152               -1.93560395               -6.85194085               43.35087502              -12.09573626
              17.19907497                4.53783670               56.59239152                0.00010000                2.05650077                0.35333672               -3.21946792               -7.19780215               42.76310295              -10.37548757
              18.22363496                3.45668534               56.48339262                0.00010000                2.80750071                0.20574604               -4.60994768               -7.44425622               42.72530558               -8.76894717
              19.25522499                2.37328477               56.37768224                0.00010000                3.43095657                0.32207738               -6.04810333               -7.20974870               43.03964109               -7.25281174
              20.29225409                1.29341486               56.27576935                0.00010000                3.88231617                0.73245991               -7.50833331               -6.20154663               43.36159171               -6.07430392
              21.33287131                0.22490871               56.17602073                0.06675592                3.63870409                1.50664905               -8.98594481               -3.87650552               39.31097693               -4.39560845
              22.36502817               -0.81667084               55.99307969                0.20258557                2.59961839                3.03360079               -7.57484768               -1.20298014               18.13862538               -6.58825212
              23.38486368               -1.83781385               55.46819232                0.65632137                1.98355077                4.48722825               -9.31472867                0.28959066                1.28775404              -15.64422110
              14.17017880                9.66788781               57.70370922                0.71709354               -0.27037068               -0.69661354                2.04171892               -0.08040325                0.08913066                4.99593065
              15.16747509                8.67868777               57.11583802                0.17604151               -0.06971503                0.15444368               -0.23750436                0.21916632                2.85628028               -4.49043819
              16.16878450                7.69259312               56.58348680                0.00010000                0.76310383                0.91997365               -1.26444333               -3.64332030               30.12282603              -12.38421012
              17.18273717                6.62240330               56.54200236                0.00010000                1.64703137                1.03030099               -2.44839111               -7.78292917               54.13261699              -10.96367279
              18.20172513                5.54466565               56.49670805                0.00010000                2.24347577                0.91687700               -3.82851532               -8.10436008               53.58466812               -9.38550756
              19.22760669                4.46231048               56.44975101                0.00010000                2.93490047                0.83824701               -5.35427610               -8.16076788               53.37953318               -7.73830154
              20.26042314                3.37997673               56.40405089                0.00010000                3.58220299                0.95699644               -6.99095410               -7.71699987               53.50703502               -6.07303521
              21.29925075                2.30408294               56.36151136                0.00010000                4.12334816                1.33684457               -8.72634840               -6.50629618               53.78854054               -4.22473044
              22.34289010                1.24321943               56.32181255                0.07167802                3.93856418                2.01798270              -10.58892528               -3.83714082               47.56027724               -1.96288535
              23.37802203                0.21544731               56.15456090                0.20927966                2.93617133                3.24376313               -8.38249577               -1.00590672               21.24649288               -5.05997209
              24.40161353               -0.79380196               55.58467019                0.66023043                2.35914972                4.28503572              -10.32253732                0.23350881                1.49143000              -14.15674138
              15.15432926               10.66151815               57.56771489                0.71145633               -0.12674316               -0.57845239                1.67742508               -0.07980729                0.09331341                4.98918582
              16.15306182                9.68105807               56.93263812                0.16879709                0.09273986                0.32031595               -0.82692592                0.15881216                3.79180598               -4.42159761
              17.15618405                8.70250241               56.37160832                0.00010000                1.08560006                1.04944969               -1.61223882               -4.04064396               36.56794882              -11.77354718
              18.17477383                7.63430945               56.39336337                0.00010000                2.04482704                1.28750087               -2.83277870               -8.45584461               65.05650817               -9.92638532
              19.19708059                6.55617424               56.41063081                0.00010000                2.51673491                1.26638860               -4.29712578               -8.73396172               64.38039492               -8.15861160
              20.22510852                5.47345028               56.42564671                0.00010000                3.10159646                1.27222453               -5.94625816               -8.58025227               64.07975876               -6.38982095
              21.25911252                4.39242469               56.44173145                0.00010000                3.68884701                1.44358796               -7.75238332               -7.93073802               64.19303453               -4.47100606
              22.29888546                3.32015175               56.46182635                0.00010000                4.28258026                1.79353280               -9.71905318               -6.58821447               64.60668494               -2.18765845
              23.34476413                2.26526836               56.48701312                0.07678275                4.15229781                2.29322005              -11.89654465               -3.69668063               55.57036622                0.70153637
              24.38193142                1.24820443               56.32558094                0.21594870                3.16341296                3.21271446               -8.73528415               -0.83381377               23.84915472               -3.37475147
              25.40803239                0.24788687               55.71064613                0.66418962                2.61009677                4.03580954              -10.86466288                0.19124637                1.63698040              -12.44222910
              16.12950282               11.65631877               57.43168142                0.70580451                0.01642580               -0.46214070                1.31330127               -0.08033200                0.09547849                4.93452553
              17.12966708               10.68509408               56.74976803                0.16140658                0.26087050                0.48819795               -1.41463147                0.04875162                4.99397317               -4.38488253
              18.13472023                9.71358211               56.16580090                0.00010000                1.51406803                1.10775168               -1.82508967               -4.43352059               43.43853299              -11.09191840
              19.15994844                8.64815332               56.25427649                0.00010000                2.65924173                1.33078544               -3.07411883               -8.85428359               76.19677489               -8.72248208
              20.18790507                7.56999342               56.33570042                0.00010000                2.99013740                1.30111134               -4.60299610               -8.88006897               75.23963690               -6.71626896
              21.21975119                6.48775497               56.41313573                0.00010000                3.36009187                1.44360931               -6.34567199               -8.38730671               74.81896244               -4.86440599
              22.25510691                5.40884848               56.49200433                0.00010000                3.74458006                1.78448060               -8.28386263               -7.61136969               75.05261159               -2.82071368
              23.29464279                4.33995360               56.57768307                0.00010000                4.28984535                2.15223936              -10.44068310               -6.40193783               75.81916403               -0.18330710
              24.34090381                3.28908383               56.67289487                0.08192702                4.20422291                2.45729558              -12.89314036               -3.59870533               63.35936379                3.38922723
              25.37872725                2.27970160               56.50762126                0.22271457                3.25848818                3.03031676               -8.71528233               -0.75303029               25.95613629               -1.60766625
              26.40607358                1.28691423               55.84769081                0.66815418                2.73463268                3.76120733              -11.02352522                0.14416212                1.73382693              -10.61942015
              17.09517198               12.65227534               57.29502478                0.70011155                0.16015342               -0.34669333                0.94546995               -0.08190683                0.11878561                4.88890419
              18.09677351               11.69082203               56.56691514                0.15430989                0.46412153                0.65955641               -2.00273220               -0.17389155                6.55426884               -4.43666096
              19.10445441               10.72465744               55.96738867                0.00010000                2.22516647                0.94443704               -1.88862594               -4.96455692               50.91310796              -10.00346153
              20.14127684                9.66092516               56.12790064                0.00010000                3.77115772                0.84646276               -3.16178374               -8.78803555               87.61421498               -6.96736810
              21.17987756                8.58219647               56.27448502                0.00010000                3.86152418                0.84343485               -4.73162637               -8.02729408               86.04164223               -4.93965596
              22.21850733                7.50232247               56.41302080                0.00010000                3.74044668                1.36138696               -6.52242943               -7.09041103               85.37534884               -3.27240068
              23.25468650                6.42811431               56.55350592                0.00010000                3.60520188                2.04751964               -8.54254615               -6.35332239               85.89513290               -1.42746122
              24.29061136                5.36319654               56.70647731                0.00010000                3.91777626                2.64048813              -10.85387286               -5.67765130               87.43444284                1.20664475
              25.33304202                4.31441427               56.87849045                0.08718607                3.92145223                2.76598609              -13.57090635               -3.66238311               71.09340960                5.57999071
              26.36904041                3.30881076               56.70150316                0.22948323                3.17241688                2.75890707               -8.38846433               -0.86833662               27.67055247                0.26921721
              27.39649036                2.32311101               55.99702593                0.67210907                2.74499520                3.47238006              -10.85780612                0.09236199                1.82464115               -8.76415337
              18.05077131               13.64938490               57.15845094                0.69443754                0.30358377               -0.22822986                0.57832536               -0.08315047               -0.07216106                4.25370209
              19.05380715               12.69828521               56.38247977                0.14717085                0.72773242                0.82979341               -2.60061627               -0.66850807                8.79681174               -3.98170520
              20.06532596               11.73247085               55.78365647                0.00010000                3.64207771                0.10601571               -1.77906495               -5.08053135               59.51506199               -7.07211282
              21.12664870               10.66508257               56.02266448                0.00010000                6.03179633               -0.72508307               -3.11985870               -6.70658827               99.20770956               -4.11781465
              22.18596188                9.58686212               56.23114307                0.00010000                5.26882161                0.11512148               -4.67861916               -5.24262830               96.31482465               -2.67661459
              23.23202513                8.51498271               56.42555356                0.00010000                4.06022507                1.15745566               -6.44575900               -4.18297858               95.26561858               -1.65980196
              24.26716639                7.44979888               56.62212305                0.00010000                3.13823333                2.25850705               -8.47506852               -3.73062876               96.11727380               -0.52302669
              25.29478980                6.39276336               56.83804796                0.00010000                2.74377708                3.29041758              -10.87816187               -3.75522534               99.17421910                1.27645531
              26.32204193                5.34440355               57.09499708                0.09269596                2.89369885                3.78236171              -13.87900258               -3.06803705               79.40586574                5.05063621
              27.35266378                4.33487974               56.90932565                0.23622505                2.86391939                2.45472561               -7.80757752               -1.36116977               29.43652172                1.67864897
              28.37932031                3.35636183               56.15879920                0.67599097                2.66565380                3.20150688              -10.43476389               -0.00876811                1.71923631               -6.16825901
              18.99570834               14.64771074               57.00941282                0.84530817                0.46090578               -0.16741588                0.15046406                0.46441884                1.93012095                3.61746233
              20.00031740               13.70741789               56.20804116                0.57133341                2.01690401                0.91326820               -3.15063955               -1.39562384               13.90104598               -3.44023708
              21.03604642               12.72677776               55.64574009                0.46960873                7.62182045               -0.56930952               -1.67616206               -5.97767299               69.70251012               -5.12572525
              22.15275381               11.64642350               55.95265685                0.44580380                9.45392200               -1.86590693               -3.00267851               -4.50343183              109.42224024               -2.11751156
              23.22512486               10.58449890               56.21054165                0.43824387                5.95785928               -0.23632174               -4.43557546               -2.13129820              105.26031341               -1.27833071
              24.27191100                9.52547158               56.45094982                0.44422997                3.85842018                1.04888729               -6.07941219               -1.57213636              103.90436950               -0.67831367
              25.30229327                8.47328445               56.69284741                0.46362628                2.44955947                2.34855708               -8.00816598               -1.31064629              104.77028827               -0.01855842
              26.32090218                7.42900489               56.95672810                0.49742870                1.36358186                3.62415280              -10.37223504               -1.54990855              108.74714956                1.06780922
              27.32956490                6.39006151               57.27719050                0.54817040                0.44782715                4.56579569              -13.50271819               -2.80268307               88.37905248                3.87948266
              28.32985873                5.35790527               57.12033936                0.62040679                1.18929525                2.30255339               -7.05532660               -2.42652268               34.29939749                2.35796134
              29.35335081                4.38714115               56.34849283                0.83925899                2.34920811                3.07793150               -9.74690147                0.32663704                4.04527206               -4.23404376
               9.48443579                4.90863043               59.44373206                0.91903121               -1.09315937               -1.22024406                4.14666831               -0.29049266               -2.98665653                3.44005644
              10.47350420                3.83406862               59.05493541                0.69188206               -1.03635837               -0.73782261                2.85673154               -0.27023632               -4.18683659               -2.28880580
              11.46370863                2.75535919               58.64286562                0.54459623               -1.04730285               -0.39075160                1.45081869               -0.46642630               -4.17858675               -0.83982458
              12.45255814                1.66286935               58.25472506                0.47789872               -1.03429117               -0.03518503                0.12157425               -0.47231251               -2.01682583               -0.44109405
              13.44302280                0.55050245               57.88545290                0.44544176               -0.68627010                0.34566283               -1.26235545               -0.38580829               -0.24426329               -0.28726692
              14.43883274               -0.58148461               57.53150931                0.44403681                0.01881011                0.72953333               -2.68752614               -0.24685541                0.79276455               -0.05585468
              15.44339900               -1.72577066               57.18132289                0.47329924                0.89795520                1.10585899               -4.10453196               -0.18679161                0.51540562                0.17319979
              16.45679184               -2.87195952               56.82042406                0.53391147                1.65869748                1.46605048               -5.46759298               -0.20856976               -0.82160678                0.36404491
              17.47657295               -4.01251473               56.44233021                0.62877657                2.18405654                1.81674259               -6.79248718               -0.22702774               -2.60358827                0.43370075
              18.50047298               -5.14461810               56.04441511                0.76242918                2.54245500                2.16272279               -8.13378166               -0.22124623               -3.22029008                1.05480298
              19.52742205               -6.26929242               55.65209011                0.93516780                2.69490789                2.58763435               -9.45732457               -0.51049583               -2.81895745               -2.33527864
              10.55609267                5.89642799               59.28387083                0.78223054               -0.86552119               -1.20200400                3.64345054               -0.12510225                1.55707815                4.55264344
              11.54743746                4.82669040               58.88921156                0.28751691               -0.57243348               -0.60437282                2.34785633               -0.22333124                3.95906232               -4.04409283
              12.54464400                3.75145167               58.54318365                0.02471743                0.14129645                0.10672163                1.34551645               -1.05964493                7.04410401               -7.60738259
              13.55026339                2.66251750               58.21037378                0.00010000                0.83488502               -0.55816654                0.23665526               -2.02648621                8.46632575               -6.95311054
              14.56134170                1.55395908               57.89320889                0.00010000                1.21186781               -0.65895942               -0.86825422               -2.81424355                9.97296409               -6.16510703
              15.57450074                0.42581072               57.59110725                0.00010000                1.27134227               -0.38591296               -2.01681243               -3.20084708               10.85758867               -5.71226129
              16.58676854               -0.71471207               57.29198293                0.00010000                1.17887187                0.10581923               -3.15526227               -2.94988854               10.46387069               -5.08829837
              17.59807818               -1.85729902               56.98157991                0.01532761                1.19317100                0.65331282               -4.24766298               -2.07928386                9.04311383               -3.40213968
              18.61063196               -2.99434730               56.65287642                0.15548775                1.42855895                1.22856763               -5.31721977               -0.96809315                7.48618698                3.32276451
              19.62664936               -4.12299087               56.30986501                0.35604834                1.81797254                1.80301857               -6.40266903               -0.35849254                5.10367085                3.38000042
              20.64699142               -5.24341608               55.93203357                0.75946513                2.03420575                2.55435392               -7.58755808               -0.54410983                3.43786851               -4.00394354
              11.62140892                6.88459035               59.14711615                0.72367354               -0.73950325               -1.11810924                3.28954390               -0.10651088                0.29700978                5.43350526
              12.61401389                5.82198117               58.68884978                0.18739909               -0.73601497               -0.36398949                1.61451691               -0.05808951                4.16340591               -5.47424299
              13.60668862                4.75749362               58.30841964                0.00010000               -0.22464401                0.81298129                0.55906750               -2.26416947               13.38690972              -16.54918235
              14.60952101                3.65170602               58.03571528                0.00010000                0.83780420               -0.60793986               -0.57686554               -4.86544721               19.65408606              -13.69942889
              15.62344471                2.53732326               57.78308178                0.00010000                1.69829688               -1.19579340               -1.79615102               -5.77404537               20.89421820              -12.22243397
              16.64348695                1.41079713               57.53695526                0.00010000                2.20331337               -1.15514823               -3.05796229               -6.31030800               21.45954574              -11.31604906
              17.66751098                0.27634572               57.29648154                0.00010000                2.56772240               -0.70857995               -4.29850916               -5.89039685               22.25906840              -10.20686943
              18.69484140               -0.85889327               57.06617345                0.00010000                2.76959846               -0.07704714               -5.37907429               -4.47310052               26.98992092               -7.74807389
              19.72290294               -1.98794338               56.91965621                0.05165339                2.37652507                0.71814467               -5.48755659               -2.55871313               23.57200173               -4.44336189
              20.74237190               -3.10855773               56.61995771                0.18212691                1.72436608                1.98760721               -4.61842933               -0.93345199                8.81643664               -2.16238502
              21.75739027               -4.21820534               56.17647892                0.64420126                1.50183685                3.73007553               -6.15928028               -0.67279334                1.64532759              -12.89370798
              12.67918081                7.87406580               59.00577570                0.71664079               -0.58084131               -0.98306856                2.88738739               -0.08755406                0.08108745                5.17637902
              13.67337239                6.81941061               58.49470113                0.17779705               -0.47725255               -0.17430023                0.98115751                0.21534076                2.32005998               -5.02605203
              14.66963576                5.76771130               58.02878950                0.00010000               -0.01237977                0.90649106               -0.13522930               -2.61187834               19.18667570              -16.51607114
              15.67312480                4.65035870               57.85621425                0.00010000                0.85669620                0.20782387               -1.30840963               -5.83971623               32.91426544              -13.69349993
              16.68676968                3.53004321               57.66932050                0.00010000                1.80736605               -0.29047964               -2.64388852               -6.31672721               32.13105282              -12.14435835
              17.70927212                2.40270776               57.48435106                0.00010000                2.59406625               -0.39419032               -4.05792629               -6.72062186               32.40849214              -10.95746525
              18.73865101                1.27111633               57.30475535                0.00010000                3.18165730               -0.15574386               -5.47126362               -6.49317746               33.38407053               -9.81261344
              19.77290527                0.14116004               57.13948264                0.00010000                3.52355791                0.36926232               -6.72653336               -5.47018911               34.08761850               -8.88003067
              20.80912216               -0.97998441               56.97252882                0.05431898                3.26685088                1.25597406               -7.79143994               -3.50056566               32.47024994              -11.91181908
              21.83824228               -2.08323873               56.77286832                0.18267343                2.18543055                3.07233637               -7.12209356               -1.03391089               16.02739625              -10.06346665
              22.85283078               -3.16881457               56.27626999                0.64333956                1.45884913                5.13408084               -8.64178026                0.23118943                1.24266396              -19.84587342
              13.72896823                8.86492898               58.86466854                0.71119152               -0.42930154               -0.84973043                2.50381067               -0.08481934                0.09068294                5.20235729
              14.72467521                7.81849516               58.30338673                0.17078381               -0.27326329               -0.00650765                0.35489172                0.24406681                2.66782426               -4.81983282
              15.72350296                6.77562344               57.79392909                0.00010000                0.28597801                0.82268390               -0.62106041               -3.20270055               24.99088328              -13.63818000
              16.73039477                5.65586250               57.68048506                0.00010000                1.06290731                0.75579759               -1.91831270               -6.93908298               44.09351693              -12.77996269
              17.74476111                4.53151367               57.55932038                0.00010000                1.88033099                0.49738729               -3.39022568               -7.25842310               43.33691175              -11.42246011
              18.76800139                3.40291333               57.43547773                0.00010000                2.72170193                0.41337454               -4.98315543               -7.45087462               43.20033855              -10.21799317
              19.79919515                2.27323084               57.31443061                0.00010000                3.42684794                0.61020045               -6.62902797               -7.13103624               43.47952050               -9.15788423
              20.83653835                1.14849198               57.19709042                0.00010000                3.90476257                1.13471722               -8.27240856               -5.98859972               43.81855385               -8.55930926
              21.87729040                0.03717611               57.08216930                0.05899786                3.69927427                2.10103684               -9.86268774               -3.58696650               41.15791613               -7.57882196
              22.91052384               -1.04711100               56.91097321                0.18890001                2.79376666                3.77929570               -9.01146483               -1.03128046               19.93193658               -9.30681172
              23.93316573               -2.11552372               56.36865537                0.64695650                2.26418949                5.24833052              -10.73395986                0.42446062                1.70676181              -18.77592762
              14.77035205                9.85707119               58.72453825                0.70569810               -0.27927783               -0.72401796                2.12586292               -0.08370942                0.09344170                5.24347315
              15.76755927                8.81928046               58.11334154                0.16392900               -0.10688172                0.16405755               -0.26236021                0.19936638                3.57007556               -4.70790166
              16.76821441                7.78416497               57.57185838                0.00010000                0.54468225                0.92469877               -1.00337789               -3.67091521               31.33341680              -12.63651440
              17.77845291                6.66547466               57.51767651                0.00010000                1.31679903                1.12434024               -2.38976662               -7.83470824               54.99714696              -11.51729187
              18.79455039                5.53999095               57.45749750                0.00010000                2.00422694                1.09454119               -4.00660157               -8.13125628               54.23148983              -10.29241976
              19.81853745                4.41097525               57.39410697                0.00010000                2.79506173                1.10953217               -5.78510529               -8.12257529               53.87784831               -9.03394151
              20.85045163                3.28332034               57.33083673                0.00010000                3.53252799                1.33767666               -7.68007792               -7.57191989               53.90129217               -7.80589185
              21.88918801                2.16385438               57.26981711                0.00010000                4.12670944                1.85002167               -9.65801695               -6.17369493               54.10378939               -6.46508629
              22.93298582                1.06203633               57.21076641                0.06373430                4.05642469                2.69487099              -11.69193562               -3.40679830               49.79101337               -4.82129947
              23.97031650               -0.00765281               57.06289673                0.19522263                3.25798098                3.96414847              -10.14799982               -0.77689391               23.53416741               -7.09847097
              24.99814543               -1.06384795               56.47355883                0.65082221                2.78289303                5.03997639              -12.06790230                0.32923944                1.94877041              -16.59337537
              15.80287551               10.85044862               58.58485492                0.70038798               -0.13067540               -0.60213843                1.75159817               -0.08359841                0.09703273                5.23751552
              16.80156876                9.82177631               57.92412898                0.15680276                0.05074721                0.33636233               -0.87535294                0.11551292                4.77292634               -4.63574171
              17.80389046                8.79411741               57.35700098                0.00010000                0.81529335                1.05419345               -1.24421705               -4.06534904               38.12318629              -11.90287650
              18.81787463                7.67834930               57.36544011                0.00010000                1.63724652                1.37895049               -2.71758974               -8.45537777               66.05404118              -10.34167755
              19.83663539                6.55340449               57.36677864                0.00010000                2.21729391                1.46076035               -4.46441921               -8.69968774               65.11742767               -8.90320232
              20.86222050                5.42510397               57.36390288                0.00010000                2.91211140                1.58671211               -6.41259691               -8.46285369               64.62775588               -7.48865292
              21.89487762                4.29998438               57.36047748                0.00010000                3.60639786                1.88990898               -8.52551581               -7.68549904               64.58528491               -5.95594434
              22.93434846                3.18549241               57.35949369                0.00010000                4.28920065                2.37416723              -10.78775691               -6.13008483               64.84596918               -4.11451204
              23.98066163                2.09107353               57.36185931                0.06862846                4.32608897                2.99724463              -13.18453739               -3.18842861               58.33172821               -1.76533714
              25.02087024                1.03217197               57.22955732                0.20168397                3.57395875                3.90257746              -10.68581000               -0.60190441               26.73413672               -4.84246097
              26.05214080               -0.01472420               56.59323460                0.65452162                3.12705629                4.76378516              -12.80136537                0.25836922                2.12147588              -14.28810988
              16.82602468               11.84502842               58.44512756                0.69495332                0.01760462               -0.48273675                1.37679268               -0.08431500                0.09930305                5.17958377
              17.82620073               10.82600770               57.73526576                0.14988866                0.21548805                0.51137862               -1.48639639               -0.02263816                6.30884308               -4.59775512
              18.83033444                9.80524884               57.14957236                0.00010000                1.19287767                1.10048344               -1.33681142               -4.46164970               45.41620809              -11.07763386
              19.85005828                8.69305367               57.22430528                0.00010000                2.17337648                1.40131324               -2.88168276               -8.79558014               77.34612289               -8.99084752
              20.87380197                7.56920616               57.28892841                0.00010000                2.63211052                1.49732112               -4.74072687               -8.76405989               76.09374402               -7.28437112
              21.90270049                6.44270949               57.34733636                0.00010000                3.12756147                1.77955846               -6.82285026               -8.18191252               75.45367359               -5.73473829
              22.93635320                5.32111852               57.40515668                0.00010000                3.63983379                2.26112112               -9.10903452               -7.26779194               75.48403701               -4.01360438
              23.97549717                4.21133773               57.46756728                0.00010000                4.30922437                2.76522354              -11.60949952               -5.84593645               76.02110033               -1.75362641
              25.02253769                3.12198122               57.53684832                0.07351934                4.42894858                3.16183046              -14.34093596               -3.06132463               66.71293563                1.32622771
              26.06407614                2.07039874               57.41145896                0.20805054                3.72837309                3.68635462              -10.74529433               -0.54666487               29.48191493               -2.59063577
              27.09710515                1.03142775               56.72827751                0.65825699                3.30290117                4.45676785              -13.05464080                0.18680261                2.23412422              -11.95440783
              17.83923066               12.84079388               58.30473957                0.68951647                0.16649210               -0.36441154                0.99881521               -0.08608441                0.12427502                5.13159678
              18.84089558               11.83200389               57.54641400                0.14286407                0.41904217                0.69022365               -2.09870057               -0.29158611                8.29284465               -4.65444282
              19.84761150               10.81612708               56.95133313                0.00010000                1.85550631                0.88349376               -1.23550871               -4.99505900               53.39710672               -9.82793153
              20.87800570                9.70637557               57.09747267                0.00010000                3.20434314                0.88391351               -2.88064474               -8.63060022               88.92302012               -7.10400167
              21.91169836                8.58335091               57.22665073                0.00010000                3.43320976                1.05607711               -4.82357384               -7.84195184               87.05174173               -5.32682854
              22.94666990                7.46069514               57.34552042                0.00010000                3.45975893                1.70181037               -6.98388816               -6.83932375               86.14384238               -3.88702271
              23.98089354                6.34520680               57.46396760                0.00010000                3.49485648                2.51203205               -9.38193900               -5.96568665               86.39942554               -2.28721983
              25.01656703                5.24079688               57.59185641                0.00010000                3.97402935                3.24018234              -12.08249029               -5.07208296               87.60186642                0.04516543
              26.06037413                4.15431013               57.73471964                0.07854327                4.19616933                3.45166602              -15.16360996               -3.11099700               75.04031195                3.94949382
              27.10049042                3.10589906               57.60863050                0.21451284                3.67223516                3.38153313              -10.42068333               -0.70326813               31.84204841               -0.29584213
              28.13381883                2.07441116               56.87921368                0.66196058                3.33284161                4.12904764              -12.90975287                0.11475486                2.33482391               -9.65601075
              18.84188298               13.83774019               58.16444330                0.68408537                0.31528209               -0.24308246                0.62109074               -0.08736902               -0.07769932                4.46488510
              19.84503580               12.83981218               57.35587341                0.13639347                0.70892997                0.86819535               -2.72153262               -0.87959227               11.04401538               -4.17944664
              20.85606158               11.82291872               56.76950476                0.00010000                3.25933219               -0.13127916               -0.95136172               -4.93416050               62.58208236               -6.84508391
              21.91022245               10.71073194               56.99309210                0.00010000                5.32908919               -0.59486576               -2.75260342               -6.48617354              100.68788355               -4.17203876
              22.96264336                9.59032770               57.18410839                0.00010000                4.69178416                0.36195684               -4.71656612               -5.05830494               97.54673889               -2.87773665
              24.00405813                8.47674570               57.35901540                0.00010000                3.71471784                1.49867832               -6.86543584               -4.00378587               96.23746829               -1.98501826
              25.03693772                7.37135916               57.53336935                0.00010000                3.04470218                2.68424984               -9.28466594               -3.43808972               96.74582173               -0.98840304
              26.06495217                6.27614138               57.72310006                0.00010000                2.91389251                3.79995741              -12.10855445               -3.26630485               99.27722460                0.61650816
              27.09521557                5.19101454               57.94730574                0.08385802                3.24787883                4.38592812              -15.59524477               -2.60559525               83.85102826                4.05674253
              28.12990975                4.13802940               57.82251745                0.22101903                3.35802386                3.04437074               -9.77267709               -1.23885274               34.18422440                1.46250774
              29.16237605                3.11400870               57.04536793                0.66572567                3.24662992                3.81310266              -12.43780698               -0.00932345                2.21256886               -6.64840811
              19.83333931               14.83593223               58.01105449                0.84025034                0.47858959               -0.18079614                0.17878620                0.48918932                2.02441723                3.79666470
              20.83812521               13.84936779               57.17582399                0.56601568                2.23346086                0.95556186               -3.29380627               -1.81259595               16.66648942               -3.61235446
              21.87800853               12.81350150               56.63308612                0.46845999                7.13740193               -0.94172169               -0.74281072               -5.54978215               73.36778351               -4.94059193
              22.98087325               11.69447825               56.92456356                0.44561491                8.32549851               -1.62536832               -2.58164581               -4.08049242              111.18208791               -2.14487771
              24.04451850               10.59059005               57.16620835                0.43833065                5.23447408                0.02623464               -4.42011115               -2.00296387              106.82204380               -1.37908370
              25.08556273                9.49066870               57.38838991                0.44402711                3.41087862                1.39230042               -6.43492458               -1.43445275              105.18415028               -0.84154919
              26.11273607                8.39889180               57.60911825                0.46260003                2.30114102                2.75326392               -8.74211514               -1.11379847              105.64187664               -0.25999206
              27.13158555                7.31679603               57.84719166                0.49503568                1.68190639                4.06546576              -11.52220512               -1.17981738              108.91028453                0.70526579
              28.14637420                6.24202870               58.13326874                0.54376554                1.05668257                5.10141561              -15.19682218               -2.38461496               92.97615454                3.25197793
              29.15271920                5.16678648               58.04150309                0.61263779                1.76497791                2.87570773               -8.90741800               -2.28682904               39.37541309                2.35593550
              30.18167376                4.15067321               57.24237331                0.83407366                2.89545578                3.66645127              -11.64007828                0.31844474                4.61320083               -4.45666419
               9.84917458                5.10609189               60.48593174                0.91083339               -1.13005797               -1.26341273                4.29392765               -0.30325651               -3.11810269                3.57985428
              10.83787400                3.97883932               60.08396478                0.68155803               -1.06708355               -0.76142817                2.94989882               -0.28232092               -4.37802784               -2.41247316
              11.82783291                2.84731097               59.65753689                0.54022056               -1.04978616               -0.40407231                1.48354821               -0.45917898               -4.39161193               -0.81158003
              12.81687828                1.70218005               59.25582038                0.47644333               -0.99451261               -0.03204593                0.09811741               -0.45892331               -2.22391551               -0.45221523
              13.80794266                0.53788773               58.87242229                0.44528154               -0.61563293                0.36195175               -1.34282769               -0.37183784               -0.50495239               -0.29010159
              14.80456562               -0.64501989               58.50393743                0.44380136                0.09511629                0.76089463               -2.82546851               -0.24331433                0.51226693               -0.05978602
              15.80984499               -1.83946538               58.13929245                0.47180882                0.96416137                1.15316192               -4.30179990               -0.18609358                0.26801172                0.17043510
              16.82384885               -3.03557375               57.76447182                0.52993828                1.72478912                1.52828371               -5.72431370               -0.20439881               -1.01949295                0.36521671
              17.84434077               -4.22610420               57.37281151                0.62090332                2.26771494                1.89496381               -7.11032655               -0.22191181               -2.78732548                0.43483972
              18.86920315               -5.40815255               56.96118290                0.74869371                2.65166646                2.25662014               -8.51163683               -0.22147069               -3.39900481                1.06213475
              19.89737410               -6.58247214               56.55535772                0.92593378                2.81709495                2.69437099               -9.88945536               -0.54180725               -2.98668864               -2.44668962
              10.97339458                6.09345776               60.32095039                0.76807233               -0.89533280               -1.24665908                3.77202540               -0.13370248                1.67882737                4.76843886
              11.96444125                4.97122504               59.91307029                0.27049291               -0.59119105               -0.62030980                2.42340622               -0.23715920                4.22986735               -4.28310953
              12.96157076                3.84327024               59.55680567                0.01850154                0.12797046                0.12374233                1.37991625               -1.08561069                7.41237957               -7.91975856
              13.96700066                2.70185959               59.21271224                0.00010000                0.81267437               -0.55139548                0.23137981               -2.08589203                8.78831022               -7.43593523
              14.97782425                1.54150725               58.88429498                0.00010000                1.19041854               -0.64320295               -0.91504342               -2.86703562               10.27881121               -6.85194541
              15.99080903                0.36258906               58.57051146                0.00010000                1.27183656               -0.36751492               -2.10280727               -3.22890256               11.14937033               -6.61533693
              17.00326098               -0.82793376               58.25981268                0.00010000                1.21576194                0.13032481               -3.28179304               -2.96174438               10.78170820               -6.20194276
              18.01512427               -2.02029091               57.93830421                0.00957722                1.25750369                0.70746764               -4.41200883               -2.09593857                9.38986425               -4.66557985
              19.02841105               -3.20715456               57.59870873                0.14383400                1.50240691                1.33221924               -5.51950522               -0.98426045                7.83344937                2.34422150
              20.04517241               -4.38558635               57.24466733                0.33548348                1.89322793                1.89590842               -6.64055137               -0.35647743                5.39224764                3.39976820
              21.06627561               -5.55552843               56.85477058                0.74540015                2.11032009                2.66876577               -7.86899667               -0.57944311                3.67711347               -4.35599283
              12.09096597                7.08115870               60.18060860                0.71161984               -0.76476355               -1.16171606                3.40827469               -0.11161991                0.28535494                5.69874986
              13.08331834                5.96643313               59.70522863                0.17404336               -0.77399087               -0.36951455                1.66097629               -0.06007451                4.47650012               -5.77592308
              14.07548615                4.84978581               59.31418117                0.00010000               -0.31974519                0.85753717                0.59256627               -2.33386639               13.96472595              -17.12387954
              15.07692343                3.69115214               59.02986389                0.00010000                0.71931613               -0.57438466               -0.58538646               -5.02493652               20.11330788              -14.61436156
              16.08987248                2.52502368               58.76459819                0.00010000                1.62525745               -1.15170530               -1.89812678               -5.90996258               21.26160305              -13.55835977
              17.10942858                1.34762981               58.50535273                0.00010000                2.18087955               -1.10326407               -3.26568126               -6.40083646               21.79801227              -13.09932476
              18.13349007                0.16314112               58.25194189                0.00010000                2.58611512               -0.63662022               -4.62106700               -5.92088612               22.67336534              -12.44461951
              19.16115088               -1.02142439               58.01026648                0.00010000                2.82304674                0.06035357               -5.83008121               -4.44203448               27.92397359              -10.38452853
              20.18995100               -2.19945982               57.86122388                0.04434425                2.46482926                0.97457705               -6.29231780               -2.54336074               25.69952426               -7.31243784
              21.21044747               -3.37023438               57.57301868                0.16862494                1.78591955                2.40384024               -4.78357424               -0.93217960               10.30713528               -4.50581035
              22.22566939               -4.52909682               57.11384070                0.63494728                1.52219246                4.14439928               -6.37397811               -0.62074350                1.78400213              -15.63967997
              13.20061334                8.07022344               60.03517854                0.70498052               -0.60006855               -1.02118425                2.99446798               -0.09144260                0.08477294                5.42423191
              14.19461266                6.96383475               59.50462174                0.16497925               -0.52194584               -0.17505002                1.00351535                0.21794738                2.76777176               -5.27115680
              15.19017442                5.86042099               59.02811703                0.00010000               -0.16742923                0.92423216                0.03663271               -2.67318386               19.96640199              -16.94175113
              16.19126407                4.69037189               58.84313502                0.00010000                0.64864476                0.27448921               -1.29145495               -5.99436418               33.48123485              -14.49897441
              17.20314732                3.51847315               58.64215964                0.00010000                1.67053952               -0.19065880               -2.78253251               -6.44500293               32.54386931              -13.38316631
              18.22467486                2.34052378               58.44225110                0.00010000                2.53750729               -0.25301256               -4.36657274               -6.80181943               32.75442924              -12.67022319
              19.25389747                1.15933384               58.24768354                0.00010000                3.21048289                0.04522898               -5.96162130               -6.49474858               33.78884261              -12.03797365
              20.28888452               -0.01908384               58.06899439                0.00010000                3.62281822                0.66592979               -7.41642584               -5.36306329               34.69776439              -11.68510840
              21.32635383               -1.18766302               57.89121611                0.04679104                3.36406550                1.72772438               -8.54727192               -3.31149361               34.04178549              -15.69198300
              22.35616583               -2.33750955               57.69651911                0.16931129                2.26158964                3.86994508               -8.28702781               -0.91220318               17.46754146              -14.34654873
              23.37158562               -3.47264044               57.18498448                0.63421784                1.54197934                5.92377932               -9.72738763                0.38517035                1.74784507              -24.42709543
              14.30191450                9.06073502               59.89018388                0.69979141               -0.44347614               -0.88262733                2.60003390               -0.08890409                0.09409208                5.46160586
              15.29747973                7.96293213               59.30692802                0.15840100               -0.32145810               -0.00236340                0.35347272                0.22396274                3.33743945               -5.05593346
              16.29548533                6.86827046               58.78882777                0.00010000                0.07521276                0.81849729               -0.35127257               -3.26733814               26.02821394              -13.92517464
              17.29898399                5.69664192               58.66149535                0.00010000                0.76676004                0.83652565               -1.85432126               -7.06415188               44.72400849              -13.45747191
              18.31082053                4.52121050               58.52458701                0.00010000                1.67737556                0.64429263               -3.54812962               -7.36476089               43.77856865              -12.53734664
              19.33253150                3.34256956               58.38372951                0.00010000                2.61910884                0.63413606               -5.37185405               -7.50076220               43.52494297              -11.81381141
              20.36320271                2.16404570               58.24510168                0.00010000                3.41774884                0.92390905               -7.25907534               -7.09169903               43.76273921              -11.29230657
              21.40088648                0.99189420               58.11032118                0.00010000                3.94720638                1.57308939               -9.13159382               -5.82193478               44.14352047              -11.34751662
              22.44214684               -0.16490533               57.97876698                0.05130309                3.81471757                2.73832228              -10.91439436               -3.27263853               42.65503479              -11.17086368
              23.47718083               -1.29283548               57.81285039                0.17526473                3.07438786                4.62016641              -10.80554040               -0.79843885               21.49620999              -12.70019845
              24.50363460               -2.41062124               57.25351312                0.63779847                2.64537672                6.11958746              -12.46276410                0.60538037                2.26678924              -22.57960534
              15.39444105               10.05257089               59.74622648                0.69454407               -0.28845737               -0.75279352                2.21225951               -0.08797609                0.09710098                5.50631723
              16.39155647                8.96378748               59.11059082                0.15160208               -0.16615899                0.17434456               -0.28788112                0.15572994                4.51105195               -4.93697544
              17.39111787                7.87679093               58.56341925                0.00010000                0.27422585                0.92302199               -0.62128878               -3.74168802               32.69782340              -12.80923834
              18.39704099                6.70710241               58.49420702                0.00010000                0.94032960                1.21026067               -2.27373388               -7.91694627               55.71135292              -12.05725633
              19.40992446                5.53135900               58.41657602                0.00010000                1.73917137                1.27343912               -4.16776071               -8.18750307               54.70575637              -11.25548746
              20.43182442                4.35320650               58.33404890                0.00010000                2.64071930                1.39391392               -6.23254460               -8.10568404               54.18411578              -10.45969836
              21.46273885                3.17781202               58.25044934                0.00010000                3.47862164                1.74700798               -8.42111874               -7.44019219               54.09063426               -9.74744785
              22.50139685                2.01237795               58.16835102                0.00010000                4.14459494                2.41085709              -10.68810733               -5.85860288               54.23379771               -9.00079682
              23.54563074                0.86710342               58.08797383                0.05586169                4.22580559                3.43925192              -12.96700915               -2.91479746               51.57512531               -8.04658295
              24.58591296               -0.24510622               57.95160090                0.18132991                3.68169980                4.78142339              -12.34009316               -0.46470431               25.52577390               -9.63993175
              25.61926474               -1.35024870               57.34331215                0.64132320                3.33517776                5.90136151              -14.18415580                0.45938962                2.55636183              -19.53212950
              16.47772179               11.04567915               59.60274685                0.68940342               -0.13475015               -0.62725483                1.82742691               -0.08744110                0.10074817                5.50074444
              17.47637429                9.96641902               58.91513106                0.14502423               -0.01925719                0.35332433               -0.92443395                0.04472084                6.05702509               -4.86101811
              18.47733665                8.88673090               58.34672398                0.00010000                0.48513534                1.04531777               -0.73768318               -4.13424397               39.88788327              -11.93299942
              19.48607700                7.72084713               58.33901157                0.00010000                1.18148661                1.46007009               -2.53430341               -8.47888795               66.86411976              -10.72915537
              20.50096638                6.54667928               58.32134243                0.00010000                1.89439006                1.65374549               -4.61320544               -8.67874395               65.64935378               -9.68894651
              21.52396480                5.37044784               58.29739478                0.00010000                2.71305174                1.91180843               -6.89549910               -8.34607238               64.95240392               -8.69603062
              22.55522742                4.19898586               58.27122113                0.00010000                3.52291079                2.36371254               -9.34905679               -7.42593090               64.73831422               -7.62161085
              23.59442301                3.04011134               58.24607122                0.00010000                4.30538209                3.00701987              -11.94581586               -5.65649212               64.86955971               -6.29946062
              24.64133506                1.90387971               58.22332237                0.06058890                4.54079238                3.78223159              -14.61104746               -2.58391286               60.61676405               -4.56326402
              25.68523886                0.80279298               58.11186474                0.18744876                4.08861421                4.69609641              -13.11197597               -0.27251590               29.31253591               -6.68238010
              26.72310734               -0.29259401               57.45461883                0.64491529                3.78684794                5.60478478              -15.15128619                0.35401161                2.76528778              -16.52582798
              17.55121249               12.04002579               59.45921728                0.68413769                0.01866532               -0.50438084                1.44254199               -0.08784092                0.10414265                5.44048203
              18.55139914               10.97085397               58.72004010                0.13839125                0.13961910                0.53532505               -1.55969786               -0.13329743                8.01518894               -4.82252097
              19.55400487                9.89769729               58.13906467                0.00010000                0.80578515                1.07177596               -0.67467225               -4.52744702               47.66409472              -10.93614305
              20.56751485                8.73630381               58.19664284                0.00010000                1.63720007                1.46055888               -2.61778035               -8.74603647               78.27062742               -9.21717740
              21.58674887                7.56443391               58.24088588                0.00010000                2.25407738                1.69003202               -4.85959685               -8.64814334               76.71892973               -7.87676644
              22.61259639                6.39144267               58.27667872                0.00010000                2.89039258                2.12275641               -7.31516598               -7.96225712               75.84773636               -6.68664160
              23.64455672                5.22508627               58.30982364                0.00010000                3.53883816                2.75856927               -9.97770825               -6.89063613               75.65861678               -5.34863807
              24.68337316                4.07251835               58.34549308                0.00010000                4.33570606                3.42278581              -12.84540196               -5.24322844               75.98538391               -3.53754153
              25.73127085                2.94274806               58.38607615                0.06521887                4.67816033                3.95335083              -15.86887890               -2.39817587               69.61496245               -1.03886473
              26.77693636                1.84881571               58.29271538                0.19363863                4.29240560                4.45212213              -13.27708180               -0.23762927               32.73425558               -3.83798285
              27.81711896                0.76184700               57.58659799                0.64847216                4.01825947                5.27471925              -15.52045483                0.24878542                2.89865294              -13.58477303
              18.61430863               13.03559153               59.31500108                0.67902986                0.17282218               -0.38290554                1.05459858               -0.08937066                0.12986999                5.39033744
              19.61603685               11.97712552               58.52494113                0.13187450                0.35146210                0.72161596               -2.19693431               -0.45991295               10.52595207               -4.88489611
              20.62133787               10.90816642               57.94267850                0.00010000                1.41913997                0.80594461               -0.40798680               -5.06615826               56.22419752               -9.49961094
              21.64441965                9.75005831               58.07028775                0.00010000                2.57633932                0.91235488               -2.52496066               -8.46993019               89.96867009               -7.19406361
              22.67286466                8.58047992               58.17801354                0.00010000                2.98238236                1.26579255               -4.89782266               -7.64654262               87.82144165               -5.72384012
              23.70406729                7.41290297               58.27334304                0.00010000                3.17371787                2.04850903               -7.45703825               -6.57027647               86.67224122               -4.55309561
              24.73633901                6.25415724               58.36586714                0.00010000                3.39146824                2.98969486              -10.25246469               -5.54472395               86.64389058               -3.24149176
              25.77189666                5.10856706               58.46482750                0.00010000                4.03675823                3.86199643              -13.34691458               -4.40928892               87.51223634               -1.27520687
              26.81707418                3.98294673               58.57521825                0.07016368                4.47453366                4.21206206              -16.74347029               -2.41786850               78.57419783                2.04648286
              27.86138733                2.89183543               58.49308950                0.19975161                4.24731458                4.12207959              -12.95665529               -0.43483161               35.79735608               -1.02258205
              28.90202047                1.81290038               57.73883087                0.65201004                4.06331357                4.91935213              -15.39790572                0.14408373                3.00629416              -10.73947433
              19.66635711               14.03236768               59.17087276                0.67387100                0.32688950               -0.25849348                0.66576768               -0.09068670               -0.08283935                4.68924391
              20.66962600               12.98528629               58.32804911                0.12538684                0.66959041                0.90720652               -2.84423808               -1.14863973               13.89890271               -4.38844117
              21.67974891               11.91381618               57.76462924                0.00010000                2.80883673               -0.36816141                0.05695716               -4.87053658               66.07251225               -6.48401840
              22.72580274               10.75455091               57.96761241                0.00010000                4.56122245               -0.47376437               -2.31833165               -6.26063658              101.86616655               -4.19439310
              23.77097336                9.58974976               58.13681175                0.00010000                4.08554036                0.61186927               -4.73787580               -4.86316604               98.54688186               -3.08093804
              24.80751354                8.43241285               58.28824484                0.00010000                3.35123961                1.84943030               -7.29220083               -3.81263944               96.99174050               -2.33324243
              25.83799815                7.28488017               58.43642973                0.00010000                2.94421765                3.12147751              -10.11008213               -3.13322679               97.13257132               -1.49781578
              26.86639790                6.14975828               58.59587687                0.00010000                3.08234767                4.31799760              -13.33952069               -2.74150704               99.10001076               -0.12429191
              27.89964511                5.02698930               58.78309218                0.07517128                3.59440929                5.01141723              -17.19439172               -2.03992924               87.93252702                2.86891699
              28.93828608                3.93125730               58.71387211                0.20592977                3.91128124                3.76086361              -12.22312575               -0.99400845               38.80612535                1.17389903
              29.97787073                2.86023404               57.91004306                0.65566760                3.95846519                4.55483602              -14.85948759               -0.00963014                2.86688393               -7.21991662
              20.70665769               15.03042166               59.01298855                0.83524666                0.49578719               -0.19460208                0.20911826                0.51485649                2.12476728                3.98693118
              21.71161556               13.99526965               58.14216504                0.56072447                2.40024170                0.99833609               -3.43891358               -2.28196813               20.11923525               -3.79464431
              22.75466252               12.90080319               57.63088387                0.46729643                6.58288899               -1.30129928                0.36944256               -5.24297070               77.51268137               -4.62643717
              23.84327334               11.74058302               57.90102393                0.44537255                7.15384366               -1.39678818               -2.10845535               -3.65723382              112.63641272               -2.15182303
              24.89773939               10.59271731               58.12213943                0.43838765                4.47053807                0.29675484               -4.39048892               -1.85796947              108.18891661               -1.47659233
              25.93268410                9.44989157               58.32225133                0.44382918                2.92948280                1.74787278               -6.79421020               -1.28947011              106.28874633               -1.01280266
              26.95632905                8.31658679               58.51800511                0.46163569                2.11366453                3.17066272               -9.48041070               -0.91513882              106.31502669               -0.51881954
              27.97495739                7.19492701               58.72628400                0.49274778                1.92237590                4.51687362              -12.64777096               -0.81463681              108.81249599                0.31022076
              28.99477657                6.08317507               58.97325406                0.53935979                1.66525149                5.61857744              -16.71574220               -1.88056981               97.27397853                2.50586369
              30.00826242                4.96705270               58.94219100                0.60494404                2.45489083                3.57953982              -11.19715225               -1.96126499               44.38324364                2.32870736
              31.04387438                3.90399710               58.11569127                0.82897559                3.56119643                4.37630547              -13.90231104                0.29480476                5.34842383               -4.71927531
              10.22600766                5.31019020               61.52961061                0.90283833               -1.16691752               -1.30703050                4.44107959               -0.31603169               -3.25615439                3.72454987
              11.21433849                4.12760813               61.11393339                0.67109124               -1.09934392               -0.78437796                3.04386711               -0.29590488               -4.57968675               -2.54255069
              12.20402078                2.94059003               60.67253659                0.53596753               -1.05720270               -0.41778087                1.51817580               -0.45545460               -4.61806000               -0.78325197
              13.19319443                1.74004132               60.25668741                0.47486074               -0.96070402               -0.02860332                0.07577500               -0.44716406               -2.44136903               -0.46269018
              14.18480670                0.52095505               59.85859635                0.44501743               -0.54932570                0.37892230               -1.42192350               -0.36228582               -0.77736421               -0.29357182
              15.18220792               -0.71582839               59.47499994                0.44364855                0.17090737                0.79170730               -2.96067426               -0.24162124                0.21666795               -0.06383531
              16.18822485               -1.96340242               59.09528689                0.47044388                1.03375049                1.20020604               -4.49553821               -0.18606865                0.00263935                0.16736392
              17.20288293               -3.21231998               58.70593779                0.52612207                1.79452570                1.59146998               -5.97770084               -0.20084919               -1.23484066                0.36678490
              18.22411537               -4.45561238               58.30012368                0.61312432                2.35318669                1.97371359               -7.42345111               -0.21896800               -2.98899082                0.43726274
              19.24994666               -5.69034427               57.87418237                0.73505175                2.76116304                2.35129786               -8.88653730               -0.22339648               -3.59585398                1.07213234
              20.27933863               -6.91705192               57.45430100                0.91685559                2.93919633                2.80330073              -10.32128655               -0.57190755               -3.17196479               -2.56813044
              11.40542942                6.29711990               61.35931134                0.75385779               -0.92498927               -1.29265026                3.90030865               -0.14213969                1.80714983                4.99426663
              12.39617953                5.11976435               60.93767969                0.25322956               -0.60898883               -0.63484376                2.49952292               -0.25374193                4.51428026               -4.53348289
              13.39324964                3.93641222               60.57078198                0.01243086                0.11803793                0.15573215                1.41576266               -1.13409767                7.80292189               -8.23498166
              14.39854028                2.73975529               60.21500138                0.00010000                0.79345310               -0.55226588                0.22572227               -2.17461178                9.13060784               -7.92467370
              15.40911870                1.52474427               59.87490803                0.00010000                1.17150792               -0.63318220               -0.96353949               -2.96426967               10.60583022               -7.58145948
              16.42197044                0.29208868               59.54905111                0.00010000                1.27456272               -0.35503040               -2.19112635               -3.31245276               11.46165738               -7.60517438
              17.43460996               -0.95140036               59.22634707                0.00010000                1.25044867                0.14924483               -3.41261819               -3.03271373               11.11998843               -7.45258847
              18.44697942               -2.19640528               58.89333974                0.00386928                1.31639377                0.75229800               -4.58239475               -2.16594683                9.76138223               -6.12854116
              19.46093783               -3.43587525               58.54248631                0.13228227                1.57265251                1.44564369               -5.72826181               -1.02000781                8.20711543                0.96371625
              20.47843247               -4.66683130               58.17705398                0.31498710                1.96946804                1.99092789               -6.88787292               -0.35962723                5.70360592                3.38475455
              21.50032719               -5.88901891               57.77465364                0.73157099                2.18947282                2.79195352               -8.16184054               -0.61437907                3.93599313               -4.75938661
              12.57787596                7.28433720               61.21528165                0.69959411               -0.79046366               -1.20723666                3.52872724               -0.11457216                0.27438931                5.97925723
              13.56997133                6.11491126               60.72206931                0.16091722               -0.82640358               -0.37381329                1.70801281               -0.05113539                4.81891842               -6.09140065
              14.56134789                4.94370467               60.32027096                0.00010000               -0.43005887                0.89087281                0.63456842               -2.43571877               14.59393143              -17.62157199
              15.56137015                3.72899601               60.02400755                0.00010000                0.59200145               -0.55037680               -0.57743990               -5.26233349               20.57761425              -15.53367801
              16.57318792                2.50829140               59.74511924                0.00010000                1.53666746               -1.11766035               -1.99292474               -6.12563580               21.59465103              -14.97680080
              17.59210350                1.27707100               59.47164163                0.00010000                2.14383080               -1.05810826               -3.47628153               -6.59212855               22.08820344              -15.05456711
              18.61606454                0.03958247               59.20406020                0.00010000                2.59676883               -0.57012874               -4.96217605               -6.06352068               23.01998373              -14.95351921
              19.64403887               -1.19727402               58.94957182                0.00010000                2.90383451                0.19042256               -6.33344113               -4.49667034               28.64086196              -13.41145123
              20.67414123               -2.42669951               58.79380986                0.03686263                2.59294542                1.22540391               -7.27338679               -2.58781883               28.04793800              -10.62236016
              21.69589778               -3.65052572               58.52428622                0.15545052                1.86425241                2.84149448               -5.00118792               -0.95605344               12.21708512               -7.51457763
              22.71142627               -4.86121285               58.04899936                0.62581757                1.55284917                4.59950078               -6.62561058               -0.54222609                1.97095272              -18.99660198
              13.74198986                8.27297516               61.06566506                0.69331907               -0.62005164               -1.06120221                3.10417222               -0.09441683                0.08853939                5.68774517
              14.73578934                7.11228809               60.51477144                0.15239107               -0.57696720               -0.17519189                1.02699024                0.20316495                3.35072669               -5.52844746
              15.73045052                5.95422968               60.02952216                0.00010000               -0.35412297                0.90565274                0.28138269               -2.76941534               20.82518216              -17.24216400
              16.72870688                4.72874775               59.83038515                0.00010000                0.40402391                0.33225266               -1.24006048               -6.20465320               33.95836290              -15.29213496
              17.73853099                3.50239106               59.61366985                0.00010000                1.50649591               -0.09705231               -2.90673677               -6.64554227               32.86512628              -14.69573674
              18.75883680                2.27092652               59.39701961                0.00010000                2.45767845               -0.11158549               -4.67876325               -6.96559586               32.99055164              -14.54470902
              19.78768456                1.03719706               59.18552292                0.00010000                3.22455937                0.25182238               -6.48149769               -6.58648063               34.05261275              -14.51927992
              20.82332799               -0.19259683               58.99115412                0.00010000                3.73742962                0.97295196               -8.18824422               -5.34298210               35.20445473              -14.83364610
              21.86243315               -1.41136717               58.80158338                0.03947913                3.52483735                2.18503067               -9.46165161               -3.18419602               35.37494145              -19.74933848
              22.89382474               -2.61000141               58.60712776                0.15621681                2.42118896                4.71644775               -9.73616482               -0.79288080               18.79101172              -19.71072292
              23.91085693               -3.79702889               58.08172224                0.62530277                1.70321977                6.78846770              -11.03927859                0.58473982                2.45754145              -30.01038472
              14.89736178                9.26311315               60.91666922                0.68841823               -0.45816720               -0.91703002                2.69820394               -0.09179741                0.09821723                5.73649315
              15.89278011                8.11140742               60.31045619                0.14594982               -0.39309350                0.00249085                0.35270777                0.17513847                4.21645561               -5.30425520
              16.88949991                6.96181773               59.78690364                0.00010000               -0.18322071                0.79271574                0.02467563               -3.38310998               27.19792517              -14.12490127
              17.88911570                5.73564106               59.64339863                0.00010000                0.42991991                0.90327731               -1.73996162               -7.23255273               45.21292498              -14.12069517
              18.89809831                4.50635036               59.48835779                0.00010000                1.44349417                0.78673640               -3.68652409               -7.52545618               44.07311980              -13.71967991
              19.91798558                3.27483929               59.32804065                0.00010000                2.48799766                0.85947524               -5.76502271               -7.61108955               43.68769434              -13.56107892
              20.94785827                2.04461892               59.16924910                0.00010000                3.38789396                1.25274324               -7.92502219               -7.11883177               43.86424593              -13.66592773
              21.98574346                0.82218502               59.01445854                0.00010000                4.00018091                2.03426183              -10.08342464               -5.73031685               44.27792786              -14.45570503
              23.02786188               -0.38299889               58.86388141                0.04368525                3.99792161                3.39582229              -12.17009051               -2.97882500               43.65880848              -15.21129574
              24.06570189               -1.55619676               58.69486241                0.16194030                3.46570818                5.52678034              -12.97191625               -0.53878324               22.74609899              -16.87833688
              25.09717605               -2.72544349               58.11940009                0.62869318                3.14741547                7.07163224              -14.52151403                0.82498950                2.99902393              -27.15377853
              16.04356538               10.25463456               60.76878344                0.68355721               -0.29778442               -0.78202230                2.29946850               -0.09165299                0.10084346                5.78452406
              17.04058754                9.11233790               60.10758392                0.13960921               -0.25053545                0.18496271               -0.31308322                0.07007227                5.74370024               -5.17720095
              18.03855467                7.97008399               59.55943260                0.00010000               -0.05321696                0.89971364               -0.11795846               -3.86284514               34.25081653              -12.89135496
              19.03952320                6.74681330               59.47220183                0.00010000                0.51344827                1.28446604               -2.09782706               -8.02676607               56.23598826              -12.58305886
              20.04882364                5.51812579               59.37414228                0.00010000                1.44116242                1.44826691               -4.30831443               -8.27781659               54.99179204              -12.27962685
              21.06834645                4.28811602               59.26945608                0.00010000                2.45692785                1.68571249               -6.68573404               -8.12347863               54.28811918              -12.02369068
              22.09796220                3.06225193               59.16241436                0.00010000                3.39965094                2.17794671               -9.20066793               -7.34592084               54.05096681              -11.90975517
              23.13633947                1.84808841               59.05605496                0.00010000                4.16381206                3.00880601              -11.81822337               -5.59038445               54.12079081              -11.84846606
              24.18123844                0.65654928               58.95142623                0.04806096                4.45771018                4.23524115              -14.46311141               -2.41063528               52.73934976              -11.65759759
              25.22549367               -0.49946580               58.81609487                0.16775150                4.23058754                5.68033282              -14.97769940               -0.10114597               27.10592107              -12.79107816
              26.26585019               -1.65559625               58.18987571                0.63208529                4.03565178                6.84584457              -16.69594205                0.62507169                3.34464971              -23.06277447
              17.18012205               11.24747271               60.62140346                0.67860775               -0.13899181               -0.65253661                1.90427586               -0.09177844                0.10495971                5.77990417
              18.17873213               10.11510667               59.90564030                0.13325992               -0.11772178                0.37046592               -0.97360640               -0.07955685                7.71907520               -5.09796434
              19.17776761                8.97981200               59.34224732                0.00010000                0.09032236                1.02437352               -0.08610993               -4.26586848               41.90232304              -11.85449144
              20.18053858                7.76133038               59.31475405                0.00010000                0.67358240                1.53103222               -2.29262164               -8.51849432               67.44362101              -11.09437753
              21.19123926                6.53531570               59.27451453                0.00010000                1.54256480                1.84369612               -4.74424434               -8.67278972               65.96201498              -10.52501829
              22.21138987                5.30855354               59.22599290                0.00010000                2.48640996                2.24561884               -7.38587037               -8.23834151               65.04699783              -10.02239910
              23.24096746                4.08817785               59.17349634                0.00010000                3.41242730                2.86239130              -10.21096114               -7.17217088               64.63193502               -9.48142025
              24.27963842                2.88236114               59.12057737                0.00010000                4.31179634                3.68711024              -13.19963512               -5.19295279               64.62961912               -8.75766901
              25.32720339                1.70170593               59.06963836                0.05251130                4.80930409                4.63793826              -16.24896057               -1.92875212               62.22126779               -7.68652278
              26.37582450                0.55740990               58.96731780                0.17353740                4.73674980                5.59400604              -16.05040701                0.12566039               31.42946035               -8.99519667
              27.42193838               -0.58852660               58.29020888                0.63555566                4.61138815                6.55582472              -17.95677924                0.47948974                3.60668244              -19.24025551
              18.30646188               12.24158383               60.47397840                0.67362725                0.01952239               -0.52637797                1.50981156               -0.09236515                0.10819252                5.71792878
              19.30665711               11.11974722               59.70407180                0.12706354                0.02758552                0.55951394               -1.63359922               -0.30036492               10.20461013               -5.05998368
              20.30701360                9.99057146               59.13607892                0.00010000                0.34962545                1.03791501                0.14326979               -4.66660287               50.22851359              -10.66701853
              21.31364962                8.77743395               59.17194967                0.00010000                1.05655446                1.50971727               -2.30379185               -8.70331325               78.91812325               -9.40932540
              22.32814468                7.55499971               59.19173648                0.00010000                1.85339203                1.88162739               -4.96728324               -8.52864530               77.10724204               -8.50320727
              23.35071746                6.33302840               59.20103304                0.00010000                2.62832462                2.47567836               -7.81619852               -7.73143519               76.00046415               -7.73016074
              24.38071118                5.11949975               59.20560252                0.00010000                3.41174389                3.27965118              -10.87961111               -6.49391753               75.56255845               -6.83754818
              25.41895234                3.92183061               59.21065924                0.00010000                4.34517320                4.12739067              -14.16259702               -4.61847439               75.68397904               -5.54469663
              26.46761464                2.74930804               59.21947074                0.05710271                4.96435359                4.82589159              -17.55502334               -1.65117957               71.81639935               -3.67241045
              27.51823941                1.61241432               59.14591732                0.17932604                4.98491679                5.34403944              -16.37939467                0.16063091               35.51844744               -5.43620540
              28.56731298                0.47552024               58.41786841                0.63892855                4.90735687                6.23516015              -18.49616097                0.33677148                3.77882463              -15.58827421
              19.42194797               13.23694515               60.32583154                0.66885196                0.17892333               -0.40231112                1.11127697               -0.09423992                0.13420110                5.66466381
              20.42373720               12.12629695               59.50247531                0.12080096                0.24004310                0.75361114               -2.29500209               -0.68872902               13.34285824               -5.12773462
              21.42674883               11.00057030               58.94317339                0.00010000                0.91534298                0.72307569                0.57217745               -5.19186457               59.43433085               -9.03025411
              22.44204406                9.79152473               59.04697346                0.00010000                1.91615360                0.93369706               -2.13652719               -8.29542064               90.70470968               -7.24462585
              23.46507190                8.57294824               59.12869427                0.00010000                2.51085347                1.47916736               -4.96763184               -7.43268657               88.34958129               -6.13630513
              24.49226113                7.35806711               59.19637965                0.00010000                2.86074951                2.40720820               -7.93826035               -6.28099312               86.96890820               -5.27752046
              25.52228689                6.15377088               59.25891831                0.00010000                3.25997548                3.48825584              -11.14608630               -5.09561073               86.62704247               -4.29781117
              26.55746064                4.96490895               59.32491812                0.00010000                4.06545977                4.51842113              -14.66042591               -3.71047591               87.17070491               -2.75226743
              27.60359609                3.79822376               59.39985023                0.06174216                4.76821390                5.05245146              -18.40620531               -1.61810200               81.42552545               -0.07142852
              28.65282492                2.66429068               59.34949739                0.18524468                4.94329394                4.99957771              -16.07627146               -0.06025969               39.30002284               -1.99001323
              29.70246197                1.53617660               58.57125557                0.64234861                4.96370485                5.86148646              -18.40402784                0.19153400                3.90218437              -12.09205277
              20.52587348               14.23353761               60.17775866                0.66370681                0.33838950               -0.27529347                0.71222747               -0.09513123               -0.08806821                4.92761294
              21.52925738               13.13481944               59.29898865                0.11470031                0.60375237                0.94730559               -2.96793487               -1.48136258               17.44456676               -4.60906101
              22.53794853               12.00503298               58.77064390                0.00010000                2.30529430               -0.60534090                1.16369332               -4.80285648               70.02746284               -5.99551666
              23.57536326               10.79610789               58.94672547                0.00010000                3.75000214               -0.34529915               -1.86423558               -6.00740146              102.70198656               -4.18915227
              24.61294857                9.58458306               59.08935088                0.00010000                3.44558493                0.87273040               -4.75994375               -4.64688958               99.32498401               -3.28666840
              25.64427496                8.38117256               59.21317138                0.00010000                2.95042714                2.21662813               -7.72370226               -3.60536751               97.54825429               -2.70760259
              26.67195711                7.18926487               59.33116771                0.00010000                2.80074871                3.57968832              -10.94415640               -2.81282408               97.29435433               -2.05423624
              27.70028994                6.01219904               59.45630965                0.00010000                3.19568786                4.86386190              -14.57900397               -2.18909591               98.69697313               -0.93792912
              28.73587087                4.85035707               59.60341791                0.06651880                3.93957190                5.67992269              -18.76812528               -1.37212395               91.37359594                1.53973479
              29.77908137                3.71240588               59.57805493                0.19120281                4.57504753                4.62160820              -15.23176355               -0.62425750               43.00453518                0.75520676
              30.82737182                2.59274997               58.74817817                0.64565515                4.82904491                5.44073524              -17.76925401               -0.00660340                3.73585806               -7.93493306
              21.61748168               15.23143928               60.01523685                0.83026572                0.51329076               -0.20983310                0.24121653                0.54119789                2.23238473                4.19026948
              22.62261458               14.14524306               59.10704572                0.55554503                2.59607907                1.04236190               -3.58628661               -2.81306905               24.33079876               -3.98823265
              23.66940326               12.98846348               58.64047497                0.46602256                5.98656818               -1.65694938                1.51809934               -4.88574306               82.17458371               -4.18121153
              24.74234595               11.78461874               58.88239446                0.44526418                5.88330891               -1.14891438               -1.62205131               -3.20476304              113.75800473               -2.13534205
              25.78706944               10.59040285               59.07839857                0.43842304                3.65630123                0.58197903               -4.36720584               -1.69886719              109.38638215               -1.56848040
              26.81547197                9.40239967               59.25250571                0.44358643                2.39672499                2.12271083               -7.15255042               -1.13220919              107.25314729               -1.19200933
              27.83500394                8.22536464               59.41951004                0.46068872                1.85572731                3.60997752              -10.21001504               -0.70599169              106.82488023               -0.79304411
              28.85258652                7.06218619               59.59423624                0.49045230                2.04714172                4.99871558              -13.74843789               -0.44746315              108.54242778               -0.10593019
              29.87594677                5.91182221               59.79895390                0.53496146                2.26801744                6.14651415              -18.11693910               -1.26557736              101.01430202                1.69670276
              30.89794687                4.75672285               59.81756005                0.59750732                3.28474666                4.43169720              -13.98333134               -1.45499597               49.00653553                2.23817172
              31.94164170                3.64499131               58.96432709                0.82394805                4.36948360                5.22413322              -16.58379117                0.25383393                6.29882660               -5.04426407
              10.61540595                5.52118144               62.57475333                0.89475256               -1.20516476               -1.35093806                4.58972987               -0.32907888               -3.40006637                3.87715376
              11.60335430                4.28049571               62.14484212                0.66106144               -1.13441279               -0.80762496                3.13842811               -0.31112282               -4.78993297               -2.67724784
              12.59271769                3.03515514               61.68790041                0.53163031               -1.06815786               -0.43189068                1.55399519               -0.45088890               -4.85501331               -0.75568502
              13.58199114                1.77629831               61.25733588                0.47340957               -0.93174182               -0.02523314                0.05524586               -0.43854675               -2.66922445               -0.47178209
              14.57408285                0.49939294               60.84398382                0.44476429               -0.48913508                0.39622253               -1.49826985               -0.35403508               -1.05910460               -0.29644291
              15.57220844               -0.79439894               60.44472394                0.44341188                0.24385333                0.82428153               -3.09246797               -0.24210009               -0.08835498               -0.06753215
              16.57895992               -2.09823846               60.04938169                0.46890834                1.10534027                1.24796235               -4.68481217               -0.19092963               -0.27536578                0.16268343
              17.59431524               -3.40304194               59.64491780                0.52230901                1.86782266                1.65461729               -6.22515306               -0.20254409               -1.46667077                0.36744317
              18.61631637               -4.70208421               59.22434249                0.60549512                2.43967526                2.05177934               -7.72771685               -0.21828464               -3.20998483                0.43959727
              19.64310875               -5.99245312               58.78345215                0.72171745                2.86905849                2.44580127               -9.25282599               -0.22594505               -3.81091774                1.08441958
              20.67369754               -7.27454002               58.34893199                0.90780990                3.05887931                2.91255018              -10.74533025               -0.59882775               -3.37443674               -2.69757099
              11.85280088                6.50767206               62.39895657                0.73983312               -0.95446621               -1.33956557                4.03015992               -0.15163458                1.94424350                5.23413427
              12.84325622                5.27241946               61.96306075                0.23644716               -0.62466875               -0.64911761                2.57662055               -0.27413653                4.81255788               -4.79497108
              13.84030751                4.03083623               61.58512092                0.00637241                0.11152781                0.17295276                1.45022609               -1.18323207                8.21156095               -8.54286160
              14.84548677                2.77604597               61.21722669                0.00010000                0.77918101               -0.56017495                0.21902574               -2.29223880                9.49085280               -8.40851594
              15.85589113                1.50335516               60.86502419                0.00010000                1.15581820               -0.63335499               -1.01397427               -3.10767682               10.95253880               -8.34541212
              16.86860314                0.21384387               60.52668893                0.00010000                1.27404988               -0.35155425               -2.28415052               -3.45353732               11.79454976               -8.67647328
              17.88137212               -1.08575884               60.19156032                0.00010000                1.28047693                0.15666713               -3.54847394               -3.16700054               11.48017569               -8.84169098
              18.89421268               -2.38649577               59.84665632                0.00010000                1.37334981                0.77870680               -4.76056581               -2.29521783               10.15527213               -7.80900249
              19.90883912               -3.68156641               59.48414350                0.12084301                1.64322646                1.55400596               -5.94482064               -1.08101767                8.60252001               -0.89128754
              20.92707721               -4.96799511               59.10690987                0.29498902                2.04785213                2.09267012               -7.14463557               -0.36785913                6.03416095                3.31009538
              21.94979616               -6.24541452               58.69153377                0.71795787                2.27189560                2.92212762               -8.46625395               -0.64370905                4.21124394               -5.22908565
              13.08287844                7.49439013               62.25118315                0.68783014               -0.81710485               -1.25406418                3.65096913               -0.11915176                0.26152803                6.27727515
              14.07470739                6.26751336               61.73938889                0.14790824               -0.87259499               -0.37702715                1.75641195               -0.06310276                5.19915010               -6.42154682
              15.06542654                5.03861420               61.32687254                0.00010000               -0.55399779                0.90543986                0.69294400               -2.58308528               15.28317943              -18.00803768
              16.06362743                3.76509481               61.01831509                0.00010000                0.43524384               -0.54539307               -0.55059555               -5.55457462               21.04923690              -16.43821906
              17.07413142                2.48672584               60.72473970                0.00010000                1.43121300               -1.10176485               -2.07737620               -6.43002838               21.89433588              -16.46361788
              18.09225169                1.19856997               60.43582710                0.00010000                2.09140672               -1.03066485               -3.68273548               -6.89006397               22.33019220              -17.17160063
              19.11595955               -0.09510512               60.15269837                0.00010000                2.59833848               -0.52409129               -5.31050154               -6.32973471               23.28711798              -17.73259809
              20.14421846               -1.38746780               59.88359766                0.00010000                3.01179073                0.29261438               -6.87323343               -4.65992448               29.07769000              -16.85063639
              21.17619536               -2.67100409               59.71575615                0.02963241                2.76906038                1.44225348               -8.39099300               -2.70460113               30.59989988              -14.45441163
              22.19959967               -3.95059972               59.47299493                0.14227727                1.97334058                3.28474610               -5.30097844               -1.01616904               14.59709078              -11.31330070
              23.21566218               -5.21609747               58.98132849                0.61699299                1.60625046                5.10828227               -6.93266564               -0.46220777                2.22189682              -23.05961426
              14.30417137                8.48259077               62.09726198                0.68208641               -0.64012801               -1.10218114                3.21333270               -0.09986220                0.09116306                5.96502054
              15.29777009                7.26487892               61.52516155                0.13986223               -0.65535089               -0.17394112                1.05132204                0.16106456                4.10528361               -5.79647153
              16.29106436                6.04894503               61.03374468                0.00010000               -0.57432270                0.86238936                0.60487762               -2.93329787               21.78889640              -17.38855924
              17.28628364                4.76513811               60.81833381                0.00010000                0.13755171                0.36582636               -1.15307253               -6.47321307               34.32809637              -16.05568345
              18.29381539                3.48131987               60.58402490                0.00010000                1.31745888               -0.01906877               -3.01266290               -6.91990194               33.09502659              -16.07221969
              19.31263282                2.19323058               60.34867583                0.00010000                2.34999086                0.01707661               -4.98364466               -7.22090763               33.12016905              -16.57313725
              20.34081521                0.90375934               60.11805359                0.00010000                3.21401702                0.44704151               -7.01259094               -6.78819344               34.16415208              -17.25341845
              21.37691316               -0.38064348               59.90522951                0.00010000                3.85319043                1.26735307               -9.01798533               -5.44432100               35.56281243              -18.33478373
              22.41787902               -1.65272135               59.70198308                0.03209352                3.74670240                2.60149975              -10.51982114               -3.14664657               36.37864465              -24.10940678
              23.45184721               -2.90230019               59.50179582                0.14323065                2.68342420                5.56151978              -11.48587061               -0.67715360               19.96521391              -26.32978645
              24.47154750               -4.14324887               58.96419891                0.61657478                1.97002944                7.71235928              -12.60802685                0.84900793                3.43936810              -36.77161098
              15.51630490                9.47234650               61.94414796                0.67718166               -0.47304748               -0.95318236                2.79674758               -0.09691731                0.10160179                6.02576785
              16.51157442                8.26403454               61.31398218                0.13377085               -0.49017540                0.00902117                0.35267881                0.07633498                5.36191458               -5.56389642
              17.50650139                7.05586198               60.78932128                0.00010000               -0.48930432                0.73375598                0.50303793               -3.55856383               28.53218856              -14.22895748
              18.50178834                5.77241133               60.62669611                0.00010000                0.05697605                0.94738516               -1.57873705               -7.43750415               45.52819569              -14.75852227
              19.50764091                4.48634446               60.45085653                0.00010000                1.18028676                0.91449282               -3.80397350               -7.74045829               44.22247099              -14.96514051
              20.52539407                3.19891151               60.26842906                0.00010000                2.32144131                1.07749293               -6.14998436               -7.79134201               43.69710796              -15.45518421
              21.55406974                1.91383571               60.08660124                0.00010000                3.32093263                1.58051699               -8.60490278               -7.23440769               43.77916443              -16.27650962
              22.59181273                0.63787926               59.90865269                0.00010000                4.04247032                2.49666396              -11.10290446               -5.74610845               44.16791148              -17.89171869
              23.63491914               -0.61897409               59.73536517                0.03625648                4.23857017                4.04579333              -13.62172684               -2.73748834               44.06434990              -19.74616611
              24.67658413               -1.83936933               59.55341206                0.14864718                3.98102792                6.44585052              -15.49450112               -0.25707460               23.63876345              -21.97377783
              25.71453970               -3.06185028               58.96308284                0.61977809                3.79555741                8.04679496              -16.93045361                1.10433167                3.94468504              -32.65236029
              16.71885695               10.46352713               61.79221585                0.67249076               -0.30756416               -0.81321165                2.38789953               -0.09465794                0.10503471                6.07920441
              17.71578131                9.26505934               61.10432915                0.12775209               -0.36703349                0.19686546               -0.33728199               -0.07847318                7.32611141               -5.42987530
              18.71151628                8.06362015               60.56106008                0.00010000               -0.43651186                0.85663865                0.49768747               -4.06027763               36.01989432              -12.86965204
              19.70705108                6.78408582               60.45225048                0.00010000                0.04948828                1.34002039               -1.87739743               -8.15582770               56.54321559              -13.09648516
              20.71250605                5.49960972               60.33040973                0.00010000                1.11318264                1.61201301               -4.43053636               -8.39892320               55.09467091              -13.36664971
              21.72931473                4.21478044               60.20033422                0.00010000                2.23266257                1.97556992               -7.13196116               -8.18555902               54.20619997              -13.72552590
              22.75715930                2.93536968               60.06643598                0.00010000                3.27430321                2.61667917               -9.99556027               -7.31393647               53.78280989              -14.29423398
              23.79480079                1.66928980               59.93198655                0.00010000                4.16092656                3.62372154              -13.02546414               -5.40572513               53.70941940              -15.01922393
              24.84037783                0.42819452               59.79871161                0.04037188                4.73905548                5.05394182              -16.18357740               -1.92860722               53.15584655              -15.69154039
              25.88958190               -0.77338318               59.65204692                0.15423234                4.91091064                6.62179639              -18.05455380                0.30829632               28.21872884              -16.70068255
              26.93859605               -1.98231297               59.00939331                0.62299358                4.90141434                7.82292342              -19.63414895                0.85297712                4.37165254              -27.33309094
              17.91134730               11.45608227               61.64083237                0.66792755               -0.14353667               -0.67854182                1.98189269               -0.09441288                0.10984816                6.07615842
              18.90991194               10.26797185               60.89565894                0.12170271               -0.25389674                0.38799713               -1.02216212               -0.27389983                9.83105895               -5.34710626
              19.90626937                9.07299476               60.34500178                0.00010000               -0.36148623                0.99053475                0.67069582               -4.47895609               44.19714702              -11.65560628
              20.90268221                7.79921174               60.29315914                0.00010000                0.13492297                1.59060352               -2.01917033               -8.56206793               67.75985796              -11.45203074
              21.90896783                6.51858472               60.22645754                0.00010000                1.16203643                2.02901471               -4.86523392               -8.67422675               66.07137592              -11.41840630
              22.92592294                5.23842290               60.14967737                0.00010000                2.21569087                2.58361316               -7.87219857               -8.14952602               64.93604028              -11.47142376
              23.95328164                3.96616929               60.06700191                0.00010000                3.24752187                3.37718310              -11.08862299               -6.95234126               64.27357559              -11.54097721
              24.99087338                2.71035369               59.98207851                0.00010000                4.28691676                4.39969317              -14.53419161               -4.78404171               64.07285063              -11.50148298
              26.03901998                1.48210474               59.89834316                0.04463149                5.11920870                5.54467282              -18.12487297               -1.26620847               62.98252166              -11.15454087
              27.09325755                0.29306660               59.79085660                0.15979399                5.52194278                6.56475967              -19.50929710                0.59145935               33.00184462              -11.94181968
              28.14945884               -0.90539181               59.09548324                0.62620840                5.62012841                7.56739019              -21.26094961                0.66401963                4.70810718              -22.58764691
              19.09318954               12.44995629               61.48941351                0.66325934                0.02012906               -0.54888582                1.57680975               -0.09580980                0.11235248                6.01115854
              20.09339083               11.27281929               60.68736811                0.11567056               -0.12461348                0.58410645               -1.70612514               -0.54426085               12.94326045               -5.30857389
              21.09069727               10.08343085               60.14193007                0.00010000               -0.15855405                1.00007974                1.03861930               -4.88322159               53.15364219              -10.27916325
              22.09021975                8.81589789               60.15056700                0.00010000                0.45565406                1.55891294               -1.98315806               -8.64650392               79.27080553               -9.58965570
              23.09981035                7.54019002               60.14154022                0.00010000                1.42599436                2.07773490               -5.07690533               -8.39814624               77.28715306               -9.17201800
              24.11873964                6.26645270               60.12035475                0.00010000                2.31856706                2.83956540               -8.31650201               -7.49890995               75.94627633               -8.87107780
              25.14618169                5.00291334               60.09223142                0.00010000                3.22224367                3.82332690              -11.79515855               -6.10546437               75.21087475               -8.48856796
              26.18318451                3.75728366               60.06224114                0.00010000                4.30795291                4.87588046              -15.55302520               -4.01599499               75.08145334               -7.78269418
              27.23234075                2.53908798               60.03497568                0.04897458                5.28615681                5.77331245              -19.47426271               -0.86931071               73.11059708               -6.57546603
              28.28890765                1.35791201               59.96512748                0.16539511                5.82262593                6.34154740              -20.05981921                0.63358773               37.68418594               -7.53146681
              29.34879327                0.16903483               59.21667477                0.62949145                5.98856231                7.30706855              -22.01332637                0.46672995                4.93059845              -18.10532478
              20.26370511               13.44510455               61.33722662                0.65862811                0.18470515               -0.42208294                1.16794048               -0.09774685                0.14052155                5.95532324
              21.26555216               12.27965398               60.47904109                0.10976843                0.09106132                0.78576862               -2.39171050               -0.99334703               16.80961496               -5.38317726
              22.26552634               11.09299635               59.95412205                0.00010000                0.37203991                0.65867112                1.57637406               -5.36999482               63.09442208               -8.46547469
              23.27299296                9.83039000               60.02755720                0.00010000                1.24618757                0.97244881               -1.77416697               -8.09705949               91.12054680               -7.26673966
              24.29045009                8.56013942               60.07866091                0.00010000                2.01142297                1.70610369               -5.05222872               -7.19795054               88.68244357               -6.56899269
              25.31322142                7.29521421               60.11457783                0.00010000                2.49456520                2.78410202               -8.42040151               -5.97907134               87.07846862               -6.06574411
              26.34034139                6.04263583               60.14294541                0.00010000                3.05787086                4.01451878              -12.04648552               -4.63888169               86.37833851               -5.46480924
              27.37437884                4.80787130               60.17161898                0.00010000                4.03320114                5.21989534              -16.02626816               -3.00810984               86.56336896               -4.38791832
              28.42100542                3.59757099               60.20709415                0.05339506                5.08018086                5.97961752              -20.25909994               -0.74713774               83.36569516               -2.38403938
              29.47598245                2.41989755               60.17156407                0.17089188                5.77711940                6.01933840              -19.82879845                0.39437188               42.16054367               -3.29006040
              30.53654780                1.24074956               59.37075031                0.63280452                6.05653488                6.97145143              -22.00134261                0.26260773                5.09049520              -13.79760578
              21.42213576               14.44151463               61.18511731                0.65378817                0.34963377               -0.29169479                0.76000013               -0.09887013               -0.09347190                5.18130794
              22.42563209               13.28853466               60.26869042                0.10424113                0.52127982                0.98684401               -3.09169796               -1.87345557               21.69962765               -4.84358319
              23.43256135               12.09660427               59.78790310                0.00010000                1.77516982               -0.77397695                2.21095365               -4.79543403               74.46665859               -5.45379343
              24.46113549               10.83534686               59.93032770                0.00010000                2.92328880               -0.19258973               -1.46590671               -5.73876539              103.21425682               -4.13636036
              25.49102713                9.57431209               60.04161288                0.00010000                2.77631549                1.15564425               -4.80684027               -4.41532128               99.93867684               -3.49804911
              26.51666180                8.32213474               60.13377079                0.00010000                2.48599233                2.60842644               -8.15374338               -3.38471107               97.96529354               -3.11080153
              27.54074697                7.08320371               60.21754660                0.00010000                2.57126777                4.07027051              -11.77175914               -2.48492225               97.27989576               -2.66334284
              28.56808715                5.86168157               60.30429679                0.00010000                3.23123854                5.45419631              -15.83892517               -1.62700672               98.09366172               -1.82789439
              29.60537174                4.65868033               60.40772968                0.05798825                4.27646826                6.42330806              -20.43400940               -0.63247000               93.94254876                0.11304339
              30.65361652                3.47829878               60.40923684                0.17660637                5.34848325                5.64541800              -18.87235309               -0.15894949               46.57389393                0.15666389
              31.71234141                2.30846386               59.55465798                0.63588923                5.87248905                6.50322143              -21.26058415                0.00495865                4.91285967               -8.83055017
              22.56768765               15.43927066               61.01781288                0.82522369                0.53057633               -0.22439731                0.27390053                0.56720956                2.34576285                4.40689199
              23.57299341               14.29939086               60.07043930                0.55030549                2.75589019                1.08561980               -3.73314800               -3.35156019               29.27162259               -4.19551276
              24.62280545               13.07751681               59.66124586                0.46495271                5.37582079               -1.90874564                2.55152792               -4.61822233               87.25001724               -3.65019305
              25.68050983               11.82653821               59.86858291                0.44497815                4.62751654               -0.88086566               -1.21368439               -2.77579120              114.60226294               -2.07882422
              26.71535579               10.58325231               60.03479531                0.43845432                2.80628733                0.89402151               -4.37361761               -1.52490740              110.48436198               -1.65650116
              27.73663558                9.34738274               60.17920032                0.44339441                1.78701657                2.52480023               -7.50156076               -0.96317542              108.15890882               -1.38083493
              28.75109612                8.12404124               60.31380481                0.45963243                1.48632558                4.08375292              -10.91114385               -0.48646162              107.24420951               -1.08589384
              29.76636209                6.91695522               60.45131524                0.48819071                2.03213436                5.52736537              -14.82755425               -0.07271110              108.17600978               -0.54796225
              30.79173880                5.72603715               60.61091528                0.53067630                2.83289236                6.73568245              -19.51329806               -0.57075984              103.98452530                0.88135299
              31.82301994                4.53280591               60.66252437                0.59025381                4.22890101                5.45071273              -17.32125172               -0.82081682               53.01813722                2.04783680
              32.87631682                3.37081398               59.78401544                0.81902598                5.32968891                6.23501271              -19.75585211                0.19834902                7.56580350               -5.44921782
              11.01782876                5.73932681               63.62140521                0.88690265               -1.24360093               -1.39540415                4.73947929               -0.34237344               -3.55191226                4.03490341
              12.00539275                4.43762591               63.17670195                0.65099825               -1.17010003               -0.83077522                3.23359771               -0.32721778               -5.00925738               -2.81659971
              12.99442676                3.13103530               62.70361649                0.52751375               -1.08331085               -0.44524404                1.58961495               -0.45127538               -5.10058422               -0.72826911
              13.98372653                1.81082407               62.25779233                0.47189139               -0.90951054               -0.02183046                0.03729540               -0.43173750               -2.90453634               -0.47941788
              14.97623655                0.47294546               61.82863095                0.44455304               -0.43417887                0.41346951               -1.57032092               -0.34958561               -1.34896278               -0.29904803
              15.97504295               -0.88110901               61.41315058                0.44318351                0.31435665                0.85650700               -3.21914817               -0.24433880               -0.40370198               -0.07139770
              16.98252368               -2.24450602               61.00159064                0.46767062                1.17728805                1.29551579               -4.86668733               -0.19471585               -0.56602233                0.15924814
              17.99858871               -3.60844815               60.58143473                0.51857461                1.94288195                1.71829625               -6.46322000               -0.20452508               -1.70959674                0.36786572
              19.02138132               -4.96642246               60.14556934                0.59778260                2.52750426                2.13077996               -8.02440083               -0.22082304               -3.44392077                0.44090732
              20.04913880               -6.31557133               59.68912585                0.70854635                2.97544437                2.53991639               -9.60844276               -0.23056000               -4.04096757                1.09830461
              21.08089021               -7.65620688               59.23939439                0.89907837                3.17514055                3.02097629              -11.15615736               -0.62214754               -3.59095814               -2.83485740
              12.31610592                6.72537277               63.43991453                0.72619919               -0.98395948               -1.38747618                4.15967618               -0.16214652                2.08654266                5.48452578
              13.30626632                5.42931816               62.98921210                0.21973334               -0.63954974               -0.66231944                2.65297488               -0.29588590                5.12124094               -5.06553051
              14.30331492                4.12658286               62.59978650                0.00043258                0.10938762                0.19424319                1.48397296               -1.25269349                8.63687479               -8.83347208
              15.30845408                2.81060576               62.21938190                0.00010000                0.76961536               -0.58497860                0.21068977               -2.43707534                9.86813378               -8.87475038
              16.31870723                1.47708015               61.85462854                0.00010000                1.14356142               -0.64635647               -1.06617972               -3.29118166               11.31364935               -9.13456030
              17.33132530                0.12745606               61.50336810                0.00010000                1.27694283               -0.36194487               -2.38149906               -3.64626490               12.14271384               -9.81905484
              18.34424609               -1.23155086               61.15537759                0.00010000                1.30881886                0.14716307               -3.68955208               -3.36042900               11.85547007              -10.35863412
              19.35750168               -2.59126519               60.79812842                0.00010000                1.42442947                0.77941052               -4.94653928               -2.48088073               10.56806458               -9.70456419
              20.37273468               -3.94511466               60.42358990                0.10950736                1.71118659                1.63975678               -6.17294816               -1.17731703                9.02155622               -3.26093748
              21.39172541               -5.29017216               60.03416127                0.27526851                2.12848045                2.19468268               -7.41307127               -0.38770058                6.38335889                3.14600865
              22.41530429               -6.62599712               59.60532856                0.70463261                2.35788724                3.05683025               -8.78128564               -0.66715189                4.50103307               -5.77248573
              13.60669504                7.71157728               63.28830103                0.67629902               -0.84301039               -1.30309992                3.77098466               -0.12437247                0.24724052                6.58830262
              14.59826494                6.42437952               62.75719755                0.13521318               -0.93048795               -0.37763952                1.80480253               -0.07555631                5.62307866               -6.76321027
              15.58808528                5.13492016               62.33412984                0.00010000               -0.68886035                0.87134466                0.77261465               -2.77568868               16.04004978              -18.23685188
              16.58448773                3.79912450               62.01299564                0.00010000                0.27386696               -0.56763526               -0.50595419               -5.91836617               21.53078416              -17.30648443
              17.59356262                2.46001833               61.70357172                0.00010000                1.31304709               -1.11251587               -2.15076440               -6.80450660               22.16496392              -18.00112318
              18.61074867                1.11165209               61.39798692                0.00010000                2.02368601               -1.02971209               -3.87890849               -7.28474474               22.53197901              -19.42950873
              19.63403634               -0.24156276               61.09785017                0.00010000                2.58931116               -0.51116581               -5.65340358               -6.71720936               23.47488529              -20.76139059
              20.66253489               -1.59285994               60.81210715                0.00010000                3.13528072                0.34588279               -7.42425059               -4.94557464               29.19744189              -20.69582703
              21.69674196               -2.93362732               60.62599000                0.02229387                2.98661790                1.59751644               -9.55787180               -2.90563364               33.32707775              -18.85658669
              22.72226725               -4.27167767               60.41826665                0.12941444                2.12275633                3.65789456               -5.71598037               -1.11275974               17.46544935              -16.03545084
              23.73919708               -5.59507028               59.91034604                0.60807288                1.69298291                5.58908273               -7.31302139               -0.36256959                2.57197759              -27.93677602
              14.88801399                8.69931077               63.12993171                0.67066434               -0.66016739               -1.14513187                3.32167662               -0.10302278                0.09556545                6.25635993
              15.88141232                7.42176537               62.53579788                0.12775806               -0.74789082               -0.17088201                1.07713173                0.06395652                5.07304940               -6.07547507
              16.87305618                6.14400975               62.04161971                0.00010000               -0.82118655                0.75015091                1.00286779               -3.15839215               22.86408869              -17.32987094
              17.86498859                4.79925306               61.80732370                0.00010000               -0.14833344                0.37147244               -1.04126841               -6.77616413               34.57033478              -16.77593700
              18.87008951                3.45482984               61.55341659                0.00010000                1.11114552                0.03221966               -3.10179635               -7.25695394               33.24568265              -17.49966699
              19.88721150                2.10686181               61.29734671                0.00010000                2.21622101                0.12125631               -5.27152581               -7.55848262               33.16169236              -18.73734420
              20.91441393                0.75822582               61.04527111                0.00010000                3.17216267                0.61345488               -7.53280724               -7.10138783               34.12951223              -20.22004979
              21.95065475               -0.58434753               60.81079441                0.00010000                3.95129065                1.52267708               -9.86575035               -5.67936431               35.74875933              -22.17874253
              22.99343974               -1.91316433               60.59118696                0.02482166                4.01292131                2.94882865              -11.67754623               -3.25095963               36.95238253              -28.79192235
              24.03091318               -3.21701427               60.37741035                0.13058366                3.06991819                6.28771278              -13.47592141               -0.62794507               20.92621244              -34.32439044
              25.05483810               -4.51421547               59.82956170                0.60800534                2.39249268                8.56925933              -14.40462285                1.15643612                4.71684933              -44.88168999
              16.15972538                9.68867465               62.97260417                0.66627181               -0.48803005               -0.98882629                2.89524400               -0.10000285                0.10543847                6.33194481
              17.15484508                8.42096188               62.31750976                0.12179689               -0.61478173                0.01491335                0.35356251               -0.09491224                6.81775962               -5.83450095
              18.14742975                7.14992318               61.79696440                0.00010000               -0.83503595                0.65003476                1.05579065               -3.82164404               30.03916050              -14.20651605
              19.13814436                5.80655395               61.61182389                0.00010000               -0.33074806                0.95837554               -1.39434164               -7.66055934               45.65837827              -15.37095031
              20.14081479                4.46066272               61.41227832                0.00010000                0.90193352                1.01809755               -3.90623351               -7.99664604               44.24620876              -16.26466965
              21.15618303                3.11407722               61.20504096                0.00010000                2.12015711                1.27476895               -6.51547485               -8.03618412               43.58472771              -17.47988568
              22.18321793                1.77070634               60.99715105                0.00010000                3.20773623                1.88703750               -9.27093076               -7.44657368               43.52626379              -19.10427829
              23.22033776                0.43759360               60.79240045                0.00010000                4.05857882                2.93128164              -12.14679969               -5.88798058               43.78691694              -21.64321034
              24.26438951               -0.87465075               60.59144687                0.02884642                4.52108660                4.64524044              -15.21102914               -2.63308789               43.78640884              -24.80693929
              25.31075949               -2.14592342               60.38497238                0.13569593                4.61693433                7.30451433              -18.27165199               -0.03804873               24.11899655              -28.06686106
              26.35672819               -3.42368509               59.78079102                0.61111937                4.59687018                8.97784983              -19.64341034                1.41145047                5.09480505              -39.20381714
              17.42143946               10.67953424               62.81654143                0.66187632               -0.31739250               -0.84382142                2.47453788               -0.10003600                0.10757762                6.38971291
              18.41826554                9.42206364               62.10083828                0.11609921               -0.52041158                0.20818523               -0.35937005               -0.30924903                9.31030145               -5.69305086
              19.41103123                8.15701045               61.56938635                0.00010000               -0.86138394                0.79533509                1.18019510               -4.34312322               38.03005323              -12.74576044
              20.40103786                6.81842057               61.43465388                0.00010000               -0.41989575                1.37096502               -1.65123036               -8.28415206               56.62009424              -13.60338580
              21.40263332                5.47519179               61.28553156                0.00010000                0.77031694                1.75771785               -4.54550129               -8.53648053               55.04915664              -14.51163195
              22.41644420                4.13235719               61.12681686                0.00010000                1.96663741                2.25136615               -7.55962357               -8.29209709               53.98313484              -15.55234720
              23.44196606                2.79596657               60.96250315                0.00010000                3.09040138                3.04282639              -10.77517249               -7.36295957               53.31585085              -16.88510609
              24.47825223                1.47427810               60.79554568                0.00010000                4.11644698                4.22416455              -14.26340541               -5.34048315               52.97714466              -18.50944861
              25.52429500                0.17974048               60.62775468                0.03280236                5.04671608                5.85008901              -18.07145468               -1.57579290               52.72066685              -20.17675563
              26.57918655               -1.07092399               60.45500379                0.14092341                5.71477285                7.57081767              -21.48102468                0.67814350               28.80538125              -21.51408154
              27.63859046               -2.33465847               59.79719273                0.61407806                5.94039140                8.80620422              -22.98185139                1.13250404                5.64755395              -32.50784079
              18.67266587               11.67179822               62.66104132                0.65733918               -0.14819791               -0.70607465                2.05884234               -0.09925038                0.11359685                6.38758463
              19.67118390               10.42512559               61.88519706                0.11043508               -0.42277628                0.40649795               -1.06872754               -0.56140579               12.42417243               -5.60713170
              20.66421035                9.16582988               61.35566124                0.00010000               -0.84519567                0.94287415                1.44627437               -4.76480102               46.78664801              -11.36350066
              21.65427998                7.83397325               61.27437064                0.00010000               -0.40308983                1.64111002               -1.76768144               -8.57975422               67.81761800              -11.81156124
              22.65614855                6.49581708               61.17720985                0.00010000                0.76431623                2.20820983               -4.99210486               -8.67010130               66.02479978              -12.36781020
              23.66956631                5.15910454               61.06854893                0.00010000                1.89446378                2.91745923               -8.34333159               -8.08733136               64.67758426              -13.03455485
              24.69403783                3.83156287               60.95172388                0.00010000                3.00939394                3.89091606              -11.95118714               -6.79757126               63.70110816              -13.79155286
              25.72975419                2.52207690               60.82989354                0.00010000                4.20189540                5.11790801              -15.90602650               -4.48134601               63.17872509              -14.53277256
              26.77807574                1.24235103               60.70714090                0.03677524                5.44835626                6.46536271              -20.20573054               -0.69693620               62.76248642              -15.01307863
              27.83872131                0.00549294               60.57713186                0.14631232                6.43857520                7.60007513              -23.41871504                1.05627250               33.94572776              -15.66374171
              28.90684724               -1.24756101               59.86498989                0.61714229                6.81259293                8.64025735              -25.05800736                0.90660095                6.09982140              -26.70338976
              19.91279972               12.66541275               62.50551460                0.65282737                0.02060393               -0.57252022                1.64330859               -0.09873539                0.11753166                6.32141323
              20.91300576               11.43019359               61.66994930                0.10460133               -0.29560829                0.60927591               -1.77676959               -0.88473190               16.24123363               -5.56948382
              21.90688755               10.17586793               61.15685130                0.00010000               -0.67750890                0.97289441                1.86346316               -5.15200087               56.43488494               -9.81280916
              22.89945558                8.85124277               61.13228651                0.00010000               -0.13937766                1.62279956               -1.72166985               -8.54378945               79.34929560               -9.77335721
              23.90410000                7.51935598               61.09019837                0.00010000                0.97481023                2.28393258               -5.20813247               -8.24923996               77.32354671               -9.88501896
              24.91895178                6.19070638               61.03470300                0.00010000                1.94711422                3.21158215               -8.80618987               -7.27956982               75.75430195              -10.10524875
              25.94304228                4.87378489               60.96969935                0.00010000                2.94426780                4.37983222              -12.69582135               -5.76477140               74.65084806              -10.30008478
              26.97783714                3.57663626               60.89959873                0.00010000                4.19489785                5.65090201              -16.98550632               -3.49560287               74.14986871              -10.25997640
              28.02694024                2.30904774               60.82998549                0.04097112                5.61934493                6.77189735              -21.62863224               -0.13347877               73.35015816               -9.78531059
              29.09022404                1.08107752               60.74472094                0.15150179                6.79450632                7.44435909              -24.29136991                1.13786284               39.16210390              -10.26699630
              30.16283037               -0.16185332               59.97760188                0.62027725                7.26063282                8.49011405              -26.10474163                0.65952305                6.42869210              -21.26712334
              21.14112947               13.66034781               62.34919035                0.64846243                0.19046005               -0.44176162                1.22466384               -0.10076547                0.14784865                6.26476651
              22.14303407               12.43731110               61.45464110                0.09911886               -0.05041597                0.81779838               -2.48773870               -1.38008326               20.88393716               -5.65331334
              23.14012115               11.18528777               60.97470087                0.00010000               -0.15589677                0.64826829                2.39576322               -5.60625003               67.15751915               -7.85548571
              24.13991614                9.86642924               61.01149012                0.00010000                0.57894949                1.05561019               -1.51389794               -7.86544964               91.28045063               -7.28471879
              25.15170014                8.54149573               61.02764970                0.00010000                1.48149306                1.95658459               -5.17481954               -6.94570209               88.90306186               -7.02622047
              26.16954600                7.22333618               61.02797162                0.00010000                2.05561849                3.18138320               -8.89521848               -5.68204478               87.08219504               -6.91640170
              27.19281251                5.91915951               61.01798860                0.00010000                2.75166423                4.56768604              -12.92929113               -4.21272486               85.95371797               -6.74566384
              28.22457929                4.63509494               61.00439276                0.00010000                3.90761958                5.96543129              -17.43137862               -2.36137879               85.67533655               -6.19782126
              29.27096491                3.37778898               60.99466823                0.04524874                5.39001697                6.98745365              -22.34027023                0.10633705               84.19401673               -4.88292429
              30.33237962                2.15438012               60.95292142                0.15686915                6.74672363                7.17506655              -24.20603399                0.89295996               44.26496041               -5.08172607
              31.40589938                0.92224127               60.13122871                0.62332096                7.35197543                8.23635821              -26.23524888                0.38393381                6.65217500              -16.01741628
              22.35685782               14.65657752               62.19295866                0.64401869                0.36063085               -0.30809166                0.80715840               -0.10206522               -0.10047312                5.45041191
              23.36046413               13.44654956               61.23715469                0.09353252                0.43932969                1.02619635               -3.21357544               -2.30821216               26.58609174               -5.09075607
              24.36564442               12.18883330               60.81486297                0.00010000                1.27372464               -0.82568330                2.98170161               -4.90278720               79.36333574               -4.88077952
              25.38593863               10.87235497               60.91740733                0.00010000                2.13172971                0.00513004               -1.21547010               -5.47100015              103.52012534               -4.07905448
              26.40827901                9.55848768               60.99321407                0.00010000                2.08542404                1.47061137               -4.90311566               -4.17909069              100.49694739               -3.71432898
              27.42764711                8.25433404               61.05009652                0.00010000                1.93750093                3.02938678               -8.57534754               -3.16272057               98.33885811               -3.54273521
              28.44702903                6.96513861               61.09573252                0.00010000                2.21664939                4.59854198              -12.57244544               -2.17142309               97.15927100               -3.32958965
              29.47198009                5.69594489               61.13953115                0.00010000                3.13763837                6.10475572              -17.11878265               -1.09624224               97.31740910               -2.80439385
              30.50978180                4.44879681               61.19473772                0.04965921                4.58254244                7.26445451              -22.27602894                0.10485993               95.39743391               -1.39164246
              31.56363094                3.22457885               61.20060787                0.16217056                6.25024654                6.83622016              -23.16652251                0.34534285               49.33701172               -0.71287873
              32.63478673                2.00287384               60.32296649                0.62635013                7.11557860                7.75253806              -25.40680342                0.03331227                6.48998098              -10.00598055
              23.55914408               15.65418598               62.02071486                0.82042817                0.54699730               -0.23915359                0.30627784                0.59353052                2.46725176                4.63495070
              24.56461405               14.45783503               61.03238276                0.54512585                2.85579601                1.12854699               -3.87671280               -3.85560193               34.85662587               -4.41222412
              25.61626000               13.16877411               60.69150553                0.46380350                4.81138529               -2.00591909                3.26780297               -4.50360168               92.86168467               -3.07098382
              26.66084176               11.86653184               60.85812077                0.44480182                3.49396322               -0.58231362               -0.98071004               -2.40299425              115.31489804               -2.00945363
              27.68613926               10.57090796               60.99092622                0.43840978                1.93994468                1.24202827               -4.43189488               -1.34437105              111.62435392               -1.74087542
              28.69964065                9.28392392               61.10247449                0.44322945                1.08169717                2.95898743               -7.83380499               -0.78952597              109.12456121               -1.58245100
              29.70777321                8.01113035               61.20128716                0.45879250                0.96777976                4.59917371              -11.56333237               -0.26227586              107.67475589               -1.40521920
              30.71899625                6.75719005               61.29768516                0.48595696                1.83274697                6.12451607              -15.88450401                0.29900107              107.78535068               -1.02129701
              31.74442815                5.52307807               61.40868794                0.52630382                3.31066011                7.42812617              -21.00741022                0.16035823              105.98459744                0.06025122
              32.78520945                4.29110452               61.47113501                0.58289653                5.27737454                6.65256723              -21.26237349               -0.13145133               56.26418898                1.71652773
              33.84997564                3.07729203               60.56921005                0.81417211                6.47661883                7.44181926              -23.52549686                0.13764211                9.27836317               -5.98150711
              11.43377422                5.96486086               64.66954292                0.87923281               -1.28163473               -1.43941048                4.88627388               -0.35550407               -3.70821546                4.19602419
              12.42095787                4.59914343               64.20951407                0.64084441               -1.20792965               -0.85301686                3.32822033               -0.34543620               -5.23629006               -2.96139522
              13.40961563                3.22824974               63.71969271                0.52333203               -1.10359589               -0.45962961                1.62813982               -0.45467300               -5.35527938               -0.70035595
              14.39888595                1.84353082               63.25808179                0.47045518               -0.89351380               -0.01831597                0.02200256               -0.42950145               -3.14433169               -0.48724116
              15.39174535                0.44141679               62.81257740                0.44433542               -0.38556256                0.43063910               -1.63758958               -0.34638189               -1.64365429               -0.30077576
              16.39117470               -0.97626194               62.38034098                0.44302039                0.38049852                0.88883710               -3.33824761               -0.24884326               -0.72392563               -0.07488324
              17.39935532               -2.40262739               61.95204794                0.46620480                1.24849540                1.34363470               -5.03969024               -0.20391504               -0.86282572                0.15492016
              18.41614461               -3.82907201               61.51565340                0.51473579                2.01957577                1.78125290               -6.69286169               -0.21228408               -1.96534788                0.36547878
              19.43974684               -5.24930717               61.06385447                0.59024845                2.61598677                2.21013539               -8.31258938               -0.22523721               -3.69313378                0.44302873
              20.46846435               -6.66055787               60.59128330                0.69562691                3.07972272                2.63421264               -9.95133025               -0.23577816               -4.28236339                1.11429916
              21.50134129               -8.06310549               60.12580885                0.89031311                3.28769441                3.12896102              -11.55209103               -0.64066716               -3.81736446               -2.97794828
              12.79593661                6.95046675               64.48215009                0.71245183               -1.01275374               -1.43609289                4.28728181               -0.17254943                2.23596239                5.74456856
              13.78580907                5.59061326               64.01612025                0.20365917               -0.65307031               -0.67400261                2.72935467               -0.32155166                5.44276325               -5.34590952
              14.78287520                4.22365344               63.61480038                0.00010000                0.10991695                0.18971073                1.51859129               -1.32258943                9.08056358               -9.09354322
              15.78800741                2.84334766               63.22144048                0.00010000                0.76513533               -0.62537512                0.20075164               -2.60074841               10.25978094               -9.31384165
              16.79817791                1.44572319               62.84370059                0.00010000                1.13504768               -0.67507343               -1.12114834               -3.50135815               11.68756757               -9.93834544
              17.81070836                0.03262643               62.47905895                0.00010000                1.27716474               -0.38684377               -2.48057113               -3.87380538               12.50307045              -11.01940629
              18.82372120               -1.38919104               62.11776928                0.00010000                1.33266484                0.12004731               -3.83674904               -3.59521032               12.24366907              -11.99051215
              19.83736166               -2.81125948               61.74772553                0.00010000                1.47580955                0.75108337               -5.14099985               -2.70659559               10.99434297              -11.80541377
              20.85323740               -4.22720582               61.36068453                0.09843263                1.78220323                1.67871448               -6.41250355               -1.30628390                9.45666655               -6.12396473
              21.87300573               -5.63421574               60.95864845                0.25563225                2.21224249                2.30000220               -7.69489516               -0.42608992                6.74898797                2.84109094
              22.89748224               -7.03181588               60.51590805                0.69137162                2.44765195                3.20196789               -9.10859736               -0.67993148                4.80524288               -6.41743718
              14.15003022                7.93613900               64.32660284                0.66490474               -0.86900658               -1.35259585                3.89092002               -0.12687527                0.23324886                6.91535512
              15.14134015                6.58566338               63.77548494                0.12257371               -0.98003885               -0.37780275                1.85421755               -0.11805176                6.10452359               -7.11596131
              16.13042944                5.23204395               63.34232483                0.00010000               -0.82694564                0.79298093                0.87452911               -3.03474784               16.86251215              -18.27172167
              17.12480124                3.83102331               63.00819600                0.00010000                0.10049852               -0.62782676               -0.45098542               -6.31212896               22.01968960              -18.12641904
              18.13243941                2.42791533               62.68172441                0.00010000                1.19057933               -1.15516289               -2.21500424               -7.22470039               22.41604266              -19.57059947
              19.14861283                1.01600119               62.35824893                0.00010000                1.94488059               -1.05983898               -4.06112395               -7.74189946               22.70609019              -21.80004704
              20.17133702               -0.40022645               62.03963029                0.00010000                2.57073235               -0.53757469               -5.97822296               -7.19074886               23.59095950              -24.00579397
              21.20002747               -1.81405034               61.73511265                0.00010000                3.26201996                0.33739246               -7.96052299               -5.34478039               29.00899518              -24.91331725
              22.23657742               -3.21573288               61.52459871                0.01525696                3.22625697                1.65945743              -10.65007534               -3.17170764               36.15647247              -23.83536192
              23.26455261               -4.61455782               61.35867532                0.11677812                2.31827612                3.93610056               -6.31758963               -1.21711343               20.77171684              -21.72569943
              24.28294295               -5.99906614               60.83506806                0.59961955                1.83903325                6.02441170               -7.82215276               -0.24585426                3.07551492              -33.69085574
              15.49435035                8.92341484               64.16369552                0.65957144               -0.68072664               -1.18816581                3.43011066               -0.10715020                0.10005322                6.56402844
              16.48754309                7.58305720               63.54670418                0.11535590               -0.87650223               -0.16796283                1.10417177               -0.08362716                6.28406084               -6.36464155
              17.47682031                6.23951306               63.05380204                0.00010000               -1.08248156                0.59605334                1.44437227               -3.48625262               24.07837653              -17.06259639
              18.46589345                4.83079112               62.79750845                0.00010000               -0.40571393                0.33194144               -0.92725627               -7.10261944               34.68427311              -17.45230406
              19.46870603                3.42261993               62.52198898                0.00010000                0.90593460                0.05103874               -3.18048145               -7.62264327               33.34178323              -18.96324208
              20.48401215                2.01142965               62.24324532                0.00010000                2.06258608                0.19212302               -5.53616356               -7.94796973               33.14434212              -21.00983530
              21.50995775                0.60005746               61.96739744                0.00010000                3.09801718                0.73722719               -8.02116667               -7.50213895               33.97221814              -23.38070600
              22.54597249               -0.80451163               61.70791450                0.00010000                4.01764883                1.71570612              -10.68292202               -6.04231841               35.75022711              -26.32723322
              23.59031073               -2.19401667               61.46843215                0.01769673                4.30121095                3.20261387              -12.87177504               -3.47420670               37.04761346              -33.80845056
              24.63199671               -3.55549373               61.23227739                0.11807232                3.56355281                6.81289167              -15.57180119               -0.61218379               21.65218394              -43.67325837
              25.66158178               -4.91132765               60.67610646                0.59947737                2.95850742                9.27542387              -16.35869536                1.50938743                6.29852828              -54.41746105
              16.82860248                9.91237568               64.00205284                0.65549052               -0.50330905               -1.02652997                2.99170269               -0.10393379                0.10696981                6.65197234
              17.82356939                8.58230412               63.32105343                0.10989715               -0.78160028                0.02269124                0.35719426               -0.34056676                8.61091547               -6.11563268
              18.81297047                7.24396502               62.81043709                0.00010000               -1.19637033                0.52475217                1.61549431               -4.15802698               31.76580629              -14.09626410
              19.79964198                5.83766214               62.59880928                0.00010000               -0.68112287                0.93401155               -1.22663729               -7.88073066               45.61313539              -15.95790845
              20.79934801                4.42893610               62.37273186                0.00010000                0.62869589                1.09128130               -4.00535233               -8.25991590               44.18743746              -17.60605185
              21.81221590                3.01984365               62.13811956                0.00010000                1.89437549                1.43979379               -6.85435767               -8.32121598               43.39740286              -19.60757739
              22.83723552                1.61451810               61.90118262                0.00010000                3.05196690                2.15186284               -9.89554697               -7.73950571               43.14420845              -22.11020158
              23.87325524                0.22026378               61.66571669                0.00010000                4.04199333                3.30596854              -13.16068590               -6.15395200               43.13676259              -25.67230790
              24.91807539               -1.15168061               61.43114459                0.02147418                4.81823397                5.14910253              -16.83366061               -2.67707224               42.82137813              -30.37892606
              25.96961992               -2.47829999               61.18797902                0.12302558                5.33615705                7.98347206              -21.10504505                0.11888572               24.18591881              -35.15466232
              27.02479853               -3.81355766               60.57021464                0.60244570                5.51786161                9.73294946              -22.52797212                1.75360612                6.40034218              -46.88498613
              18.15241481               10.90288424               63.84170661                0.65104068               -0.32723884               -0.87574437                2.55960144               -0.10205725                0.11354901                6.71479186
              19.14914242                9.58351103               63.09714175                0.10450738               -0.70565306                0.22070386               -0.37919494               -0.63350297               11.70773842               -5.96605316
              20.13830174                8.25000810               62.58466398                0.00010000               -1.29173303                0.71473890                1.81344470               -4.70906992               40.30177776              -12.55841348
              21.12330776                6.84947135               62.41922588                0.00010000               -0.84877686                1.38428727               -1.47533549               -8.38592843               56.49534338              -14.11088724
              22.12132621                5.44444555               62.23949970                0.00010000                0.43490366                1.88128024               -4.67055102               -8.66541520               54.91653364              -15.70292142
              23.13200583                4.04022553               62.04914175                0.00010000                1.67106454                2.50010127               -7.96120968               -8.43030719               53.68396425              -17.47771248
              24.15474750                2.64309472               61.85093253                0.00010000                2.85431619                3.43119726              -11.50839376               -7.49470561               52.70496243              -19.64694290
              25.18909215                1.26160774               61.64671844                0.00010000                4.02927790                4.76907000              -15.46730302               -5.41768576               51.93621996              -22.28415207
              26.23533306               -0.09103462               61.43728251                0.02520381                5.35796612                6.56464846              -20.01516443               -1.42380192               51.41404336              -25.12487744
              27.29625148               -1.39582429               61.22242642                0.12796833                6.59180928                8.41873076              -25.00616441                0.95345825               28.84207632              -27.28702245
              28.36716924               -2.71666866               60.54975628                0.60541478                7.09177656                9.68444503              -26.55692175                1.46259675                7.11984046              -38.66545043
              19.46530775               11.89486080               63.68200921                0.64696040               -0.15322849               -0.73243589                2.13455182               -0.10146187                0.11803866                6.71684104
              20.46377546               10.58671820               62.87428439                0.09910258               -0.62394986                0.42372715               -1.11235503               -0.94323110               15.48129412               -5.87880403
              21.45282875                9.25825979               62.37392727                0.00010000               -1.31447518                0.90634624                2.09370069               -5.13071496               49.68431167              -11.04647874
              22.43748596                7.86534789               62.25780551                0.00010000               -0.87716082                1.69199545               -1.61020173               -8.55736264               67.66788153              -12.18221143
              23.43528553                6.46656171               62.12661544                0.00010000                0.37373157                2.38021174               -5.14577107               -8.64818107               65.90378703              -13.36179904
              24.44496059                5.06984567               61.98281074                0.00010000                1.53368315                3.23497511               -8.79202200               -8.05503961               64.35143836              -14.68891098
              25.46595920                3.68314204               61.82797817                0.00010000                2.70351341                4.37761031              -12.76567455               -6.73225345               62.98249890              -16.20489402
              26.49903086                2.31564518               61.66395798                0.00010000                4.05360937                5.79885866              -17.24998145               -4.33630466               61.95428098              -17.83289913
              27.54703138                0.97961236               61.49422855                0.02906912                5.76461313                7.34445278              -22.38411042               -0.33409513               61.51969656              -19.28608320
              28.61432312               -0.30992537               61.32248230                0.13291122                7.43539123                8.63034079              -27.57682167                1.44003671               34.25077151              -20.30413091
              29.69573921               -1.61986876               60.59432310                0.60832730                8.14160878                9.70610977              -29.24316467                1.22746048                7.78114626              -31.74788233
              20.76667077               12.88823552               63.52227968                0.64254318                0.02080286               -0.59524873                1.70852352               -0.10235277                0.12248140                6.64932564
              21.76687880               11.59198557               62.65183272                0.09379413               -0.48065072                0.63320616               -1.84450019               -1.30777857               20.01321365               -5.84316250
              22.75705775               10.26813503               62.17919933                0.00010000               -1.15101022                0.98075861                2.43421193               -5.48376799               60.05047423               -9.35943406
              23.74385859                8.88331126               62.11613361                0.00010000               -0.65964758                1.71134580               -1.59768852               -8.39590238               79.24942634               -9.97266874
              24.74386480                7.49204979               62.03737757                0.00010000                0.52330538                2.50188029               -5.38509562               -8.08209698               77.31248525              -10.63301638
              25.75432470                6.10492503               61.94423095                0.00010000                1.52190571                3.58234944               -9.27878925               -7.09185183               75.51648109              -11.41531985
              26.77430292                4.73064692               61.83831499                0.00010000                2.57855199                4.92736677              -13.55024012               -5.51523476               73.95629913              -12.25363043
              27.80589574                3.37758492               61.72253101                0.00010000                3.99593980                6.41686375              -18.40364349               -3.13087054               72.89554334              -12.97351811
              28.85422171                2.05585444               61.60240304                0.03308718                5.93187959                7.77739554              -23.93212925                0.42616556               72.42664364              -13.33137994
              29.92453333                0.77678253               61.47930008                0.13800093                7.86917522                8.61507334              -28.91978163                1.59985794               39.89260350              -13.81915527
              31.01160522               -0.52254646               60.69457994                0.61121307                8.70718850                9.74526893              -30.71294485                0.92897624                8.28228729              -25.26385046
              22.05576059               13.88295582               63.36171990                0.63844025                0.19597982               -0.46185807                1.27943269               -0.10417715                0.15402684                6.59152696
              23.05772038               12.59938232               62.42928631                0.08831252               -0.19664419                0.84961548               -2.58027939               -1.82550188               25.41864817               -5.93660235
              24.05182770               11.27787497               62.00203731                0.00010000               -0.60336174                0.70244977                2.83549875               -5.86449237               71.57760462               -7.28438559
              25.04565315                9.89957480               61.99727924                0.00010000                0.01010616                1.19119312               -1.44103800               -7.59736754               91.32306590               -7.31993532
              26.05202982                8.51659931               61.97516452                0.00010000                0.94366348                2.23496002               -5.35956573               -6.68350263               89.12540697               -7.50161063
              27.06452642                7.14149266               61.93667346                0.00010000                1.54823956                3.59260671               -9.35829658               -5.41570624               87.08141904               -7.81847730
              28.08299462                5.78168938               61.88435959                0.00010000                2.33397589                5.13332168              -13.76841889               -3.86576777               85.43355213               -8.13256875
              29.11120594                4.44398246               61.82299141                0.00010000                3.66812345                6.73581881              -18.83217224               -1.84973534               84.51453103               -8.18386093
              30.15635709                3.13516027               61.76028874                0.03694770                5.67576223                8.04866703              -24.62097806                0.82078098               83.78152581               -7.60713610
              31.22472118                1.86237609               61.68744339                0.14307293                7.83098159                8.45225453              -29.07624931                1.37354988               45.53687604               -7.48746469
              32.31297672                0.57503662               60.84604534                0.61416138                8.82555361                9.64546888              -31.04753413                0.55698142                8.62061210              -18.87649216
              23.33173423               14.87899836               63.20126047                0.63416859                0.37153845               -0.32492802                0.85158804               -0.10523193               -0.10726066                5.73531274
              24.33544961               13.60897788               62.20441891                0.08313269                0.39205963                1.06539600               -3.33138547               -2.75997269               31.90154615               -5.35033508
              25.33957542               12.28218402               61.84753713                0.00010000                0.88686413               -0.75314738                3.23414533               -4.96846614               84.66091390               -4.34454991
              26.35318690               10.90713512               61.90601830                0.00010000                1.43507355                0.26737296               -1.18627452               -5.18505405              103.80247853               -4.02574481
              27.36827689                9.53674899               61.94355056                0.00010000                1.38668059                1.82055931               -5.07241358               -3.94493211              101.13216887               -3.93309728
              28.38092051                8.17677716               61.96226384                0.00010000                1.31104345                3.47425552               -8.98719768               -2.95980957               98.78017840               -3.99777590
              29.39449776                6.83331336               61.96609769                0.00010000                1.72548144                5.15690996              -13.32776911               -1.90449599               97.02705817               -4.05115261
              30.41543014                5.51230129               61.96192114                0.00010000                2.88729684                6.81194023              -18.39157894               -0.65115940               96.38941095               -3.87388443
              31.45224370                4.21682778               61.96220910                0.04132107                4.83489228                8.20907375              -24.33363604                0.75750699               95.62293538               -2.99565340
              32.51212798                2.94582762               61.94590639                0.14807078                7.25900439                8.18530460              -28.02236801                0.82977787               51.23441397               -1.95056235
              33.59742379                1.67036291               61.04652192                0.61699722                8.52958040                9.18300546              -30.18845312                0.09139432                8.54738459              -11.56946779
              24.59369690               15.87645726               63.02393843                0.81561931                0.56383676               -0.25410957                0.33658861                0.61956461                2.59858414                4.87842017
              25.59933527               14.62069024               61.99290505                0.54012466                3.03021197                1.17123580               -4.01782885               -4.29369700               40.85176973               -4.64155794
              26.65430114               13.26281202               61.72660192                0.46265141                4.40259173               -1.93720022                3.38108457               -4.31582736               98.88361853               -2.50335715
              27.68738710               11.90492226               61.84896871                0.44453373                2.45940020               -0.22128603               -0.96869870               -2.07005577              116.10710988               -1.93393995
              28.70348914               10.55301050               61.94615741                0.43855548                1.06893791                1.62615088               -4.56469609               -1.17599986              112.94968377               -1.82687821
              29.70876586                9.21097777               62.02252422                0.44298284                0.29457136                3.42006058               -8.15123032               -0.62461109              110.28009375               -1.80007648
              30.70938057                7.88482758               62.08253816                0.45781134                0.29512358                5.15142198              -12.15682289               -0.04954475              108.24004647               -1.75810967
              31.71466833                6.58022126               62.13362516                0.48366193                1.43001656                6.79199710              -16.90702018                0.64952778              107.43977299               -1.54799788
              32.73798090                5.29934175               62.19076707                0.52214047                3.65566361                8.25139728              -22.66987475                0.86676603              106.90640486               -0.78739915
              33.78778160                4.02608218               62.23727690                0.57577374                6.38765565                8.02545660              -25.72994124                0.53311089               58.67841809                1.13746206
              34.86573401                2.75869673               61.31350550                0.80937743                7.79524108                8.83338170              -27.88099151                0.09247717               11.54033766               -6.76554823
              11.86372213                6.19803294               65.71913069                0.87145417               -1.32049798               -1.48287325                5.03288319               -0.36845708               -3.86830521                4.36429298
              12.85051715                4.76518566               65.24326636                0.63110348               -1.24843397               -0.87565556                3.42241494               -0.36559159               -5.46819585               -3.10937890
              13.83875345                3.32681283               64.73617929                0.51934538               -1.12809762               -0.47329598                1.66877608               -0.45593923               -5.61452450               -0.67367615
              14.82795520                1.87436186               64.25823238                0.46898797               -0.88245941               -0.01471423                0.01007808               -0.42703485               -3.38724414               -0.49304704
              15.82110427                0.40468357               63.79587916                0.44404871               -0.34306490                0.44826754               -1.69972355               -0.34663948               -1.93906062               -0.30298007
              16.82109390               -1.08004262               63.34638562                0.44289734                0.44252395                0.92025993               -3.44980969               -0.25428030               -1.04739432               -0.07765941
              17.82995475               -2.57285029               62.90079684                0.46488850                1.31906624                1.39068320               -5.20414886               -0.21219616               -1.16736930                0.15004018
              18.84747523               -4.06528283               62.44757749                0.51103021                2.09670011                1.84501279               -6.91449667               -0.21878000               -2.22848193                0.36307458
              19.87188875               -5.55122201               61.97931756                0.58285676                2.70309632                2.28838163               -8.58684582               -0.23100624               -3.94746303                0.44545720
              20.90153716               -7.02801565               61.49009924                0.68289236                3.18015336                2.72732810              -10.27782297               -0.24266313               -4.53005537                1.12982865
              21.93549181               -8.49596426               61.00835257                0.88170014                3.39546596                3.23591829              -11.93122868               -0.65504972               -4.05179238               -3.12452483
              13.29288485                7.18320421               65.52566017                0.69903962               -1.04135551               -1.48469920                4.41495730               -0.18382668                2.39291808                6.01735879
              14.28247130                5.75642910               65.04379919                0.18756227               -0.66394441               -0.68546476                2.80594115               -0.35040386                5.77566555               -5.63428174
              15.27960596                4.32207987               64.63015833                0.00010000                0.11390954                0.18356236                1.55037852               -1.41716897                9.53736843               -9.31270792
              16.28474949                2.87421472               64.22339693                0.00010000                0.76170747               -0.69168532                0.18998448               -2.76934430               10.66278466               -9.71881224
              17.29484011                1.40916624               63.83220557                0.00010000                1.12842714               -0.71828045               -1.17826973               -3.71642303               12.07278002              -10.74853547
              18.30731803               -0.07084002               63.45375668                0.00010000                1.28063896               -0.42462970               -2.58291998               -4.11195072               12.87101810              -12.26352246
              19.32045289               -1.55894346               63.07864261                0.00010000                1.35776292                0.07717435               -3.98788186               -3.84778057               12.63805660              -13.71334868
              20.33447329               -3.04683271               62.69530842                0.00010000                1.52461009                0.69837908               -5.34364750               -2.95617889               11.43245808              -14.08103386
              21.35094509               -4.52833819               62.29533983                0.08752835                1.85041825                1.65699153               -6.65969811               -1.47448380                9.90516957               -9.39528613
              22.37148165               -6.00074237               61.88026336                0.23662217                2.29724201                2.40975231               -7.98658125               -0.47859045                7.12610787                2.29628336
              23.39688993               -7.46360508               61.42315661                0.67845527                2.54082803                3.34392343               -9.44695200               -0.66476742                5.11867667               -7.22192677
              14.71359582                8.16833896               65.36611943                0.65363797               -0.89624027               -1.40314355                4.01028178               -0.13061609                0.21703570                7.25836137
              15.70463342                6.75147636               64.79428190                0.11002698               -1.04856796               -0.37625251                1.90549594               -0.16695811                6.64958442               -7.48069414
              16.69262446                5.33048408               64.35162042                0.00010000               -0.95757358                0.62828469                0.99874481               -3.33673651               17.75506316              -18.10491601
              17.68548195                3.86052815               64.00397593                0.00010000               -0.03969588               -0.73105077               -0.39880784               -6.72142491               22.51698084              -18.89436898
              18.69183054                2.39031796               63.65927164                0.00010000                1.07413213               -1.23043483               -2.27456738               -7.63575882               22.65693342              -21.15374226
              19.70696459                0.91146478               63.31676444                0.00010000                1.85806376               -1.11827493               -4.22812456               -8.21264578               22.86679103              -24.25251333
              20.72899182               -0.57130680               62.97828571                0.00010000                2.53908974               -0.59985832               -6.27673172               -7.70219117               23.64785241              -27.41667541
              21.75774638               -2.05131525               62.65289669                0.00010000                3.36584569                0.26682333               -8.45475416               -5.83120369               28.57178501              -29.43783061
              22.79630873               -3.51808218               62.41298849                0.00833941                3.47429264                1.62294875              -11.57869116               -3.47106591               38.95310825              -29.33613248
              23.82723224               -4.97982060               62.29191486                0.10451892                2.58065798                4.04796115               -7.16917011               -1.31013595               24.35125657              -28.37635368
              24.84792189               -6.42908579               61.75390299                0.59119495                2.06896560                6.29469106               -8.49008207               -0.11348906                3.78756207              -40.34730973
              16.12399772                9.15514134               65.19853393                0.64874966               -0.70107091               -1.23179783                3.53567651               -0.11033992                0.10340099                6.88338688
              17.11698701                7.74890405               64.55788131                0.10360342               -1.00891410               -0.16323525                1.13250834               -0.32250287                7.74721357               -6.66192010
              18.10381944                6.33464556               64.07050715                0.00010000               -1.32499530                0.33259396                1.85031239               -3.84723968               25.44813054              -16.60893793
              19.09048711                4.85959370               63.78877857                0.00010000               -0.63155703                0.25750979               -0.83539283               -7.37288309               34.67333085              -18.08660422
              20.09118830                3.38455754               63.48980696                0.00010000                0.71013819                0.03565016               -3.25966585               -7.96882551               33.41141381              -20.44873457
              21.10468987                1.90679448               63.18662344                0.00010000                1.90004015                0.22822234               -5.77636385               -8.33912149               33.09771963              -23.35786118
              22.12918910                0.42905938               62.88484777                0.00010000                2.99673568                0.81370138               -8.46195414               -7.93887846               33.72352877              -26.68560893
              23.16462459               -1.04149624               62.59713597                0.00010000                4.04200095                1.83293783              -11.42599683               -6.47869650               35.57119812              -30.71567502
              24.21002912               -2.49587922               62.33375146                0.01053021                4.58289825                3.35012733              -14.02244701               -3.80204504               36.64736535              -39.15280543
              25.25628255               -3.91978314               62.06597433                0.10581756                4.15607062                7.03274517              -17.60142244               -0.68282311               22.09003926              -54.18107230
              26.29315054               -5.33771126               61.50238780                0.59134626                3.68679845                9.70255791              -18.39101335                1.82428454                8.09421709              -65.34123424
              17.52386360               10.14370300               65.03243822                0.64464875               -0.51844641               -1.06338199                3.08466047               -0.10701348                0.11077410                6.98705071
              18.51867914                8.74821166               64.32465365                0.09843399               -0.94367908                0.03037805                0.36406931               -0.70455637               10.71574368               -6.40554796
              19.50499002                7.33713596               63.82927428                0.00010000               -1.52834159                0.38532178                2.05680059               -4.56850436               33.69001171              -13.92327163
              20.48811230                5.86567835               63.58729115                0.00010000               -0.98683823                0.88064466               -1.12041827               -8.02415515               45.42801758              -16.52859259
              21.48525325                4.39103096               63.33217127                0.00010000                0.37840116                1.13461161               -4.11800349               -8.48946520               44.09314132              -18.97428496
              22.49568033                2.91602923               63.06795381                0.00010000                1.66258574                1.56586452               -7.16550858               -8.60314748               43.18352929              -21.80355900
              23.51850497                1.44496722               62.79924011                0.00010000                2.87153583                2.35863959              -10.45784222               -8.06931055               42.67785423              -25.24084388
              24.55311104               -0.01465650               62.52918673                0.00010000                4.00248838                3.59250049              -14.08930852               -6.50224001               42.25231276              -29.91361971
              25.59855474               -1.45107963               62.25477366                0.01419124                5.11483866                5.50190937              -18.35871914               -2.88352164               41.22254497              -36.38288110
              26.65540782               -2.83916570               61.96287148                0.11046106                6.08545379                8.43077179              -23.74360515                0.16583752               23.83144255              -43.15266837
              27.72026381               -4.23503464               61.33023158                0.59402900                6.48559947               10.28176607              -25.40347294                2.07195753                7.75237348              -55.72067232
              18.91284015               11.13387370               64.86773346                0.64062241               -0.33772133               -0.90705187                2.64458518               -0.10557360                0.11752898                7.05794395
              19.90946293                9.74951161               64.09325438                0.09299616               -0.89287413                0.23234399               -0.39636510               -1.06545570               14.45113971               -6.25029586
              20.89498266                8.34235200               63.60565525                0.00010000               -1.66769653                0.66144995                2.22555080               -5.14597910               42.82319167              -12.34732779
              21.87610900                6.87720659               63.40514717                0.00010000               -1.19672757                1.38714702               -1.40604944               -8.41325432               56.23900433              -14.63172646
              22.87104811                5.40724978               63.19212054                0.00010000                0.12908275                1.98361365               -4.82581050               -8.75645045               54.76706053              -16.92366554
              23.87869066                3.93811177               62.96759267                0.00010000                1.37202542                2.71039431               -8.33590730               -8.57327952               53.37370497              -19.46605620
              24.89848862                2.47623217               62.73233528                0.00010000                2.59679909                3.75576485              -12.17051016               -7.68612045               52.01434966              -22.52671026
              25.93062664                1.03035377               62.48619962                0.00010000                3.91896359                5.21314199              -16.56940064               -5.62974069               50.63299454              -26.27982239
              26.97686789               -0.38584103               62.22745140                0.01769442                5.64638341                7.12942362              -21.84718532               -1.50654310               49.32222261              -30.48375928
              28.04355431               -1.75116771               61.95488051                0.11518449                7.47298342                9.08511773              -28.34189044                1.09997330               28.37057906              -34.05733848
              29.12632756               -3.13207594               61.26605430                0.59676394                8.27732531               10.38461600              -30.16179345                1.83541500                8.69668336              -45.93194020
              20.29047630               12.12556197               64.70373235                0.63671078               -0.15845824               -0.75925621                2.20677220               -0.10518752                0.12114098                7.06180866
              21.28889172               10.75285854               63.86294996                0.08812167               -0.80504248                0.44084034               -1.15104821               -1.41547832               18.88429763               -6.16074937
              22.27437546                9.35036496               63.39753525                0.00010000               -1.69711405                0.91086027                2.40685581               -5.54118798               52.86124163              -10.76955277
              23.25494944                7.89342129               63.24216660                0.00010000               -1.25781935                1.75545356               -1.60499079               -8.47524292               67.41934743              -12.57177882
              24.24921907                6.43070323               63.07429443                0.00010000                0.01414524                2.54484020               -5.34882149               -8.59899632               65.79818027              -14.38441250
              25.25523235                4.97023712               62.89270849                0.00010000                1.16607455                3.52127431               -9.21781810               -8.04836945               64.03764547              -16.40090567
              26.27254056                3.52008252               62.69641039                0.00010000                2.36785396                4.80493489              -13.50540430               -6.76255953               62.19323000              -18.73355064
              27.30258943                2.08960634               62.48489391                0.00010000                3.87023969                6.38893531              -18.49107595               -4.37701793               60.45187708              -21.35245162
              28.34994535                0.69150884               62.25945869                0.02151404                6.05263837                8.11004859              -24.48829648               -0.26167697               59.27821123              -23.96298419
              29.42364219               -0.65746334               62.02559543                0.12008884                8.44216085                9.54505156              -31.60369450                1.67468696               33.87596163              -25.93558830
              30.51878857               -2.02734232               61.28012659                0.59960527                9.51463772               10.66116831              -33.52039146                1.59154475                9.60421829              -37.83125719
              21.65614326               13.11868858               64.53968507                0.63260848                0.02071219               -0.61822049                1.77065399               -0.10597161                0.12701484                6.99179275
              22.65635038               11.75832842               63.63305929                0.08308572               -0.62735508                0.65671688               -1.90693729               -1.79607346               24.08186277               -6.12679821
              23.64359615               10.36056921               63.20553554                0.00010000               -1.50422546                1.04486498                2.58137670               -5.83539476               63.92595959               -9.00380356
              24.62626587                8.91231566               63.10033274                0.00010000               -1.06718987                1.83622765               -1.67780133               -8.20609060               79.11737076              -10.19677095
              25.62225236                7.45814658               62.98249646                0.00010000                0.10390563                2.72936457               -5.63085581               -7.90917055               77.35884957              -11.40157413
              26.62834398                6.00853726               62.84912721                0.00010000                1.08079244                3.93483134               -9.73540344               -6.95343759               75.32349398              -12.77357204
              27.64386820                4.57233086               62.69869454                0.00010000                2.16579897                5.43214580              -14.33306192               -5.38898639               73.21081754              -14.31282308
              28.67165996                3.15813248               62.53152586                0.00010000                3.74179182                7.12106232              -19.73265549               -2.98097969               71.35738838              -15.88888319
              29.71870404                1.77635994               62.35134291                0.02516054                6.21196233                8.71656785              -26.22918326                0.68994689               70.33658171              -17.24525237
              30.79589921                0.43973332               62.16632530                0.12467544                8.96061798                9.77439306              -33.55912465                1.92529215               39.84113710              -18.25496646
              31.89791640               -0.91885257               61.36334299                0.60234612               10.20171943               11.00558853              -35.54672018                1.25736830               10.39204890              -30.15705761
              23.00907719               14.11319756               64.37477900                0.62856477                0.20124367               -0.48116691                1.32997276               -0.10784364                0.16027903                6.93416229
              24.01108962               12.76599287               63.40303551                0.07800970               -0.26984364                0.87978526               -2.66598262               -2.30336409               30.17122090               -6.23197921
              25.00368031               11.37126226               63.03141085                0.00010000               -0.89196848                0.84042431                2.73878097               -6.10899398               76.24442278               -6.86432305
              25.99325025                9.93014584               62.98266936                0.00010000               -0.44331245                1.39174753               -1.61175900               -7.31314152               91.42766016               -7.37578342
              26.99481407                8.48529052               62.92045838                0.00010000                0.43645277                2.53431269               -5.63132004               -6.43938045               89.46518682               -7.98473085
              28.00197931                7.04893374               62.84080569                0.00010000                1.01757728                3.99952551               -9.81432910               -5.21027609               87.17300719               -8.75301162
              29.01516561                5.62872544               62.74262022                0.00010000                1.84807215                5.68030620              -14.54430690               -3.64307308               84.90706611               -9.60217663
              30.03894075                4.23202759               62.62774931                0.00010000                3.34889166                7.48504860              -20.16615287               -1.54441443               83.10358595              -10.33047027
              31.08214344                2.86584020               62.50224867                0.02897780                5.92098989                9.10227326              -26.97026502                1.27740705               82.09628174              -10.59522100
              32.15736055                1.53802452               62.37139644                0.12957411                8.94821399                9.80003816              -34.14362374                1.75182262               45.96518510              -10.62828369
              33.26110772                0.19276945               61.51027803                0.60501196               10.37471734               11.14384447              -36.23754731                0.80384226               10.98632738              -22.51120946
              24.34839575               15.10906524               64.20999042                0.62461431                0.38226496               -0.33995443                0.89149790               -0.10884423               -0.11526668                6.03513679
              25.35221840               13.77592412               63.17052698                0.07305738                0.44337806                1.10193588               -3.44231983               -3.18956062               37.31930233               -5.62323963
              26.35726331               12.37737769               62.87954588                0.00010000                0.68781866               -0.53424318                2.84008703               -5.07925572               90.15843368               -3.95838109
              27.36597477               10.94015061               62.89368184                0.00010000                0.87067677                0.59031881               -1.42508907               -4.91833250              104.28444762               -3.97080317
              28.37467684                9.50883283               62.89176580                0.00010000                0.73643882                2.19330848               -5.34090311               -3.74297453              101.95984362               -4.14977855
              29.38070355                8.08852777               62.87035256                0.00010000                0.66180276                3.92339430               -9.40063007               -2.80066890               99.38999161               -4.46589087
              30.38791290                6.68593699               62.82917714                0.00010000                1.14766817                5.71808909              -14.02960159               -1.71933668               96.97815339               -4.81725887
              31.40365691                5.30783345               62.77169957                0.00010000                2.51711786                7.53972292              -19.61918285               -0.34547696               95.33334363               -5.03370116
              32.43825526                3.95840541               62.70806500                0.03313574                5.01747477                9.21869677              -26.51868760                1.23308476               94.55860717               -4.72799985
              33.50400640                2.63573409               62.64016051                0.13416052                8.31240580                9.65441103              -33.21495707                1.21488686               52.25964995               -3.63169242
              34.60450337                1.30402432               61.71919743                0.60776070               10.04969672               10.76222194              -35.47370212                0.18989635               11.12092550              -13.62966556
              25.67318253               16.10639847               64.02744664                0.81090376                0.58034274               -0.26667707                0.36170238                0.64199087                2.73462155                5.13509042
              26.67898596               14.78803159               62.95202618                0.53507556                3.23430893                1.21074674               -4.15137931               -4.61429756               46.87701547               -4.88428354
              27.73786871               13.36057739               62.75912722                0.46154445                4.22212520               -1.68003000                2.81972850               -4.24342855              105.07987693               -2.08205756
              28.76342846               11.94195222               62.83874679                0.44425498                1.68543573                0.18016017               -1.22648513               -1.82566561              117.22974617               -1.86452757
              29.77157742               10.52915669               62.89963230                0.43853748                0.27166575                2.03238595               -4.79601480               -1.03747118              114.56445683               -1.92134007
              30.76886178                9.12740163               62.93944988                0.44272547               -0.50521143                3.88738648               -8.47512636               -0.48765056              111.72938011               -2.03568401
              31.76147320                7.74308722               62.95815071                0.45694401               -0.46494917                5.71502302              -12.70301435                0.12705061              109.05289754               -2.15003754
              32.75956279                6.38282205               62.95954475                0.48144851                0.87156531                7.49886004              -17.88929519                0.94693430              107.19211352               -2.14254017
              33.77890450                5.05021414               62.95529044                0.51794002                3.82382925                9.18087263              -24.46262978                1.47945908              106.74487082               -1.72061330
              34.83603938                3.73111274               62.95653619                0.56875383                7.47103426                9.53786517              -30.54965857                1.09328536               60.35620682                0.27875810
              35.92832519                2.40801389               62.01159022                0.80478568                9.22858081               10.39895752              -32.74425092                0.07229711               14.47876448               -7.86507358
              12.30813678                6.43908775               66.77020058                0.86387819               -1.35914185               -1.52625658                5.17900504               -0.38174132               -4.03336177                4.53480279
              13.29454536                4.93589018               66.27796237                0.62161521               -1.28888316               -0.89780991                3.51571054               -0.38559415               -5.70429057               -3.25962756
              14.28235911                3.42681813               65.75306823                0.51521523               -1.15520790               -0.48599886                1.70904390               -0.46089819               -5.87539873               -0.64737059
              15.27144120                1.90334078               65.25828335                0.46753677               -0.87741095               -0.01129192                0.00173074               -0.42822284               -3.63025740               -0.49689305
              16.26481089                0.36270436               64.77858293                0.44376109               -0.30660332                0.46556371               -1.75666664               -0.34861384               -2.23273020               -0.30397554
              17.26530913               -1.19255723               64.31134479                0.44253693                0.50025848                0.95343946               -3.55656518               -0.26286900               -1.36771771               -0.08134290
              18.27481606               -2.75531813               63.84796496                0.46349327                1.38725615                1.43712410               -5.36051728               -0.22430429               -1.47294023                0.14456878
              19.29305426               -4.31727237               63.37736347                0.50728768                2.17298808                1.90730142               -7.12459692               -0.23028736               -2.49636750                0.35882816
              20.31827583               -5.87244257               62.89211755                0.57553998                2.78869818                2.36600959               -8.84869853               -0.23985639               -4.20752505                0.44634490
              21.34882822               -7.41828953               62.38572684                0.67049063                3.27614796                2.81838447              -10.58741125               -0.24978640               -4.78340787                1.14416157
              22.38379879               -8.95520406               61.88718427                0.87342660                3.49705645                3.33992277              -12.29014237               -0.66440244               -4.29078061               -3.27180930
              13.80751693                7.42382519               66.57044924                0.68609638               -1.06927041               -1.53276399                4.54004814               -0.19584895                2.55369932                6.29764445
              14.79682423                5.92691208               66.07223907                0.17162797               -0.67460489               -0.69614071                2.88048944               -0.37907771                6.11518904               -5.92733532
              15.79402483                4.42195814               65.64580795                0.00010000                0.11958147                0.13893358                1.58015515               -1.51033335               10.00485711               -9.47274711
              16.79921586                2.90322786               65.22524017                0.00010000                0.76244640               -0.77932461                0.17806907               -2.92748495               11.07740257              -10.09228389
              17.80927376                1.36736000               64.82013520                0.00010000                1.12379160               -0.77326331               -1.23561575               -3.91360118               12.46692447              -11.55979710
              18.82169169               -0.18302284               64.42740055                0.00010000                1.28284142               -0.46793079               -2.69081756               -4.33407235               13.24947671              -13.53737616
              19.83493059               -1.74094689               64.03801164                0.00010000                1.38109581                0.02765066               -4.14146755               -4.09153812               13.03933070              -15.50679334
              20.84931361               -3.29819935               63.64085258                0.00010000                1.57276271                0.63189333               -5.55021454               -3.20647266               11.87537280              -16.49542880
              21.86638584               -4.84878248               63.22749057                0.07667298                1.91987478                1.57877048               -6.91421920               -1.67803685               10.36144565              -12.96849484
              22.88771110               -6.39010569               62.79891682                0.21781114                2.38417219                2.52468362               -8.28511677               -0.55936655                7.50874540                1.39445784
              23.91406929               -7.92180483               62.32696901                0.66596869                2.63581874                3.49802721               -9.79053943               -0.62395728                5.43578465               -8.24234908
              15.29804600                8.40843247               66.40680848                0.64284272               -0.92151520               -1.45307012                4.12304136               -0.13617688                0.19893912                7.61173480
              16.28883085                6.92196737               65.81359486                0.09803662               -1.11046648               -0.37325165                1.95583741               -0.25728834                7.26959056               -7.85107929
              17.27583667                5.42959680               65.36229973                0.00010000               -1.06706013                0.38611494                1.14968544               -3.66761287               18.73406398              -17.80841282
              18.26748965                3.88775429               65.00021985                0.00010000               -0.15235512               -0.87420192               -0.36378881               -7.07566490               23.00632928              -19.60479968
              19.27278957                2.34723909               64.63623306                0.00010000                0.97224638               -1.33071990               -2.33715943               -7.99272289               22.89642990              -22.74105417
              20.28693457                0.79808415               64.27368644                0.00010000                1.76861259               -1.19470508               -4.38171892               -8.63850863               23.02168131              -26.75578729
              21.30816182               -0.75476512               63.91409566                0.00010000                2.49129096               -0.68311139               -6.54537548               -8.18667252               23.65989211              -30.94611316
              22.33676039               -2.30463450               63.56601756                0.00010000                3.42298018                0.15420932               -8.89246047               -6.34614425               27.95937509              -34.19150268
              23.37662142               -3.84086716               63.29302489                0.00127077                3.69514269                1.49622628              -12.29482178               -3.75637620               41.55866515              -35.26153706
              24.41066325               -5.36779586               63.21529192                0.09221949                2.90482525                4.00169450               -8.37901780               -1.34631488               28.01546957              -35.87850271
              25.43471793               -6.88524352               62.66526642                0.58290770                2.40546824                6.36619555               -9.39908453                0.08372953                4.82668444              -47.89018110
              16.77772360                9.39476378               66.23440905                0.63800595               -0.72094679               -1.27576528                3.63707922               -0.11461784                0.10649961                7.21428920
              17.77051413                7.91944705               65.56935435                0.09194399               -1.14189701               -0.15736388                1.16270698               -0.64329957                9.41199522               -6.96566307
              18.75488566                6.42968044               65.09080828                0.00010000               -1.52269320                0.03773440                2.12192674               -4.27033456               26.93123190              -16.01390597
              19.74006027                4.88574382               64.78080059                0.00010000               -0.78981100                0.14837011               -0.79834196               -7.55595718               34.56886002              -18.69579637
              20.73908944                3.34074560               64.45679566                0.00010000                0.54327302               -0.00511351               -3.35307723               -8.24510760               33.47505360              -21.94519608
              21.75092573                1.79308306               64.12771804                0.00010000                1.74131784                0.23595437               -5.99609102               -8.67358202               33.04362810              -25.75104765
              22.77391579                0.24539088               63.79815836                0.00010000                2.87835202                0.84894155               -8.84808709               -8.34001828               33.41145880              -30.08090350
              23.80849277               -1.29511517               63.47939457                0.00010000                4.02519423                1.87811222              -12.06544763               -6.91206453               35.22350785              -35.26803685
              24.85441968               -2.81885795               63.18798321                0.00365772                4.83341948                3.39144987              -15.06591921               -4.13682555               35.80371848              -44.76253487
              25.90516116               -4.31007180               62.88024894                0.09378915                4.81097553                6.87681629              -19.35725797               -0.77476820               22.21787405              -65.47234384
              26.95063919               -5.79448092               62.30828619                0.58321563                4.54780334                9.68029537              -20.36524613                2.07948186                9.90613985              -77.49694029
              18.24638711               10.38291717               66.06374605                0.63407303               -0.53389075               -1.10073996                3.17619719               -0.10971033                0.11517506                7.33726059
              19.24104820                8.91882009               65.32833481                0.08704916               -1.11269491                0.03808733                0.37350705               -1.14181920               13.03236861               -6.70417163
              20.22413321                7.43035149               64.85157310                0.00010000               -1.78714283                0.25600682                2.25962237               -5.00556377               35.77282126              -13.72974340
              21.20530534                5.89072169               64.57640092                0.00010000               -1.17925161                0.81087706               -1.12526237               -8.08261888               45.17575300              -17.09694355
              22.20054818                4.34713682               64.29037179                0.00010000                0.17561529                1.15517440               -4.26205248               -8.63929804               44.00523640              -20.35631181
              23.20881765                2.80280324               63.99480939                0.00010000                1.45057539                1.65333324               -7.45412195               -8.82918233               42.97751089              -24.03413059
              24.22955968                1.26221372               63.69202578                0.00010000                2.69751440                2.49996724              -10.94758694               -8.36818774               42.16378215              -28.43915491
              25.26276794               -0.26707226               63.38393052                0.00010000                3.96409295                3.77096446              -14.88930228               -6.85543607               41.18425659              -34.28295874
              26.30884154               -1.77303817               63.06397020                0.00701385                5.40114583                5.67315569              -19.66128184               -3.22551670               39.12562629              -42.67229905
              27.37079085               -3.23025953               62.71310692                0.09815405                6.81421346                8.51883972              -25.89365400                0.06497764               23.06071783              -51.84025521
              28.44512581               -4.69163761               62.06214518                0.58574690                7.43349593               10.46392199              -27.99762099                2.26799909                8.93545557              -65.57385989
              19.70372354               11.37274898               65.89459831                0.63048968               -0.34801175               -0.93859026                2.72419202               -0.10860645                0.11860051                7.41357635
              20.70024342                9.92020880               65.08921445                0.08216803               -1.04253775                0.24391017               -0.40821883               -1.56690451               17.37556745               -6.54137040
              21.68287278                8.43480058               64.62917499                0.00010000               -1.93104340                0.63184781                2.28065120               -5.57718517               45.50009272              -12.16764573
              22.66162255                6.90196136               64.39110489                0.00010000               -1.43254293                1.40025265               -1.49195838               -8.35715503               55.96072717              -15.16747861
              23.65422193                5.36384909               64.14298349                0.00010000               -0.11786825                2.06803550               -5.03168594               -8.78262782               54.65693335              -18.15863233
              24.65926519                3.82614973               63.88242361                0.00010000                1.11028059                2.87448858               -8.68974715               -8.68394861               53.09821955              -21.48137353
              25.67642754                2.29539023               63.60752232                0.00010000                2.36853686                3.99490245              -12.74874087               -7.88834570               51.29483588              -25.46485851
              26.70663593                0.78030412               63.31533043                0.00010000                3.83345425                5.51710823              -17.51119726               -5.92664523               49.14337201              -30.40493097
              27.75309662               -0.70539484               63.00033881                0.01040194                5.92121133                7.47496678              -23.39980064               -1.84732895               46.57365604              -36.14679279
              28.82506015               -2.13969500               62.65558861                0.10258188                8.28293483                9.50887984              -31.11407036                1.02879778               27.35570461              -41.66227242
              29.91875532               -3.58520248               61.94652041                0.58843233                9.36951668               10.89275110              -33.47370057                2.13102361               10.12137312              -54.23176790
              21.14929535               12.36414536               65.72614466                0.62655244               -0.16368333               -0.78621321                2.27413433               -0.10775310                0.12677406                7.41957727
              22.14765852               10.92369830               64.85126342                0.07723654               -0.92292049                0.45776285               -1.18391464               -1.93673792               22.40550582               -6.45003098
              23.13083694                9.44298845               64.42206439                0.00010000               -1.92723924                0.96913900                2.25970957               -5.97704198               56.16832791              -10.56590515
              24.10911373                7.91872674               64.22570570                0.00010000               -1.50648415                1.84558614               -1.79588293               -8.34341880               67.21827438              -12.99642262
              25.10070726                6.38849753               64.01963901                0.00010000               -0.27580980                2.70026310               -5.62060508               -8.52041658               65.77509291              -15.42036283
              26.10359754                4.86029301               63.79845438                0.00010000                0.84655596                3.76033302               -9.62802083               -8.05272324               63.79151513              -18.13548393
              27.11763838                3.34211176               63.55787008                0.00010000                2.07112811                5.13952014              -14.15614726               -6.86650141               61.39657384              -21.31960729
              28.14502010                1.84326991               63.29413647                0.00010000                3.71278571                6.83238639              -19.56056699               -4.59456872               58.73842879              -25.00959762
              29.19189409                0.37646117               63.00446262                0.01401758                6.30771781                8.67771244              -26.31408768               -0.51472803               56.21893541              -28.97723778
              30.27117445               -1.04008194               62.69040841                0.10722160                9.34335754               10.27885971              -35.06396629                1.70260418               32.88727435              -32.48445386
              31.37876124               -2.47378259               61.92391527                0.59108717               10.75867869               11.46817141              -37.52722318                1.96271059               11.38003691              -44.95794950
              22.58246261               13.35702472               65.55769276                0.62285379                0.02029693               -0.64058231                1.82780918               -0.10817644                0.13057106                7.34937014
              23.58266558               11.92936406               64.61369398                0.07237552               -0.70795558                0.67883769               -1.96212282               -2.29934605               28.18668440               -6.42004871
              24.56830350               10.45418336               64.23082686                0.00010000               -1.67102441                1.17948609                2.19899326               -6.21227988               67.93375282               -8.79250326
              25.54924509                8.93887309               64.08257758                0.00010000               -1.30280864                1.99916459               -1.99151506               -8.01419608               79.11923128              -10.46449144
              26.54224733                7.41785435               63.92476045                0.00010000               -0.23242978                2.95689097               -5.96358001               -7.75133620               77.54465586              -12.18122610
              27.54459649                5.90135639               63.74952288                0.00010000                0.69366451                4.24570323              -10.18590446               -6.87232655               75.23740513              -14.15051370
              28.55612062                4.39818063               63.55165375                0.00010000                1.78993257                5.85257423              -15.03162413               -5.39252993               72.48324891              -16.42739318
              29.58039515                2.91695185               63.32787790                0.00010000                3.50166465                7.69647208              -20.89915535               -3.06960553               69.59504713              -18.94315720
              30.62615391                1.46815941               63.07781937                0.01739651                6.44804238                9.50362945              -28.29598907                0.58359236               67.21717413              -21.47729442
              31.70935599                0.06588219               62.80811759                0.11165737                9.96284605               10.80285740              -37.72876129                2.04113012               39.03924180              -23.65162486
              32.82541083               -1.35583905               61.98364554                0.59350778               11.60548355               12.13702873              -40.21935968                1.63681708               12.57088296              -36.10251689
              24.00245315               14.35133371               65.38831936                0.61899679                0.20598078               -0.49956292                1.37525427               -0.11120832                0.16700465                7.29045942
              25.00451296               12.93727505               64.37596666                0.06769567               -0.26854197                0.90791829               -2.74296932               -2.75704616               34.83152483               -6.53705047
              25.99708231               11.46657817               64.05681293                0.00010000               -0.96770707                1.05583349                2.07311182               -6.36396396               80.97902200               -6.66019980
              26.98515882                9.95871003               63.96504406                0.00010000               -0.69425397                1.63842689               -2.04500455               -7.07659882               91.78752222               -7.47082620
              27.98319723                8.44763535               63.86253812                0.00010000                0.03329530                2.83625765               -6.00883190               -6.24736176               90.00899277               -8.47385526
              28.98582472                6.94520708               63.74038688                0.00010000                0.54975419                4.37293818              -10.27870850               -5.08798000               87.42275558               -9.69962820
              29.99419232                5.45916325               63.59347345                0.00010000                1.39122420                6.16285334              -15.25078244               -3.57072597               84.44322438              -11.11783483
              31.01364921                3.99719935               63.41966835                0.00010000                3.02216405                8.14399890              -21.36688016               -1.49077430               81.49449658              -12.59602796
              32.05463560                2.56653376               63.22088344                0.02123974                6.11731578               10.05332997              -29.16059245                1.37884265               79.20220048              -13.82986168
              33.13599552                1.17597521               63.00457091                0.11604539               10.01522372               11.10859143              -38.95343433                1.96283940               45.55105220              -14.61904210
              34.25494007               -0.23104201               62.12129439                0.59615727               11.89445484               12.61482350              -41.50242285                1.11615928               13.60137442              -27.09657347
              25.40835577               15.34703346               65.21909043                0.61505961                0.39244280               -0.35435395                0.92548633               -0.11224961               -0.12318703                6.34776311
              26.41228020               13.94752242               64.13557251                0.06302932                0.56167296                1.13655594               -3.54376203               -3.55257016               42.50097845               -5.90571720
              27.41958923               12.47530003               63.90433888                0.00010000                0.71878633               -0.22849931                1.88019315               -5.18925229               95.67691416               -3.75135860
              28.42665593               10.97164162               63.87751651                0.00010000                0.56069071                0.93958869               -1.94505324               -4.72011975              105.17600140               -3.95187640
              29.43080305                9.47457950               63.83673250                0.00010000                0.23265356                2.56076717               -5.73144954               -3.59742585              103.06591371               -4.36362803
              30.43130900                7.98881515               63.77425124                0.00010000                0.09553883                4.34311836               -9.84096493               -2.70657369              100.22973182               -4.93734794
              31.43271382                6.52143770               63.68550566                0.00010000                0.59500752                6.23582242              -14.68720713               -1.64159946               97.07697174               -5.60763374
              32.44320915                5.07983183               63.56953748                0.00010000                2.11205382                8.22403701              -20.75496047               -0.22450144               94.18544267               -6.26468772
              33.47495490                3.66922601               63.43183535                0.02505546                5.14897015               10.19724227              -28.64500716                1.47367393               92.23328489               -6.59421737
              34.54618855                2.28805402               63.28160725                0.12075387                9.34067795               11.14653928              -38.31098556                1.49209216               52.41805918               -5.87232929
              35.66176846                0.89645742               62.33704787                0.59874862               11.55799062               12.38258471              -40.94557947                0.35339811               14.10689435              -16.36026219
              26.79923024               16.34424664               65.03117248                0.80625013                0.59647503               -0.27868259                0.38051581                0.66339976                2.87938004                5.40318174
              27.80519499               14.96000617               63.90987746                0.53014364                3.49739113                1.24837469               -4.27555858               -4.82044392               52.61612929               -5.13556918
              28.86917806               13.46200818               63.78299649                0.46033320                4.31409781               -1.32918449                1.72738128               -4.16633511              111.36684897               -1.84137410
              29.89147695               11.97750181               63.82443900                0.44403485                1.24485628                0.58601841               -1.76018449               -1.67577251              118.86596330               -1.84003806
              30.89407519               10.49885070               63.85023712                0.43851019               -0.33209461                2.42711942               -5.15499666               -0.94440418              116.54039416               -2.02993157
              31.88483505                9.03206944               63.85302169                0.44257852               -1.18657687                4.32542931               -8.84586283               -0.39594461              113.51507320               -2.29069803
              32.87034365                7.58387970               63.82847787                0.45595959               -1.17320943                6.24419989              -13.24020356                0.24351487              110.16773165               -2.57829041
              33.86137087                6.16168009               63.77583926                0.47932174                0.27716167                8.18482620              -18.82907879                1.14611686              107.08577891               -2.81177759
              34.87588688                4.77047860               63.70151448                0.51390501                3.86175477               10.12525932              -26.28125128                1.95449364              105.52059257               -2.77344854
              35.93860596                3.39890600               63.62628373                0.56186848                8.46571772               11.08519768              -35.31220589                1.54829461               61.30123524               -1.00008615
              37.04520124                2.01660968               62.65862049                0.80021953               10.65952776               12.01522658              -37.75198004                0.11364651               18.01861802               -9.47494388
              12.76753131                6.68823169               67.82271079                0.85639677               -1.39676221               -1.56824851                5.32063929               -0.39441292               -4.20103938                4.70564525
              13.75356369                5.11143971               67.31358057                0.61205014               -1.33034061               -0.91897997                3.60737814               -0.40701935               -5.94294596               -3.41203119
              14.74092450                3.52838597               66.77036016                0.51120855               -1.18641707               -0.49925410                1.75032719               -0.46871765               -6.13771889               -0.62051307
              15.72983535                1.93051035               66.25826700                0.46592182               -0.87681392               -0.00778121               -0.00332649               -0.43082821               -3.87041147               -0.50008814
              16.72338822                0.31549952               65.76074582                0.44355412               -0.27389162                0.48206476               -1.80860525               -0.35156871               -2.52379740               -0.30342770
              17.72435752               -1.31378101               65.27525432                0.44225074                0.55445185                0.98518104               -3.65615080               -0.27022945               -1.68656750               -0.08497323
              18.73447726               -2.95005227               64.79358649                0.46223796                1.45188854                1.48422475               -5.50895339               -0.23415298               -1.77860500                0.14118240
              19.75339529               -4.58508450               64.30508556                0.50380815                2.24488083                1.96891217               -7.32052538               -0.23879131               -2.76597503                0.35459452
              20.77937488               -6.21304114               63.80234358                0.56839435                2.87034942                2.44257228               -9.09502397               -0.24790586               -4.46621998                0.44746865
              21.81080228               -7.83151239               63.27835102                0.65806425                3.36932259                2.90940994              -10.88349667               -0.25885552               -5.03512638                1.15668622
              22.84676133               -9.44096993               62.76254973                0.86528566                3.59590514                3.44357203              -12.63676314               -0.67176261               -4.53010323               -3.42200974
              14.34037917                7.67254920               67.61646113                0.67305326               -1.09628084               -1.58089213                4.66139527               -0.20640328                2.71993088                6.58268175
              15.32941636                6.10224991               67.10140898                0.15611385               -0.68385811               -0.70501046                2.95376105               -0.40927440                6.46303857               -6.22544179
              16.32670200                4.52339343               66.66176143                0.00010000                0.12769677                0.04647602                1.61197724               -1.60305586               10.48561118               -9.56135651
              17.33197029                2.93043254               66.22695831                0.00010000                0.76581075               -0.88193064                0.16440459               -3.06167051               11.50393265              -10.44440018
              18.34201822                1.32032017               65.80749326                0.00010000                1.12304138               -0.83315557               -1.29413078               -4.07287098               12.86555376              -12.37225294
              19.35443112               -0.30392920               65.39994032                0.00010000                1.28846287               -0.50937181               -2.79953221               -4.51760481               13.63109175              -14.82872459
              20.36778748               -1.93521002               64.99581326                0.00010000                1.40353467               -0.01617589               -4.29800462               -4.30424493               13.44553257              -17.34650466
              21.38250181               -3.56539538               64.58430413                0.00010000                1.61611441                0.56986050               -5.75653378               -3.43980148               12.32007304              -19.00954465
              22.40010976               -5.18861542               64.15705544                0.06622032                1.98381515                1.46177928               -7.16903148               -1.90950540               10.82363026              -16.71238068
              23.42217812               -6.80241829               63.71456103                0.19960083                2.46957398                2.63948086               -8.58911898               -0.67104881                7.90027806               -0.07666307
              24.44950124               -8.40653421               63.22734582                0.65366987                2.73231271                3.63816699              -10.14075832               -0.52432989                5.76013117               -9.63080235
              15.90400184                8.65661384               67.44858026                0.63176106               -0.94678618               -1.50298239                4.23451434               -0.13453746                0.18350785                7.97684605
              16.89453398                7.09733950               66.83339865                0.08607628               -1.16605431               -0.36995359                2.00712529               -0.39435148                7.97751896               -8.22768976
              17.88068075                5.52931549               66.37461413                0.00010000               -1.14293887                0.08503199                1.31629122               -4.00859616               19.75526188              -17.43237524
              18.87167520                3.91287174               65.99670015                0.00010000               -0.21941038               -1.04679183               -0.36176269               -7.32862193               23.46115121              -20.28789302
              19.87629255                2.29883641               65.61252845                0.00010000                0.89302077               -1.44026385               -2.41059370               -8.25432407               23.13802775              -24.32962519
              20.88953561                0.67603155               65.22913006                0.00010000                1.67829976               -1.27101110               -4.52684395               -8.97217929               23.17464383              -29.28645262
              21.90985854               -0.95037579               64.84737820                0.00010000                2.42345220               -0.76393952               -6.78389357               -8.58822822               23.63207303              -34.54785622
              22.93800466               -2.57368729               64.47504749                0.00010000                3.41745709                0.03127214               -9.27254361               -6.83308453               27.25124219              -39.09475637
              23.97820768               -4.18380556               64.16709205                0.00010000                3.86477165                1.32700948              -12.79883511               -3.99480640               43.69037534              -41.48537267
              25.01530009               -5.77872277               64.12433450                0.08058981                3.31494444                3.76866329              -10.07754789               -1.31210480               31.46851326              -44.00839968
              26.04450657               -7.36820659               63.56592130                0.57492966                2.92064788                6.10026954              -10.65994910                0.33649778                6.29725896              -56.20709750
              17.45623711                9.64248955               67.27127551                0.62749540               -0.74094292               -1.31774468                3.73636422               -0.11448539                0.11072206                7.55954341
              18.44882768                8.09485084               66.58113545                0.08039274               -1.26196359               -0.15356886                1.19526224               -1.02150058               11.18819116               -7.27424457
              19.43099784                6.52509407               66.11294569                0.00010000               -1.64753740               -0.25705566                2.17881046               -4.68272724               28.51815300              -15.41700792
              20.41587693                4.90949670               65.77281173                0.00010000               -0.86129577                0.02817197               -0.84382089               -7.62128479               34.43453108              -19.31327138
              21.41377192                3.29151489               65.42274541                0.00010000                0.41613998               -0.05597608               -3.47285627               -8.40945826               33.55205447              -23.45053468
              22.42419973                1.67065058               65.06670162                0.00010000                1.59849154                0.23047502               -6.20211435               -8.89813819               32.99051154              -28.16765249
              23.44574175                0.04951119               64.70788603                0.00010000                2.75350805                0.85979748               -9.18017215               -8.63097862               33.05193455              -33.52295891
              24.47926989               -1.56476994               64.35582702                0.00010000                3.97536823                1.87178766              -12.58909654               -7.23696646               34.71013323              -39.90309725
              25.52524912               -3.16207523               64.03243307                0.00010000                5.05335800                3.34621758              -15.97225556               -4.42959542               34.61616859              -50.55268306
              26.58033705               -4.72704503               63.67882917                0.08180408                5.49748581                6.37061478              -20.68600776               -0.96532400               22.00540540              -76.85862178
              27.63519884               -6.28452882               63.09508287                0.57522659                5.48617811                9.17302684              -22.12961654                2.07111256               11.45722785              -90.31077984
              18.99698957               10.63025895               67.09596216                0.62379615               -0.54901183               -1.13714700                3.26333403               -0.11194498                0.11740809                7.69849643
              19.99149945                9.09426812               66.33212379                0.07597683               -1.23046143                0.04523792                0.38608363               -1.62573286               15.41137167               -7.00705469
              20.97238034                7.52417438               65.87446673                0.00010000               -1.93353856                0.17068666                2.14322646               -5.43683489               37.95477081              -13.61020040
              21.95282868                5.91343518               65.56478590                0.00010000               -1.27154172                0.75277680               -1.27004395               -8.04096863               44.95157497              -17.68351056
              22.94694951                4.29771689               65.24693022                0.00010000                0.03739388                1.16475065               -4.45158162               -8.68489943               43.95947521              -21.74883509
              23.95357656                2.68064105               64.91887137                0.00010000                1.28549876                1.70943688               -7.72854756               -8.94901213               42.79233769              -26.27600376
              24.97265948                1.06682016               64.58028837                0.00010000                2.56375960                2.57897515              -11.36381136               -8.55779155               41.61743538              -31.65795442
              26.00485175               -0.53625154               64.23140069                0.00010000                3.96156911                3.84095716              -15.53760286               -7.11468323               39.98341070              -38.69431725
              27.05189086               -2.11688121               63.86154803                0.00011579                5.67977261                5.64029664              -20.64514432               -3.61126141               36.71811292              -49.04136541
              28.11844720               -3.65131048               63.44499840                0.08601351                7.45027741                8.26651905              -27.33345707               -0.18575524               21.90559903              -60.81767284
              29.20089641               -5.18474605               62.77027916                0.57767663                8.24492103               10.30237173              -30.03480503                2.24107231                9.71859300              -76.05651585
              20.52597987               11.61974661               66.92221730                0.62030532               -0.35822746               -0.96999446                2.79752537               -0.10986752                0.12189955                7.78066708
              21.52239760               10.09575559               66.08509000                0.07100383               -1.14428945                0.25551350               -0.41416119               -2.08280756               20.27694490               -6.83821356
              22.50309408                8.52850780               65.65126827                0.00010000               -2.04412745                0.66103020                1.94623676               -6.01419783               48.23371465              -12.09880984
              23.48151505                6.92455224               65.37530801                0.00010000               -1.51130114                1.42924821               -1.75951905               -8.23931354               55.78298373              -15.73141936
              24.47286806                5.31480991               65.09148682                0.00010000               -0.26994155                2.14010628               -5.30116855               -8.73450912               54.62710434              -19.40050757
              25.47611622                3.70483931               64.79379772                0.00010000                0.93052264                2.98935542               -9.03244181               -8.72320976               52.87256959              -23.49863922
              26.49147851                2.10109069               64.47736046                0.00010000                2.22806905                4.13693910              -13.24110231               -8.03298210               50.56986654              -28.40976968
              27.52067760                0.51204921               64.13597567                0.00010000                3.83021589                5.65592281              -18.25508553               -6.22231364               47.53134383              -34.56216598
              28.56808283               -1.04926930               63.75945538                0.00327576                6.19045995                7.56823625              -24.54322950               -2.38012985               43.40826542              -41.93291913
              29.64448680               -2.56171464               63.33259910                0.09023031                8.94043019                9.58145394              -32.93842980                0.71378715               25.83536080              -49.80688798
              30.74689143               -4.07848139               62.59658029                0.58023627               10.24046374               11.05598102              -36.04031708                2.24728490               11.07158943              -63.36764176
              22.04277426               12.61085906               66.74921504                0.61672545               -0.16921483               -0.81226659                2.33755694               -0.10944887                0.13157102                7.79098026
              23.04108211               11.09937839               65.83927167                0.06665882               -0.97372607                0.47343066               -1.21123472               -2.44558597               25.79608012               -6.74632577
              24.02329974                9.53739498               65.44272944                0.00010000               -1.96709036                1.07313952                1.66758616               -6.35323615               59.48261068              -10.50758824
              25.00174030                7.94202014               65.20624895                0.00010000               -1.56637452                1.95676144               -2.19612643               -8.18370541               67.19938185              -13.46190762
              25.99197225                6.34051902               64.96188233                0.00010000               -0.44543633                2.84065230               -5.97171238               -8.41299368               65.87679006              -16.46321031
              26.99283158                4.74042816               64.70014807                0.00010000                0.64088493                3.93775806              -10.03408104               -8.04387538               63.62897836              -19.86758327
              28.00478995                3.14955894               64.41328745                0.00010000                1.89669440                5.35444709              -14.71568175               -6.99307960               60.61760243              -23.90876163
              29.03076547                1.57686692               64.09368257                0.00010000                3.66310858                7.08441189              -20.40958771               -4.91788706               56.89172809              -28.70929029
              30.07805212                0.03448352               63.73317694                0.00658185                6.55847829                8.98312653              -27.68238707               -1.09116566               52.54796872              -34.17114424
              31.16193503               -1.45968140               63.32431610                0.09466736               10.06617366               10.71264826              -37.49143470                1.41305647               31.23866225              -39.74032252
              32.27937559               -2.96362643               62.52958213                0.58255656               11.74405600               12.00996764              -40.76394212                2.17483327               12.70502447              -53.02164730
              23.54675224               13.60350128               66.57624125                0.61315451                0.01977208               -0.66249962                1.87864640               -0.11028696                0.13413772                7.71960897
              24.54694996               12.10522421               65.59381684                0.06194728               -0.66823146                0.69974703               -2.00911319               -2.76931293               32.03962356               -6.71998418
              25.53338761               10.54997059               65.24951541                0.00010000               -1.61165259                1.35756331                1.32559759               -6.53265640               71.88457632               -8.75660016
              26.51471691                8.96368747               65.06050244                0.00010000               -1.35937199                2.18851188               -2.52381043               -7.84062140               79.39879931              -10.79244687
              27.50620017                7.37162295               64.86322486                0.00010000               -0.42590627                3.16611771               -6.39203537               -7.62070678               77.90739675              -12.97140885
              28.50619878                5.78359448               64.64540912                0.00010000                0.44889976                4.48923306              -10.64467491               -6.83879050               75.27358895              -15.52466684
              29.51517816                4.20817963               64.39806206                0.00010000                1.55982511                6.14789448              -15.64585860               -5.49491747               71.80039204              -18.54616640
              30.53739528                2.65373745               64.11354276                0.00010000                3.38148361                8.07902662              -21.84696027               -3.35655860               67.67893427              -22.04679850
              31.58280784                1.13039323               63.78542312                0.00993523                6.67312983               10.03717378              -29.90436468                0.10168252               63.28234936              -25.91263746
              32.67085788               -0.34746168               63.41175008                0.09877412               10.77351674               11.59177079              -40.88197174                1.86801746               37.47055055              -29.86202088
              33.79827817               -1.83828203               62.55895579                0.58505088               12.74202909               13.05310407              -44.21510060                1.93359801               14.41475788              -43.04655267
              25.03712267               14.59760907               66.40228409                0.60948350                0.21038707               -0.51669539                1.41462055               -0.11279322                0.17500666                7.65997403
              26.03922654               13.11337333               65.34817613                0.05740251               -0.14696612                0.93373853               -2.81124578               -3.15116290               39.11959309               -6.85084216
              27.03418335               11.56454625               65.07287308                0.00010000               -0.79755131                1.30981848                0.94506820               -6.60564865               85.61893965               -6.66382202
              28.02327552                9.98579038               64.94176927                0.00010000               -0.72661226                1.90153392               -2.70681746               -6.91603062               92.53300281               -7.63497500
              29.01965110                8.40384137               64.80028175                0.00010000               -0.18882144                3.11191598               -6.49997341               -6.12586683               90.79395937               -8.97679105
              30.01949909                6.83021282               64.63523152                0.00010000                0.25487618                4.67757588              -10.77157679               -5.04991472               87.84193142              -10.64407359
              31.02474863                5.27251683               64.43760457                0.00010000                1.09608033                6.53001283              -15.89476231               -3.63887214               84.06419560              -12.63771498
              32.04142069                3.73844745               64.20041171                0.00010000                2.82681326                8.63156711              -22.37620662               -1.68245230               79.74271774              -14.90656686
              33.08128489                2.23522699               63.91903682                0.01346166                6.32749758               10.77483960              -30.96234894                1.08749581               75.27388286              -17.24141210
              34.16797065                0.77215402               63.59232775                0.10316140               10.92016825               12.20181800              -42.77936724                1.92529162               44.20949067              -19.39117916
              35.29968826               -0.70256435               62.68022958                0.58751074               13.17176125               13.88875052              -46.14497247                1.40225503               15.96412418              -32.60957274
              26.51296785               15.59316737               66.22850015                0.60584750                0.40216720               -0.36555316                0.95330032               -0.11496488               -0.13149009                6.67234029
              27.51698952               14.12389898               65.09965174                0.05342561                0.79448683                1.16684871               -3.63515999               -3.83712106               47.19522546               -6.19885984
              28.52885759               12.57616696               64.91714974                0.00010000                1.00558253                0.09442159                0.54158063               -5.28600176              101.05958934               -3.72872755
              29.53710117               11.00171815               64.85478078                0.00010000                0.52014018                1.27580475               -2.69995486               -4.60370525              106.57688772               -3.97967448
              30.53926039                9.43386127               64.77713681                0.00010000               -0.02880750                2.88537295               -6.25588343               -3.52103197              104.47763605               -4.58750044
              31.53652502                7.87714599               64.67353326                0.00010000               -0.25471488                4.69169713              -10.33898779               -2.68289934              101.29626386               -5.40564806
              32.53416609                6.33877989               64.53543300                0.00010000                0.22555275                6.65300739              -15.32266760               -1.67577847               97.32882554               -6.39855660
              33.54103608                4.82636879               64.35660036                0.00010000                1.83425473                8.77677475              -21.75874693               -0.30343953               92.96598922               -7.51941958
              34.57085119                3.34589002               64.13516486                0.01721825                5.30594910               11.00799523              -30.49144033                1.38964398               88.78899497               -8.57096864
              35.64715506                1.89657468               63.87394080                0.10728174               10.24544119               12.48020167              -42.62583986                1.52951914               51.66983396               -8.56222428
              36.77576001                0.43949298               62.90028584                0.58990392               12.86049512               13.89670717              -45.98084033                0.50861872               17.13285568              -19.63092930
              27.97336017               16.59029801               66.03505695                0.80166672                0.61243650               -0.28693685                0.39197804                0.68046180                3.02656536                5.68216026
              28.97948453               15.13671031               64.86651501                0.52523900                3.86419885                1.28113277               -4.38832463               -4.94366512               57.82683764               -5.39877328
              30.05064415               13.56643468               64.79367485                0.45921777                4.70112838               -0.97322825                0.30533590               -4.09153557              117.51843799               -1.79570449
              31.07350710               12.01130648               64.80354310                0.44379500                1.15792361                0.95883290               -2.51757555               -1.60369964              121.08657955               -1.86397738
              32.07380262               10.46154883               64.79653237                0.43858617               -0.62923088                2.76875565               -5.66331659               -0.90876273              118.86456588               -2.16463277
              33.06092248                8.92404677               64.76253263                0.44226040               -1.58961764                4.69007715               -9.31121677               -0.35884620              115.59418286               -2.56392366
              34.04201026                7.40557698               64.69334663                0.45502165               -1.63403574                6.67970925              -13.82030604                0.28122632              111.54832334               -3.03438273
              35.02824177                5.91398295               64.58296318                0.47714654               -0.15691927                8.76141589              -19.74049500                1.21106499              107.08165342               -3.53459851
              36.03887188                4.45538690               64.42966541                0.50987804                3.83581532               10.94968746              -27.96132741                2.19082446              103.41817134               -3.96923181
              37.10495808                3.02175805               64.25029207                0.55522122                9.25760797               12.51833694              -39.57681126                1.77944617               61.73269858               -2.58388939
              38.22402404                1.57536979               63.25655062                0.79576504               11.90659635               13.58768129              -42.58783378                0.18757687               22.10838100              -11.43317894
              13.24237643                6.94569997               68.87661337                0.84889624               -1.43393657               -1.60906151                5.45872762               -0.40638010               -4.37145934                4.87993129
              14.22803707                5.29199274               68.35010993                0.60252036               -1.37290611               -0.94075661                3.69799224               -0.42996763               -6.18463783               -3.56747588
              15.21491831                3.63160534               67.78807477                0.50749966               -1.21948773               -0.51282951                1.79399984               -0.47487560               -6.39973262               -0.59250877
              16.20364731                1.95595639               67.25821682                0.46450090               -0.87853435               -0.00496914               -0.00519069               -0.43168286               -4.10634432               -0.50295150
              17.19734762                0.26314094               66.74241083                0.44325404               -0.24550984                0.49913776               -1.85474369               -0.35373467               -2.81043476               -0.30078619
              18.19873711               -1.44362870               66.23822177                0.44206700                0.60325532                1.01556318               -3.74663003               -0.27880656               -2.00388690               -0.08893976
              19.20941273               -3.15694801               65.73778590                0.46115170                1.51202760                1.52793241               -5.64215290               -0.24297545               -2.08359816                0.13777207
              20.22897767               -4.86861763               65.23095296                0.50028674                2.31366174                2.02654509               -7.50149849               -0.24892373               -3.03581592                0.34727008
              21.25568596               -6.57291692               64.71021707                0.56154126                2.94709427                2.51383566               -9.32277809               -0.25635106               -4.72883212                0.44634011
              22.28791955               -8.26757583               64.16805690                0.64624602                3.45566721                2.99533931              -11.15926680               -0.26530303               -5.29152958                1.16835679
              23.32479931               -9.95323644               63.63444901                0.85727825                3.68797560                3.54439925              -12.96308420               -0.67575970               -4.77519371               -3.56494767
              14.89201986                7.92960935               68.66367714                0.66019330               -1.12351550               -1.62724755                4.78123625               -0.21727036                2.89208247                6.87779787
              15.88078470                6.28258517               68.13131429                0.14078586               -0.69160658               -0.71528187                3.02707371               -0.44110110                6.82062660               -6.52793918
              16.87818773                4.62647704               67.67804750                0.00010000                0.13889888               -0.09201497                1.64238643               -1.69781922               10.97462101               -9.57490289
              17.88356268                2.95590670               67.22852826                0.00010000                0.77075472               -0.99066936                0.15061875               -3.15968403               11.93299841              -10.79330035
              18.89360282                1.26813232               66.79425258                0.00010000                1.12154208               -0.88732524               -1.35456872               -4.18035892               13.26806852              -13.18816339
              19.90599352               -0.43347307               66.37140991                0.00010000                1.29373068               -0.53887456               -2.90521545               -4.64802101               14.01155531              -16.13119185
              20.91947744               -2.14166869               65.95205155                0.00010000                1.42396793               -0.04235003               -4.45282662               -4.47029863               13.84458589              -19.21267668
              21.93447288               -3.84835218               65.52572191                0.00010000                1.65620585                0.52825544               -5.95786655               -3.65080793               12.76129238              -21.59172408
              22.95260155               -5.54777856               65.08410994                0.05571127                2.04767014                1.34823352               -7.41975854               -2.19071540               11.28148557              -20.53043784
              23.97542628               -7.23762243               64.62713444                0.18162239                2.55503877                2.76719162               -8.88598594               -0.83645870                8.28727946               -2.37126606
              25.00370233               -8.91779245               64.12415385                0.64163414                2.82760431                3.80569625              -10.48586583               -0.38249120                6.08054614              -11.55808548
              16.53207938                8.91315502               68.49149876                0.62115546               -0.97320305               -1.55183033                4.34477820               -0.13687671                0.16482080                8.35478738
              17.52234735                7.27768710               67.85373736                0.07444037               -1.22194925               -0.36740773                2.06092246               -0.57834528                8.77211803               -8.60971091
              18.50764040                5.62976504               67.38862555                0.00010000               -1.17744985               -0.24946784                1.47149674               -4.30796949               20.81096532              -17.10819284
              19.49879836                3.93614300               66.99298459                0.00010000               -0.22600927               -1.22570229               -0.40503603               -7.44910617               23.85974590              -20.97043248
              20.50312021                2.24539443               66.58802119                0.00010000                0.83896704               -1.53995929               -2.49956890               -8.39556887               23.38385539              -25.92564020
              21.51557770                0.54559380               66.18314956                0.00010000                1.58828232               -1.32691108               -4.66760738               -9.17938131               23.32335076              -31.83237004
              22.53488586               -1.15779501               65.77841779                0.00010000                2.32468420               -0.81548884               -6.99540919               -8.86473356               23.56937721              -38.18778999
              23.56207138               -2.85805252               65.38056669                0.00010000                3.31280265               -0.05890701               -9.59302321               -7.22408639               26.50666580              -44.08257523
              24.60114191               -4.54595225               65.03704818                0.00010000                3.95664438                1.17054884              -13.16781874               -4.15200626               45.04561021              -47.91163677
              25.64120427               -6.21223199               65.01374096                0.06871835                3.81738032                3.48571505              -12.40202966               -1.19885459               34.41055445              -52.50657854
              26.67748952               -7.87712252               64.45206744                0.56709115                3.62852505                5.63690368              -12.43742233                0.68964807                8.33955535              -65.11678947
              18.16021816                9.89857275               68.30913633                0.61708770               -0.76103791               -1.36048545                3.83166645               -0.11694091                0.11308916                7.91246510
              19.15260778                8.27523702               67.59325959                0.06894343               -1.33228594               -0.14813269                1.23038671               -1.43306727               12.94376274               -7.58663389
              20.13357244                6.62148769               67.13438449                0.00010000               -1.68283070               -0.49700695                1.97614102               -5.04591243               30.14242334              -14.96613024
              21.11895116                4.93139265               66.76392417                0.00010000               -0.86658974               -0.07938976               -0.97629661               -7.55397804               34.34406221              -19.97249755
              22.11624064                3.23733313               66.38733853                0.00010000                0.33220901               -0.09878573               -3.62576405               -8.44359757               33.65117896              -24.97251792
              23.12559534                1.53998871               66.00367575                0.00010000                1.47942228                0.22966293               -6.40059385               -8.97915176               32.93679745              -30.59838882
              24.14582909               -0.15797846               65.61455492                0.00010000                2.62765232                0.86876043               -9.46097473               -8.75129042               32.65148166              -36.98414306
              25.17814839               -1.84953032               65.22761263                0.00010000                3.89559081                1.84726307              -13.00011799               -7.36420035               34.02476006              -44.56150110
              26.22374090               -3.52436758               64.86853810                0.00010000                5.22355383                3.25322317              -16.73112098               -4.49568199               33.21518916              -56.40991227
              27.28261947               -5.16790813               64.46652878                0.07027226                6.17677175                5.59245364              -21.59740784               -1.08596798               21.48709837              -87.56368101
              28.34727634               -6.80505438               63.86569386                0.56747593                6.46568730                8.14285886              -23.65187638                1.85770768               12.50109755             -103.02014064
              19.77641202               10.88594531               68.12901273                0.61368564               -0.56409537               -1.17316466                3.34489293               -0.11218779                0.11969092                8.06898797
              20.77077107                9.27472445               67.33605648                0.06463362               -1.29227530                0.05298152                0.40268199               -2.09984184               17.67187562               -7.31312875
              21.75056652                7.61982490               66.89443763                0.00010000               -1.94488589                0.15369914                1.70132628               -5.82063006               40.12499931              -13.60518391
              22.73187335                5.93455521               66.55100004                0.00010000               -1.24571539                0.72386384               -1.55080126               -7.91468293               44.85235495              -18.32656610
              23.72565221                4.24341872               66.20134016                0.00010000               -0.02835470                1.17768512               -4.69017593               -8.61672439               43.97189528              -23.15983154
              24.73130626                2.55018706               65.84023844                0.00010000                1.18634331                1.74557685               -7.99553372               -8.92954625               42.62258779              -28.52312888
              25.74937907                0.85958020               65.46474955                0.00010000                2.49351189                2.60871106              -11.70989637               -8.57382446               41.03487177              -34.87113279
              26.78117649               -0.82110726               65.07317846                0.00010000                4.01135077                3.81546193              -16.02412417               -7.17242441               38.69368463              -43.08312634
              27.82960609               -2.48088778               64.65106732                0.00010000                5.94976048                5.43427243              -21.27772925               -3.91890298               34.19411922              -55.27931944
              28.90017170               -4.10038292               64.16643778                0.07437471                7.96650369                7.63788343              -27.94546172               -0.56772804               20.40660148              -69.56169678
              29.98893616               -5.71426534               63.46144908                0.56982088                8.87644597                9.65980429              -31.19964329                1.85917744                9.89829957              -86.45476422
              21.38041612               11.87510945               67.95054882                0.61031160               -0.36847721               -1.00021460                2.86622803               -0.11120595                0.12609414                8.15976450
              22.37673135               10.27629665               67.08093123                0.06011961               -1.15435221                0.26602497               -0.41527232               -2.56265684               22.95528410               -7.13906118
              23.35732908                8.62456167               66.66809973                0.00010000               -1.98338322                0.73823243                1.25790638               -6.37406793               50.91254120              -12.17510493
              24.33706368                6.94586993               66.35591451                0.00010000               -1.45273893                1.48694746               -2.18359859               -8.07998500               55.79894670              -16.34859371
              25.32827430                5.26088683               66.03696012                0.00010000               -0.31103717                2.20382844               -5.63489972               -8.61389800               54.69303837              -20.65760699
              26.33084294                3.57490024               65.70177477                0.00010000                0.86863105                3.05714423               -9.37115615               -8.66126748               52.68362243              -25.51214231
              27.34564692                1.89419576               65.34270028                0.00010000                2.21624704                4.18273667              -13.64983339               -8.05222342               49.83253650              -31.33249776
              28.37516788                0.22677892               64.95022872                0.00010000                3.94957952                5.63121379              -18.78255915               -6.40446103               45.84670913              -38.66985804
              29.42463851               -1.41568213               64.50947422                0.00010000                6.47372913                7.39791634              -25.20384348               -2.96577720               40.08036569              -47.66726072
              30.50464246               -3.01515046               63.99682002                0.07831046                9.37931096                9.31717769              -33.61344534                0.15973243               23.85964799              -57.94151958
              31.61222473               -4.61185829               63.22571407                0.57216470               10.75822645               10.88371526              -37.43033308                1.99889262               11.28571801              -72.67994934
              22.97181351               12.86594101               67.77289580                0.60696799               -0.17477963               -0.83808025                2.39519096               -0.11070347                0.13477729                8.17360041
              23.97006571               11.28004495               66.82703873                0.05603458               -0.91508177                0.48816326               -1.23145463               -2.89494604               28.84090577               -7.04719210
              24.95351188                9.63458955               66.45541611                0.00010000               -1.80586150                1.21730215                0.73143359               -6.68852224               62.66912336              -10.63382995
              25.93394848                7.96429416               66.18178317                0.00010000               -1.45839714                2.08169487               -2.76263069               -8.03231589               67.44887634              -13.97805757
              26.92434393                6.28749529               65.90020476                0.00010000               -0.45882515                2.95699600               -6.39987181               -8.28749627               66.10922166              -17.52250082
              27.92477198                4.61132995               65.59777275                0.00010000                0.60559966                4.04396794              -10.44392898               -7.99361130               63.52816385              -21.59094401
              28.93645593                2.94323493               65.26355645                0.00010000                1.90965916                5.43722092              -15.18644687               -7.07325127               59.84417308              -26.46713489
              29.96296517                1.29151702               64.88594471                0.00010000                3.78820025                7.12539084              -21.00892317               -5.23597492               54.95451376              -32.36592697
              31.01221993               -0.33292946               64.45081488                0.00010000                6.82886719                8.98644579              -28.47892826               -1.83006598               48.58550905              -39.36447668
              32.09954251               -1.91403937               63.94057971                0.08222666               10.50548701               10.78902947              -38.52253720                0.84651466               29.01860138              -47.25074643
              33.22232967               -3.49659104               63.10863642                0.57444281               12.27871626               12.22203702              -42.65819819                2.09832458               13.25324743              -61.56002520
              24.54999419               13.85834785               67.59526569                0.60360604                0.01897065               -0.68333576                1.92417977               -0.11100842                0.13911530                8.10136067
              25.55018389               12.28605991               66.57351171                0.05195219               -0.53423832                0.71891791               -2.04872967               -3.15950127               35.41726351               -7.02569150
              26.53930942               10.64890771               66.25733882                0.00010000               -1.33361348                1.55389224                0.15605622               -6.81000001               75.59438361               -8.91076547
              27.52351162                8.98750383               66.03210137                0.00010000               -1.19104208                2.37190209               -3.22675450               -7.72096153               80.02589343              -11.18567887
              28.51548858                7.32002675               65.79691974                0.00010000               -0.41402766                3.33461471               -6.91008676               -7.52269944               78.43701599              -13.78481000
              29.51523107                5.65577960               65.53662939                0.00010000                0.42531210                4.64357581              -11.12158491               -6.82590182               75.40063974              -16.89025695
              30.52399482                4.00294018               65.23873658                0.00010000                1.56908487                6.29015408              -16.17967380               -5.63263755               71.13965184              -20.63224355
              31.54661277                2.36928674               64.89093870                0.00010000                3.47993771                8.22466954              -22.53791267               -3.73936233               65.65285894              -25.11323617
              32.59359358                0.76404678               64.47973208                0.00250422                6.93107841               10.24466196              -30.89460775               -0.63396658               58.84052597              -30.38971772
              33.68523434               -0.79936987               63.99047816                0.08629705               11.28504907               12.00001358              -42.48149072                1.39928708               35.13171635              -36.49322403
              34.81929456               -2.36741755               63.09934352                0.57676536               13.40602201               13.60137604              -46.82272594                1.99969378               15.42258639              -50.62166160
              26.11416921               14.85227430               67.41661177                0.60007248                0.21466140               -0.53202208                1.44753243               -0.11366971                0.18304594                8.04261863
              27.11631583               13.29442330               66.31974174                0.04742562                0.08493753                0.95732144               -2.87115046               -3.46278428               42.82918816               -7.17291269
              28.11586796               11.66566739               66.07571430                0.00010000               -0.39528066                1.55080015               -0.42495480               -6.81742732               89.94939278               -6.83407679
              29.10841021               10.01173220               65.91090772                0.00010000               -0.51268970                2.13852359               -3.52933887               -6.83924092               93.70262337               -7.88563239
              30.10561417                8.35418758               65.73253865                0.00010000               -0.15348449                3.32760606               -7.09711719               -6.07080147               91.79118746               -9.50963446
              31.10534052                6.70420146               65.52495535                0.00010000                0.23409349                4.88107393              -11.30647157               -5.07212771               88.38518824              -11.58312088
              32.11029604                5.06903801               65.27557820                0.00010000                1.08653953                6.73921652              -16.48467341               -3.79813182               83.73266244              -14.12733073
              33.12707131                3.45601041               64.97214422                0.00010000                2.89505878                8.88026135              -23.15378816               -2.04449613               77.86059432              -17.18166910
              34.16819721                1.87196378               64.60163646                0.00574695                6.59606349               11.15656326              -32.16576495                0.48756389               70.66211129              -20.69888538
              35.25899258                0.32596090               64.14898357                0.09034564               11.51108439               12.91075440              -44.96549691                1.63513069               42.00495220              -24.66484339
              36.39841890               -1.22456352               63.19839494                0.57910131               13.94263181               14.74676697              -49.36079679                1.56960475               17.59337422              -38.77173760
              27.66342278               15.84770741               67.23815644                0.59688912                0.41123317               -0.37490359                0.97365985               -0.11629534               -0.14113881                7.00510139
              28.66753512               14.30520634               66.06286931                0.04363118                1.11145987                1.19404298               -3.71516426               -4.04928347               51.24728939               -6.49714609
              29.68565198               12.67992371               65.91517049                0.00010000                1.53357500                0.36882445               -0.95087796               -5.41406401              106.12195847               -3.83151553
              30.69820662               11.03027430               65.82351742                0.00010000                0.79756510                1.54827051               -3.61060679               -4.57020170              108.47357811               -4.08003924
              31.70160328                9.38657887               65.71161483                0.00010000                0.03657359                3.12896724               -6.90755260               -3.50552017              106.14514693               -4.83517296
              32.69893809                7.75340108               65.56747149                0.00010000               -0.26900221                4.92953886              -10.91544028               -2.71452241              102.51726844               -5.87132384
              33.69622324                6.13772451               65.37905231                0.00010000                0.19294937                6.91633789              -15.95525924               -1.79627927               97.66063724               -7.16790201
              34.70279707                4.54689197               65.13436254                0.00010000                1.85855599                9.11260355              -22.59971821               -0.54663101               91.64645682               -8.74828606
              35.73339436                2.98717805               64.82200654                0.00941242                5.58335873               11.50645353              -31.84016091                1.03387269               84.48620221              -10.53445786
              36.81446425                1.45884521               64.42909045                0.09458340               10.91705661               13.42823831              -45.40429280                1.38609440               49.96427647              -11.73346027
              37.95173549               -0.07248221               63.41743107                0.58139632               13.72712418               14.99900323              -49.71824347                0.68890039               19.61053117              -23.53334815
              29.19684543               16.84477623               67.03901204                0.79729382                0.62684149               -0.29311778                0.39603457                0.69505849                3.17813701                5.96465592
              30.20311385               15.31830416               65.82211097                0.52063801                4.28366464                1.30978223               -4.48589668               -5.02874412               62.38729690               -5.66350638
              31.28251873               13.67304388               65.78910321                0.45812606                5.36185851               -0.68798328               -1.20709999               -4.09365335              123.39130791               -1.88548109
              32.31035102               12.04269761               65.77408749                0.44356059                1.49291281                1.24233099               -3.43652163               -1.59940747              123.83046294               -1.95387152
              33.31237698               10.41676693               65.73697079                0.43857638               -0.52232879                3.01880531               -6.32193916               -0.91789847              121.44703810               -2.33133021
              34.29990444                8.80279224               65.66679736                0.44217352               -1.57487074                4.93911606               -9.90471787               -0.37347240              117.83614047               -2.85342566
              35.28087957                7.20736477               65.55207175                0.45414925               -1.66096446                6.96402635              -14.48354962                0.23914477              113.03711408               -3.50061444
              36.26668515                5.63826248               65.38102936                0.47515487               -0.19790736                9.13705147              -20.62712086                1.12521201              107.07018611               -4.28250011
              37.27692142                4.10209285               65.14228793                0.50603329                3.98447882               11.49148076              -29.36034040                2.16586554              100.45209235               -5.18738445
              38.34637473                2.59452567               64.83474751                0.54856738                9.89651700               13.56804567              -42.63259459                1.85723274               61.31395311               -4.69348520
              39.47485176                1.07541655               63.80686381                0.79139931               12.84770306               14.78987611              -46.45039436                0.40071475               25.94349854              -14.07812551
              13.73310899                7.21170276               69.93188534                0.84167321               -1.46994623               -1.64830009                5.59192138               -0.41837637               -4.54233159                5.05408271
              14.71840953                5.47768147               69.38754041                0.59357140               -1.41430121               -0.96177812                3.78449563               -0.45072042               -6.42443239               -3.72339744
              15.70482297                3.73659035               68.80624016                0.50362815               -1.25185582               -0.52457527                1.83777455               -0.47690334               -6.65755819               -0.56493051
              16.69337241                1.97982843               68.25816318                0.46322685               -0.88241944               -0.00296748               -0.00357431               -0.43422621               -4.33914555               -0.50234911
              17.68717458                0.20580029               67.72365095                0.44314582               -0.22338492                0.51462548               -1.89343072               -0.35588916               -3.09307954               -0.29857143
              18.68890471               -1.58193608               67.20032172                0.44195943                0.64497666                1.04552515               -3.82606846               -0.28556625               -2.31450306               -0.08919179
              19.70007411               -3.37582813               66.68074344                0.45957223                1.56715405                1.57326845               -5.76906482               -0.25773682               -2.38613231                0.12958430
              20.72024779               -5.16767699               66.15505559                0.49693738                2.38100911                2.08334003               -7.67525767               -0.26144959               -3.30715803                0.34041432
              21.74769429               -6.95190008               65.61588802                0.55439486                3.02459783                2.58447877               -9.54290659               -0.26790251               -4.98834304                0.43872827
              22.78073975               -8.72630034               65.05516568                0.63452709                3.53894744                3.07726672              -11.42001315               -0.27491924               -5.54463887                1.17600644
              23.81847324              -10.49167856               64.50328804                0.84940091                3.77334908                3.63642086              -13.26361793               -0.67781056               -5.01750319               -3.70873023
              15.46294651                8.19521976               69.71208586                0.64798170               -1.14879818               -1.67261796                4.89489269               -0.23000356                3.06550834                7.17592941
              16.45145853                6.46806369               69.16195045                0.12595196               -0.69830304               -0.72407485                3.09651007               -0.47175735                7.18098378               -6.83030907
              17.44898045                4.73134459               68.69460916                0.00010000                0.14833227               -0.28878527                1.66765989               -1.77175345               11.46718777               -9.52276543
              18.45442518                2.97979876               68.22997068                0.00010000                0.77587453               -1.08806267                0.13873542               -3.21479877               12.36410163              -11.15898716
              19.46449794                1.21094654               67.78040188                0.00010000                1.12190420               -0.92813165               -1.41316697               -4.23247421               13.66773550              -14.01403259
              20.47686326               -0.57148083               67.34183602                0.00010000                1.29346269               -0.54728049               -3.00633963               -4.71703384               14.38961585              -17.43929255
              21.49036720               -2.36009545               66.90675673                0.00010000                1.44030041               -0.04034118               -4.60677022               -4.58039569               14.24586855              -21.09214641
              22.50566927               -4.14684359               66.46514680                0.00010000                1.69798710                0.52237343               -6.15892530               -3.83500267               13.20343495              -24.20526951
              23.52432694               -5.92605529               66.00866027                0.04529963                2.11052651                1.27168120               -7.67069719               -2.52163750               11.74309308              -24.37611235
              24.54787980               -7.69552767               65.53684131                0.16380909                2.63732100                2.90258251               -9.17557080               -1.07534435                8.67839462               -5.85331003
              25.57707336               -9.45531435               65.01762850                0.62980786                2.91935592                3.97980839              -10.81411803               -0.17009441                6.39855921              -14.35672138
              17.18282105                9.17825040               69.53547582                0.61070846               -0.99715049               -1.59974340                4.44546881               -0.13974978                0.14434023                8.73752667
              18.17284955                7.46319998               68.87461709                0.06308511               -1.25841114               -0.36323283                2.11315306               -0.82197602                9.63566034               -8.99096588
              19.15765283                5.73081464               68.40404407                0.00010000               -1.16875323               -0.56926043                1.57164283               -4.54657611               21.86392066              -16.92961475
              20.14947448                3.95806718               67.98859943                0.00010000               -0.19240745               -1.38837255               -0.49308928               -7.40990120               24.18705170              -21.68824325
              21.15380468                2.18723766               67.56253707                0.00010000                0.80657719               -1.61004892               -2.60696444               -8.42014465               23.63640896              -27.54137979
              22.16560603                0.40711831               67.13577792                0.00010000                1.50121377               -1.34626228               -4.80630444               -9.25082877               23.46760407              -34.39136081
              23.18382896               -1.37663496               66.70747002                0.00010000                2.19507760               -0.82039930               -7.18021441               -8.99402616               23.48180789              -41.84416461
              24.20950758               -3.15722952               66.28318702                0.00010000                3.10583306               -0.08840699               -9.85871834               -7.48594251               25.75343013              -49.10651798
              25.24594562               -4.92646645               65.90373568                0.00010000                3.94921728                1.08813389              -13.46531094               -4.23546739               45.27585352              -54.47803108
              26.28849193               -6.66824869               65.87629391                0.05745511                4.43495488                3.22561011              -15.43270708               -1.02862379               36.52261407              -61.20762905
              27.33464472               -8.41208239               65.31717285                0.55935505                4.61527908                5.05005403              -14.96456489                1.10749351               11.04131677              -74.56640517
              18.89025237               10.16322489               69.34790884                0.60711209               -0.77975940               -1.40120894                3.91945449               -0.11884475                0.11491832                8.27223815
              19.88245477                8.46079904               68.60574319                0.05766006               -1.35353202               -0.14330334                1.26703112               -1.83015005               14.54121406               -7.89857074
              20.86318173                6.71995938               68.15246851                0.00010000               -1.63253185               -0.62295885                1.55321688               -5.32418925               31.71496415              -14.77664393
              21.84980414                4.95203131               67.75328580                0.00010000               -0.80689025               -0.15768293               -1.18733829               -7.38575237               34.36554693              -20.70718922
              22.84704392                3.17874557               67.35023013                0.00010000                0.29575807               -0.11694921               -3.81171485               -8.35465290               33.77353645              -26.52604719
              23.85571930                1.40159392               66.93868974                0.00010000                1.38952916                0.24805746               -6.59462762               -8.91180542               32.88076614              -33.04708022
              24.87483451               -0.37650343               66.51866654                0.00010000                2.50313080                0.89435518               -9.69330456               -8.68088605               32.21673785              -40.45399864
              25.90578191               -2.14861173               66.09582466                0.00010000                3.79011236                1.83496866              -13.30501235               -7.24445411               33.17386363              -49.21238446
              26.95063675               -3.90429261               65.69781065                0.00010000                5.35706744                3.15313699              -17.36279087               -4.29177100               31.67772260              -62.23012090
              28.01292326               -5.63101547               65.24688101                0.05893443                6.81269436                4.77065191              -22.18669375               -1.11575564               20.64486551              -96.81274287
              29.08689064               -7.35431327               64.62204535                0.55997223                7.39673770                6.91104213              -24.89799251                1.37997432               12.82451947             -114.65658509
              20.58529587               11.15022622               69.16286002                0.60383258               -0.57838142               -1.20830299                3.41981926               -0.11500307                0.12037572                8.44735583
              21.57951206                9.46033391               68.34017743                0.05392313               -1.26795481                0.05965452                0.42303379               -2.51865840               19.65627537               -7.61971403
              22.55993677                7.71835546               67.90849326                0.00010000               -1.82694007                0.20339217                1.02507769               -6.11202436               42.17014691              -13.75479024
              23.54297326                5.95491352               67.53376987                0.00010000               -1.13938834                0.73829624               -1.93524919               -7.73136685               44.93463024              -19.05022212
              24.53714901                4.18489867               67.15312670                0.00010000               -0.01771679                1.20237970               -4.97210102               -8.45047113               44.04379028              -24.60922193
              25.54261892                2.41207946               66.75896070                0.00010000                1.16339421                1.77341150               -8.25686694               -8.76586566               42.45660559              -30.78578053
              26.56041689                0.64125215               66.34609044                0.00010000                2.48943772                2.60686362              -11.98763335               -8.38844103               40.41384585              -38.07635390
              27.59240767               -1.12053015               65.91091821                0.00010000                4.10485205                3.72487660              -16.34855856               -6.97999650               37.35078391              -47.41029857
              28.64251393               -2.86340371               65.43599344                0.00010000                6.18948992                5.09652691              -21.56923787               -3.99217007               31.76892558              -61.22452019
              29.71619747               -4.57283565               64.88608917                0.06272461                8.31629380                6.81642477              -27.85707926               -0.89705968               18.78461742              -77.60684456
              30.80883981               -6.27386155               64.14628629                0.56209515                9.26423372                8.75227746              -31.47783543                1.29376273                9.61346961              -95.98355298
              22.26773693               12.13905883               68.97954186                0.60046308               -0.37845657               -1.03060118                2.93002268               -0.11226685                0.13010164                8.54731715
              23.26395237               10.46199213               68.07678456                0.04980535               -1.06876517                0.27600759               -0.41172288               -2.95818737               25.24017133               -7.44166209
              24.24636163                8.72402723               67.67642640                0.00010000               -1.76593881                0.85619162                0.35917714               -6.65969524               53.36317966              -12.40166263
              25.22863359                6.96679723               67.33163604                0.00010000               -1.27465325                1.56793024               -2.71371472               -7.91390731               56.05426461              -17.03840115
              26.22086856                5.20279316               66.97878882                0.00010000               -0.22925404                2.26053519               -6.02038453               -8.43584958               54.84013327              -21.95437533
              27.22404851                3.43706215               66.60637460                0.00010000                0.94033643                3.08376038               -9.70551907               -8.48675350               52.50803655              -27.53575900
              28.23967529                1.67563384               66.20436379                0.00010000                2.33946667                4.14638975              -13.97490749               -7.90458969               49.07087071              -34.23001263
              29.27083784               -0.07411420               65.76032449                0.00010000                4.17117776                5.46842763              -19.08765164               -6.39031362               44.13418489              -42.68399415
              30.32309885               -1.80236207               65.25537851                0.00010000                6.73010314                7.01699163              -25.37269759               -3.39797042               36.86998240              -53.18761194
              31.40543991               -3.49468697               64.66033019                0.06651853                9.58594247                8.72405904              -33.23803308               -0.43088044               21.67657738              -65.67997879
              32.51481770               -5.17926772               63.84797363                0.56428679               10.93777913               10.27025766              -37.52915877                1.51629057               10.86416421              -81.68937184
              23.93718395               13.12961420               68.79711886                0.59740532               -0.18040305               -0.86231529                2.44702157               -0.11073599                0.13837489                8.56723132
              24.93537991               11.46585406               67.81464257                0.04586802               -0.76230906                0.50076166               -1.24507209               -3.24325870               31.39247709               -7.35197402
              25.92193776                9.73547930               67.45735811                0.00010000               -1.47253691                1.37149340               -0.35661563               -6.96289708               65.55152319              -10.89947473
              26.90592918                7.98627213               67.15099633                0.00010000               -1.18853347                2.20260555               -3.42949690               -7.91748316               67.98690268              -14.58335420
              27.89816709                6.23010938               66.83388489                0.00010000               -0.29430031                3.03998544               -6.88674792               -8.14867763               66.44482182              -18.62213435
              28.90004317                4.47375467               66.49126949                0.00010000                0.76671786                4.07722962              -10.85524006               -7.87916027               63.45125354              -23.31948354
              29.91350145                2.72417994               66.10955851                0.00010000                2.12770704                5.39395835              -15.56627467               -7.04648336               59.04815777              -28.98816568
              30.94259731                0.98883840               65.67350411                0.00010000                4.08129220                6.96937065              -21.34652575               -5.43123501               52.97466839              -35.93004033
              31.99512730               -0.72306388               65.16359838                0.00010000                7.09441001                8.70696823              -28.65882668               -2.51064098               44.65399863              -44.39706277
              33.08448551               -2.39835447               64.55386536                0.07008880               10.65999117               10.44784785              -38.17508120                0.15241703               26.41538489              -54.58448914
              34.20832712               -4.06845640               63.67641817                0.56642556               12.38416080               11.93969697              -42.97688793                1.69888039               12.94568115              -70.08938430
              25.59304249               14.12181253               68.61472485                0.59450049                0.01796097               -0.70217557                1.96195077               -0.11353224                0.14147804                8.49167566
              26.59322210               12.47200736               67.55284224                0.04167164               -0.31784324                0.73517087               -2.07881144               -3.45137866               38.22437385               -7.33477281
              27.58668562               10.75145710               67.25263653                0.00010000               -0.87841254                1.72768726               -1.07755090               -7.05452739               78.97099649               -9.21326291
              28.57565385                9.01084934               66.99596735                0.00010000               -0.81365752                2.51947792               -4.02294359               -7.66448854               80.98054134              -11.67345936
              29.57041247                7.26359287               66.72502312                0.00010000               -0.16295545                3.44221086               -7.49496719               -7.44912344               79.09583759              -14.64354666
              30.57239474                5.51860675               66.42297742                0.00010000                0.66247077                4.69768196              -11.61264578               -6.79798690               75.56200311              -18.25892529
              31.58366189                3.78351301               66.07446858                0.00010000                1.85311132                6.27372758              -16.62940271               -5.73109913               70.45410468              -22.67423738
              32.60945696                2.06527321               65.66278450                0.00010000                3.82085042                8.12759104              -22.94935175               -4.08793506               63.54832785              -28.08529104
              33.66007890                0.37177729               65.16753097                0.00010000                7.22118991               10.10193537              -31.19071622               -1.42213764               54.29366602              -34.74368370
              34.75388076               -1.28573001               64.56212026                0.07400796               11.44601333               11.92996597              -42.34714974                0.72873131               32.21908851              -43.10729600
              35.88899916               -2.94047378               63.62250127                0.56866975               13.51184007               13.61848739              -47.51720012                1.74591719               15.37349122              -58.34260088
              27.23452363               15.11557069               68.43123474                0.59096331                0.21841394               -0.54717000                1.47364015               -0.11747882                0.18944211                8.43199201
              28.23670777               13.48055748               67.29075312                0.03770200                0.37407994                0.97897350               -2.92032521               -3.69192431               45.89810780               -7.49747014
              29.24200523               11.77003304               67.06437399                0.00010000                0.18979295                1.73453228               -1.78128647               -6.99663849               93.88888176               -7.13883812
              30.24050363               10.03666169               66.87118249                0.00010000               -0.02890050                2.30441197               -4.43259458               -6.83024521               95.23751801               -8.22840048
              31.24142722                8.29895359               66.65833940                0.00010000                0.18298315                3.45664037               -7.77290599               -6.05782970               92.93839089              -10.09094034
              32.24416330                6.56770830               66.40910209                0.00010000                0.53928896                4.96353782              -11.87853036               -5.11304613               88.97184096              -12.52579179
              33.25221300                4.84965449               66.10791111                0.00010000                1.42055134                6.77076473              -17.01624601               -3.97460955               83.37188002              -15.57254680
              34.27257432                3.15139022               65.73733595                0.00010000                3.27373839                8.86223571              -23.66859054               -2.45628234               75.86133238              -19.36115282
              35.31768777                1.47897483               65.27572152                0.00010000                6.93684444               11.13860534              -32.63606484               -0.26884721               65.76044796              -24.04965637
              36.41131121               -0.15975515               64.69301781                0.07781339               11.75226136               13.09357752              -45.24572790                1.10369109               39.05247234              -30.05610168
              37.55273300               -1.79608665               63.69301364                0.57091706               14.14217861               15.04154628              -50.60038323                1.48136200               18.10968849              -45.14958842
              28.86071933               16.11086913               68.24797334                0.58778562                0.42019304               -0.38453843                0.98587122               -0.11815881               -0.15016165                7.34666515
              29.86492126               14.49158683               67.02534845                0.03408261                1.49646594                1.21996905               -3.78407109               -4.21449282               54.62888801               -6.79997487
              30.89064865               12.78614774               66.89813218                0.00010000                2.26035651                0.54132886               -2.37413383               -5.50803511              110.77413521               -4.01657840
              31.91012839               11.05693758               66.78256864                0.00010000                1.37803057                1.72136037               -4.59013322               -4.58384576              110.75641779               -4.25639407
              32.91820926                9.33272568               66.63898576                0.00010000                0.46522622                3.26283625               -7.65726887               -3.52268947              107.97160463               -5.11894540
              33.91943291                7.61787750               66.45522446                0.00010000                0.11392594                5.03091009              -11.56574897               -2.77081738              103.77406932               -6.34091879
              34.92048778                5.91892830               66.21632781                0.00010000                0.57890343                6.99356542              -16.58163920               -1.95260153               97.94699938               -7.90777301
              35.93101098                4.24251793               65.90460599                0.00010000                2.26797720                9.18045469              -23.24342114               -0.87619538               90.17042533               -9.90270096
              36.96584732                2.59454940               65.49836164                0.00191228                6.00025384               11.60507998              -32.52483756                0.50657082               79.70949765              -12.41520571
              38.05101606                0.97614154               64.96585494                0.08169928               11.27210411               13.81646924              -46.22584822                1.05788951               47.40194945              -15.01254986
              39.19128940               -0.63964286               63.90592097                0.57290819               14.02733446               15.55142206              -51.51725960                0.71798101               21.06546897              -27.53970992
              30.47072505               17.10787992               68.04297764                0.79278045                0.64142517               -0.29892071                0.39382895                0.70826636                3.33793432                6.25619310
              31.47713930               15.50495686               66.77679708                0.51567113                4.78843631                1.33700306               -4.57508022               -5.12921072               66.29836132               -5.93281288
              32.56649378               13.78085962               66.76953285                0.45705682                6.25547394               -0.52881232               -2.63241493               -4.10888540              128.89956145               -2.04503691
              33.60224878               12.07108889               66.73481267                0.44335393                2.17698677                1.41513095               -4.43358465               -1.62042574              126.94508317               -2.10623237
              34.61003351               10.36421032               66.67009358                0.43861328                0.01477708                3.14846422               -7.10828080               -0.95569388              124.15164914               -2.53003539
              35.60254432                8.66832651               66.56443827                0.44202167               -1.07564834                5.04490032              -10.62413961               -0.42308482              120.05806753               -3.15485164
              36.58852055                6.98952580               66.40367564                0.45336467               -1.15575046                7.05975024              -15.22729177                0.13691740              114.41479321               -3.96239885
              37.57942932                5.33499932               66.17042076                0.47307588                0.28375152                9.24813894              -21.45573424                0.91936448              106.82199188               -5.00076659
              38.59419558                3.71107643               65.84245861                0.50208488                4.36159706               11.65270284              -30.32611238                1.91357156               96.93008602               -6.38555552
              39.66666126                2.11657424               65.39764018                0.54222983               10.22329120               14.04327014              -43.97886034                1.75778793               60.18008161               -6.92013212
              40.79866140                0.51494179               64.32754273                0.78717876               13.20001452               15.45846490              -48.68393839                0.57395527               29.06848654              -16.78429862
              14.24021966                7.48638059               70.98845179                0.83474579               -1.50260569               -1.68431269                5.71507505               -0.42946967               -4.71208016                5.22225322
              15.22519360                5.66870471               70.42579985                0.58463839               -1.45376398               -0.98023993                3.86451160               -0.47184455               -6.66006418               -3.87717732
              16.21114438                3.84356873               69.82483026                0.49983751               -1.28699946               -0.53509057                1.87974665               -0.48382782               -6.90900588               -0.53742016
              17.19945361                2.00229440               69.25814533                0.46190690               -0.89084418               -0.00036996                0.00136315               -0.43521654               -4.56471226               -0.49799361
              18.19332749                0.14366764               68.70454221                0.44291041               -0.20495215                0.52979024               -1.92641818               -0.36030586               -3.36671836               -0.29681289
              19.19535457               -1.72844113               68.16170040                0.44176436                0.68143613                1.07260108               -3.89795709               -0.29488445               -2.62399954               -0.09084938
              20.20695622               -3.60638291               67.62240460                0.45858932                1.61676758                1.61447110               -5.88548170               -0.26475113               -2.68984420                0.12497410
              21.22768992               -5.48199177               67.07744781                0.49340152                2.44263948                2.14027660               -7.83870742               -0.27038565               -3.57816596                0.33288380
              22.25580901               -7.34968685               66.51935894                0.54769684                3.09684179                2.65383862               -9.75423637               -0.27476924               -5.25062429                0.43091866
              23.28962675               -9.20740695               65.93965664                0.62297112                3.61977605                3.15900890              -11.67084717               -0.28033692               -5.79617696                1.18327182
              24.32820453              -11.05609197               65.36917665                0.84165062                3.85777719                3.72802837              -13.55462037               -0.67904248               -5.25431130               -3.85411648
              16.05360084                8.46953746               70.76157499                0.63578236               -1.17197560               -1.71490089                4.99893218               -0.24031560                3.24128577                7.47297042
              17.04188108                6.65890231               70.19324449                0.11136940               -0.70447925               -0.73148297                3.16068612               -0.50104589                7.54261150               -7.13025975
              18.03951125                4.83821783               69.71140070                0.00010000                0.15854538               -0.51276700                1.69298970               -1.84097559               11.96556414               -9.44351548
              19.04505199                3.00229070               69.23130297                0.00010000                0.77904743               -1.16156914                0.12642258               -3.23297504               12.80034202              -11.56215258
              20.05509220                1.14896555               68.76598924                0.00010000                1.11895043               -0.94645278               -1.46770530               -4.23317026               14.06718052              -14.85954634
              21.06743100               -0.71771512               68.31128312                0.00010000                1.29959109               -0.53230044               -3.10386393               -4.72807382               14.76333298              -18.75577151
              22.08108402               -2.59023819               67.85991614                0.00010000                1.46035187               -0.01026036               -4.75024486               -4.63585915               14.64030364              -22.96631826
              23.09663803               -4.46058900               67.40254340                0.00010000                1.73424409                0.55655146               -6.35641878               -3.98629345               13.64208456              -26.82543083
              24.11576890               -6.32314846               66.93069600                0.03553943                2.16939555                1.25118007               -7.91481373               -2.87423853               12.20362974              -28.21678847
              25.14002595               -8.17581686               66.44362303                0.14675038                2.71651096                3.04913362               -9.46023088               -1.35352994                9.07616878              -10.86314562
              26.17009912              -10.01881169               65.90787149                0.61834761                3.00731779                4.16122540              -11.13316121                0.11818959                6.72832393              -18.45463546
              17.85668364                9.45208257               70.58040814                0.60059994               -1.01913294               -1.64520759                4.53999991               -0.13840243                0.12430543                9.12578769
              18.84649231                7.65407505               69.89600043                0.05187543               -1.28735860               -0.35985202                2.16208649               -1.08889347               10.52568131               -9.36947504
              19.83093647                5.83331339               69.42005841                0.00010000               -1.12229628               -0.83561035                1.57530984               -4.70970891               22.87381667              -16.94109832
              20.82404639                3.97906302               68.98312281                0.00010000               -0.11332811               -1.51061362               -0.62078916               -7.25631581               24.45757298              -22.48371120
              21.82866991                2.12473859               68.53588190                0.00010000                0.79752211               -1.63714971               -2.73191990               -8.34674650               23.90067172              -29.19640516
              22.83999683                0.26091286               68.08702347                0.00010000                1.42215018               -1.32102786               -4.94338605               -9.19917175               23.61605788              -36.96812814
              23.85711291               -1.60658811               67.63481350                0.00010000                2.04387439               -0.77203338               -7.34055089               -8.99143462               23.38613250              -45.49991172
              24.88087432               -3.47086074               67.18339232                0.00010000                2.82195905               -0.04600944              -10.07327211               -7.61158139               25.01663587              -54.12885240
              25.91355209               -5.32466325               66.76774196                0.00010000                3.86725297                1.09603511              -13.73500534               -4.25467198               44.05468613              -61.15715984
              26.95821938               -7.14642428               66.70508682                0.04624348                5.15029391                3.09293067              -18.91387598               -0.84740378               37.39706578              -69.95588844
              28.01655797               -8.97286746               66.15277614                0.55189562                5.83385937                4.57560843              -18.28738919                1.52262823               14.16902469              -84.34443925
              19.64684783               10.43663331               70.38752542                0.59706550               -0.79754384               -1.44115821                4.00114406               -0.11774974                0.11718571                8.63794645
              20.63887239                8.65170527               69.61860022                0.04724903               -1.32593614               -0.13931268                1.30503383               -2.16783301               15.88839458               -8.20918341
              21.62032910                6.82150562               69.16544883                0.00010000               -1.51859561               -0.62710941                1.02649422               -5.50931511               33.16583182              -14.91356022
              22.60850048                4.97207843               68.74017741                0.00010000               -0.70108375               -0.19312435               -1.45828706               -7.16984749               34.54006069              -21.54326835
              23.60630743                3.11622255               68.31110424                0.00010000                0.31368935               -0.10314986               -4.02483717               -8.17734136               33.92584222              -28.13217925
              24.61477426                1.25586432               67.87178320                0.00010000                1.33607495                0.29368683               -6.78387525               -8.72118077               32.83005994              -35.52415041
              25.63302893               -0.60567886               67.42068883                0.00010000                2.38536400                0.94719879               -9.87880077               -8.43939719               31.76966825              -43.93334392
              26.66248154               -2.46150919               66.96151239                0.00010000                3.66050379                1.85238392              -13.51109343               -6.90670234               32.16743751              -53.83718237
              27.70623900               -4.30122776               66.52128228                0.00010000                5.44002705                3.08586017              -17.87486303               -3.80937564               30.08009958              -67.94049767
              28.77128208               -6.11395825               66.02279491                0.04801772                7.35995284                4.02276424              -22.59662137               -0.93599669               19.57429500             -104.05443086
              29.85343806               -7.92729952               65.36773401                0.55252226                8.21559766                5.65013902              -25.89061060                0.87853960               12.49085338             -124.41853319
              21.42418473               11.42325940               70.19740911                0.59404029               -0.59213832               -1.24181732                3.49000314               -0.11281447                0.12351977                8.83323980
              22.41826334                9.65128880               69.34451716                0.04307821               -1.19038585                0.06464950                0.44607959               -2.83551777               21.27549176               -7.92630992
              23.40037701                7.82077120               68.91493919                0.00010000               -1.61654183                0.30789690                0.27650506               -6.33380882               43.98383079              -14.06045424
              24.38593251                5.97520053               68.51229505                0.00010000               -0.95199100                0.78985086               -2.37757487               -7.54047688               45.21913710              -19.88634277
              25.38133719                4.12267559               68.10189814                0.00010000                0.07710618                1.24092944               -5.28390759               -8.21914834               44.17391698              -26.12073334
              26.38747463                2.26678660               67.67510110                0.00010000                1.21806462                1.80059733               -8.50856390               -8.48326443               42.29590961              -33.08314518
              27.40569848                0.41235586               67.22499688                0.00010000                2.54072712                2.59031497              -12.19718482               -8.02570717               39.76969653              -41.28357621
              28.43828917               -1.43381306               66.74620729                0.00010000                4.20575786                3.60111648              -16.51781284               -6.54732972               36.01953425              -51.66346083
              29.48981364               -3.26294605               66.21968256                0.00010000                6.36410146                4.70942269              -21.56769258               -3.81812399               29.56011644              -66.75011253
              30.56557120               -5.06596899               65.60929619                0.05150313                8.54988347                5.87160086              -27.32715015               -1.13109121               17.17214738              -84.75607188
              31.66081131               -6.85986468               64.83189237                0.55456195                9.52401066                7.57609568              -31.10788381                0.64958491                9.01425426             -104.27125684
              23.18853275               12.41179696               70.00914927                0.59102612               -0.38825210               -1.05783745                2.98777010               -0.11242783                0.13292359                8.94346010
              24.18465023               10.65299826               69.07269677                0.03928518               -0.93957816                0.28294917               -0.40345980               -3.23603735               27.07540031               -7.74451095
              25.16974119                8.82766356               68.67528327                0.00010000               -1.44318413                0.98093595               -0.54557111               -6.86556193               55.52223774              -12.76782804
              26.15578655                6.98787545               68.30164021                0.00010000               -0.97013971                1.65476119               -3.29252524               -7.76975799               56.53567688              -17.83114888
              27.15033840                5.14104114               67.91655243                0.00010000               -0.01789244                2.30713557               -6.43452483               -8.21845781               55.05696872              -23.31787486
              28.15542870                3.29187627               67.50766439                0.00010000                1.13880218                3.07754284              -10.02653316               -8.21324503               52.33475583              -29.59350446
              29.17311444                1.44612744               67.06320213                0.00010000                2.57040775                4.05054807              -14.21300291               -7.59385721               48.29374652              -37.11754849
              30.20683686               -0.38948686               66.56847569                0.00010000                4.44590080                5.21346301              -19.17985372               -6.15186258               42.47030800              -46.59081440
              31.26203246               -2.20703931               66.00202026                0.00010000                6.93710198                6.49614393              -25.11373419               -3.59571787               33.98300827              -58.40835310
              32.34557890               -3.99652623               65.33205936                0.05501517                9.60943418                7.92248853              -32.12551342               -0.96395416               19.52649628              -72.72241380
              33.45422114               -5.77577761               64.47513089                0.55667673               10.86422436                9.34791573              -36.57457653                0.84118082               10.02205966              -89.89763873
              24.93953357               13.40210266               69.82183623                0.58820219               -0.18575738               -0.88657411                2.49112590               -0.11267788                0.13887583                8.96488198
              25.93767600               11.65694778               68.80213729                0.03569245               -0.56724954                0.51278278               -1.25151847               -3.48016400               33.42586983               -7.65477028
              26.92818858                9.84038992               68.44828380                0.00010000               -1.02581186                1.49815105               -1.38575240               -7.13944854               68.08317306              -11.29485522
              27.91715976                8.00829576               68.11319323                0.00010000               -0.76106863                2.29865166               -4.12697925               -7.83111564               68.76723775              -15.29134347
              28.91296721                6.16881830               67.76246981                0.00010000                0.04818350                3.08300835               -7.40083683               -7.99507204               66.85564639              -19.79049923
              29.91812343                4.32833745               67.38066795                0.00010000                1.11086283                4.04461150              -11.25311778               -7.69272544               63.37098420              -25.07803394
              30.93518447                2.49336682               66.95223095                0.00010000                2.51476167                5.24876972              -15.84738208               -6.88629290               58.22352944              -31.48722553
              31.96841867                0.67045620               66.45901420                0.00010000                4.48770922                6.66179691              -21.42612063               -5.43549535               51.02752489              -39.38921431
              33.02493865               -1.13302317               65.87763834                0.00010000                7.33058745                8.20446340              -28.28823801               -2.99383710               41.05167784              -49.18105007
              34.11503042               -2.90751922               65.17707809                0.05854422               10.55995120                9.79289914              -36.73932955               -0.54081477               23.73356934              -61.33754429
              35.23613768               -4.67290637               64.24909867                0.55863798               12.11072599               11.24562822              -41.79001443                1.05034630               11.97366001              -77.97141173
              26.67658895               14.39406548               69.63450470                0.58499441                0.01707368               -0.72185063                1.99273932               -0.11177024                0.14878289                8.88913896
              27.67675969               12.66325391               68.53193548                0.03178072               -0.04923528                0.75099563               -2.10070366               -3.64880847               40.46881372               -7.64456212
              28.67560424               10.85762658               68.23578780                0.00010000               -0.30119139                1.85025278               -2.20026945               -7.21888971               81.94745257               -9.62453406
              29.67073586                9.03384848               67.95164250                0.00010000               -0.26044927                2.61335706               -4.82486195               -7.64449368               82.18386910              -12.26513704
              30.67039526                7.20270131               67.64702040                0.00010000                0.31449065                3.47939200               -8.10825194               -7.37924007               79.83231114              -15.57064728
              31.67702567                5.37276850               67.30437647                0.00010000                1.14372885                4.65505706              -12.09674543               -6.72581359               75.70940861              -19.65279795
              32.69326984                3.55110283               66.90614853                0.00010000                2.37456350                6.11805118              -16.98050708               -5.73520539               69.71477208              -24.68485504
              33.72451694                1.74374908               66.43195166                0.00010000                4.34306507                7.82548308              -23.07568079               -4.29919975               61.43014723              -30.94501153
              34.78013114               -0.04295004               65.85591776                0.00010000                7.50644306                9.65815763              -30.82600195               -2.08158345               50.02858090              -38.86671366
              35.87464580               -1.80066825               65.14353516                0.06195028               11.29356115               11.43117055              -40.77670048               -0.00977509               29.10568397              -49.25981782
              37.00600236               -3.55086504               64.14899952                0.56065960               13.13565574               13.09656933              -46.31659758                1.20448751               14.47576013              -65.57472712
              28.39892130               15.38766564               69.44608457                0.58214298                0.22174342               -0.55838373                1.49298211               -0.11577622                0.19642308                8.83032105
              29.40113873               13.67196769               68.26133524                0.02839331                0.71474631                0.99544858               -2.95963737               -3.85381572               48.37489060               -7.82658964
              30.41321622               11.87739498               68.04008857                0.00010000                0.90282139                1.84033551               -2.95943095               -7.15472706               97.40804009               -7.53219735
              31.41919516               10.06056290               67.82225582                0.00010000                0.66230829                2.38338776               -5.32623347               -6.86216486               97.01649261               -8.66258688
              32.42646239                8.23840614               67.57708053                0.00010000                0.80052389                3.48722390               -8.48271978               -6.05699999               94.15749821              -10.73506853
              33.43520564                6.42143859               67.28738474                0.00010000                1.15186955                4.92390113              -12.45974702               -5.13132743               89.52389928              -13.48936930
              34.44949978                4.61572785               66.93525328                0.00010000                2.06409529                6.63508395              -17.46666531               -4.09804391               82.91977812              -16.98226196
              35.47648754                2.82696586               66.49877241                0.00010000                3.91122636                8.60020268              -23.89869755               -2.79665243               73.78532701              -21.42472832
              36.52772431                1.06013999               65.94891517                0.00010000                7.31311854               10.75434448              -32.37852585               -0.98287232               61.01501408              -27.17654623
              37.62274991               -0.67889581               65.24406901                0.06573376               11.64483529               12.73200488              -43.77799242                0.45915684               35.69264789              -35.15501151
              38.76062101               -2.41097498               64.18638728                0.56276051               13.78710993               14.65297699              -49.65858394                1.13760566               17.50288016              -51.22466615
              30.10566933               16.38289780               69.25787386                0.57902893                0.42847097               -0.38870771                0.99077359               -0.12129389               -0.15955394                7.69487593
              31.10995404               14.68316289               67.98718789                0.02497452                1.91225853                1.23914867               -3.84086447               -4.35386885               57.40754517               -7.10893354
              32.14391450               12.89443329               67.86768781                0.00010000                3.12636803                0.59734178               -3.57804296               -5.61842587              114.97239875               -4.26163315
              33.17248140               11.08151624               67.73171475                0.00010000                2.22325316                1.77610020               -5.55438837               -4.62453581              113.26255474               -4.49259316
              34.18837956                9.27244579               67.55846945                0.00010000                1.22980100                3.27722128               -8.45520758               -3.54738680              109.84295649               -5.44651709
              35.19707742                7.47124652               67.33615651                0.00010000                0.87010645                4.99144940              -12.25397046               -2.81815897              104.94928243               -6.82576682
              36.20578169                5.68380451               67.04741952                0.00010000                1.35471690                6.88466437              -17.16693736               -2.09001146               98.07126945               -8.62398251
              37.22417176                3.91575313               66.66949412                0.00010000                3.02768368                8.98258775              -23.64750114               -1.19065894               88.52044566              -10.97577627
              38.26633536                2.17213685               66.17150979                0.00010000                6.53860758               11.30239117              -32.50057763               -0.06009321               74.87626391              -14.11673101
              39.35494391                0.45397185               65.50457349                0.06941361               11.32887262               13.57241862              -45.10421949                0.60999870               44.17196554              -18.17944993
              40.49291282               -1.25780550               64.38708587                0.56472007               13.79689090               15.37310201              -51.01628518                0.61203335               21.19206104              -31.40254414
              31.79596526               17.37989149               69.04688862                0.78839350                0.65606151               -0.30063159                0.38312586                0.71551056                3.49623949                6.55652248
              32.80252587               15.69675067               67.73060936                0.51125488                5.32645509                1.35877788               -4.65225428               -5.27030030               69.61590227               -6.21221919
              33.90249436               13.88934181               67.73645491                0.45593682                7.30830375               -0.50914745               -3.85103406               -4.17530221              133.95128114               -2.24777452
              34.94869195               12.09608490               67.68541580                0.44311547                3.16450045                1.45686659               -5.43061343               -1.64850742              130.24618008               -2.29794102
              35.96578437               10.30395057               67.59480517                0.43866359                0.93958936                3.15047820               -7.97161487               -1.00038535              126.83107771               -2.75520166
              36.96748373                8.52126758               67.45431457                0.44181852               -0.12957126                5.00210608              -11.42394915               -0.48584002              122.09303799               -3.46438335
              37.96319294                6.75342114               67.24752592                0.45240759               -0.15708537                6.96166249              -15.99411119                0.00862687              115.47451448               -4.40704685
              38.96434203                5.00661762               66.95191467                0.47099266                1.25553917                9.08644854              -22.14719713                0.65536074              106.19355217               -5.66626057
              39.98830372                3.28618781               66.53576568                0.49829754                5.02751062               11.40509598              -30.73015155                1.49358336               93.00111285               -7.44042702
              41.06489224                1.59255256               65.95517030                0.53582569               10.40563295               13.85807114              -43.58114460                1.50979562               58.10812537               -9.14130023
              42.19641638               -0.10351294               64.83318504                0.78302154               13.15241453               15.42925595              -49.01105867                0.74380643               30.76223614              -19.50838268
              14.76417128                7.76990142               72.04618684                0.82764661               -1.53415061               -1.71786005                5.83121130               -0.43908328               -4.88136445                5.39241030
              15.74882977                5.86524864               71.46483065                0.57570917               -1.49369579               -0.99907165                3.94074791               -0.49448843               -6.89369177               -4.03110120
              16.73429736                3.95270108               70.84383509                0.49607433               -1.32317773               -0.54549406                1.92158759               -0.49117813               -7.15462625               -0.50866481
              17.72236622                2.02355328               70.25819044                0.46043204               -0.90061109                0.00249489                0.00778217               -0.43883006               -4.78053030               -0.49332160
              18.71628514                0.07696997               69.68512259                0.44257592               -0.19019409                0.54459615               -1.95599666               -0.36596230               -3.63289043               -0.29377813
              19.71856234               -1.88291850               69.12236258                0.44160320                0.71223409                1.09991647               -3.96445490               -0.30201711               -2.92374663               -0.09263433
              20.73052982               -3.84835174               68.56303380                0.45735161                1.65838983                1.65210250               -5.98670073               -0.27628389               -2.99025779                0.11926150
              21.75173013               -5.81121050               67.99828144                0.49014418                2.49715754                2.19137775               -7.98637394               -0.28010609               -3.85464051                0.32241167
              22.78047297               -7.76595581               67.42080330                0.54105729                3.16341847                2.71817318               -9.94713124               -0.28316511               -5.51357346                0.42253990
              23.81499850               -9.71056767               66.82174874                0.61169125                3.69370095                3.23469158              -11.90319503               -0.28681895               -6.05026851                1.18568724
              24.85434699              -11.64615056               66.23219563                0.83418821                3.93484903                3.81440088              -13.83029042               -0.67869581               -5.49904463               -3.99631244
              16.66443323                8.75272282               71.81206450                0.62362148               -1.19481721               -1.75428460                5.09836603               -0.24892462                3.42342245                7.77648600
              17.65248506                6.85525792               71.22516418                0.09675049               -0.70999875               -0.73969411                3.22297029               -0.52967754                7.91213741               -7.43104829
              18.65023326                4.94724614               70.72846895                0.00010000                0.16792054               -0.73782697                1.71894365               -1.89851331               12.47205560               -9.39595433
              19.65584347                3.02357823               70.23249914                0.00010000                0.78140758               -1.20173812                0.11419731               -3.21969834               13.24113263              -12.02215680
              20.66586141                1.08241593               69.75104778                0.00010000                1.11797747               -0.93877061               -1.52011788               -4.19326291               14.47298041              -15.73321300
              21.67820302               -0.87191933               69.27975874                0.00010000                1.30257888               -0.49129200               -3.19740688               -4.69067002               15.14225601              -20.07831497
              22.69191299               -2.83183071               68.81175183                0.00010000                1.47640439                0.04729329               -4.88354336               -4.63622283               15.02680841              -24.83379869
              23.70773111               -4.78929673               68.33801842                0.00010000                1.77034603                0.62174724               -6.53871333               -4.08808326               14.06938873              -29.42996838
              24.72731991               -6.73877408               67.85036400                0.02561705                2.22482888                1.28799395               -8.14554417               -3.20260779               12.66224873              -32.06025616
              25.75222769               -8.67822076               67.34763669                0.13013584                2.79115060                3.20146688               -9.73059115               -1.64159533                9.47316277              -17.51508894
              26.78314292              -10.60800655               66.79496528                0.60708766                3.09152333                4.36584310              -11.43884289                0.43639926                7.05810030              -24.22550296
              18.55412259                9.73481573               71.62627582                0.59065267               -1.04096854               -1.68699863                4.63064176               -0.13543473                0.10183344                9.52042079
              19.54371291                7.85045475               70.91785882                0.04059598               -1.30579040               -0.35796432                2.21037447               -1.35284979               11.38603945               -9.74540980
              20.52800678                5.93794454               70.43555026                0.00010000               -1.04552248               -1.02193680                1.46675861               -4.81241578               23.85107850              -17.17281588
              21.52280246                3.99951852               69.97618365                0.00010000               -0.00446670               -1.57922690               -0.77395375               -7.03217533               24.71644295              -23.38936228
              22.52791745                2.05819456               69.50789867                0.00010000                0.80965634               -1.61650954               -2.86850122               -8.20846478               24.18743725              -30.91142316
              23.53899558                0.10725566               69.03691020                0.00010000                1.36326549               -1.25236887               -5.07786798               -9.05337727               23.77898575              -39.56566437
              24.55518276               -1.84740587               68.56065900                0.00010000                1.89581252               -0.67614901               -7.47851911               -8.87227622               23.30707467              -49.14901624
              25.57691183               -3.79877556               68.08172158                0.00010000                2.50810450                0.05631889              -10.23706044               -7.59919787               24.30502241              -59.12084278
              26.60534485               -5.74019593               67.62903557                0.00010000                3.72436157                1.18654610              -13.98863672               -4.20632304               41.31431921              -67.93220987
              27.65139906               -7.64653834               67.49801639                0.03550714                5.86508562                3.09536487              -22.31620311               -0.64540058               36.72410649              -78.76562731
              28.72264656               -9.55883370               66.95142507                0.54467225                7.12474965                4.31031953              -22.28513525                1.95479361               17.18292268              -94.43159521
              20.43044649               10.71898285               71.42793172                0.58730201               -0.81472355               -1.47742806                4.07775770               -0.11704274                0.12117244                9.00861249
              21.42229926                8.84809863               70.63184386                0.03649635               -1.27626587               -0.13717981                1.34279958               -2.41982679               16.96676718               -8.51587318
              22.40492117                6.92680740               70.17299839                0.00010000               -1.36746556               -0.53163016                0.51565526               -5.61381113               34.46248311              -15.35420078
              23.39494994                4.99199370               69.72412006                0.00010000               -0.54831002               -0.18973305               -1.75898852               -6.95635338               34.87180306              -22.50023285
              24.39395497                3.05008574               69.26973339                0.00010000                0.38929816               -0.05793739               -4.25292792               -7.95282779               34.12284288              -29.80964882
              25.40273591                1.10303329               68.80301224                0.00010000                1.32718549                0.36398516               -6.96519266               -8.44983272               32.80390429              -38.03992499
              26.42049868               -0.84535369               68.32109052                0.00010000                2.29006512                1.02365977              -10.02047768               -8.08408826               31.34344268              -47.41976226
              27.44853721               -2.78817035               67.82560279                0.00010000                3.52287701                1.90064458              -13.62831487               -6.42443077               31.05740255              -58.42658053
              28.49095622               -4.71504316               67.34031339                0.00010000                5.47101138                3.05259941              -18.23854204               -3.14302993               28.43575924              -73.48429275
              29.55795744               -6.61631346               66.79494858                0.03729232                7.79366445                3.46584022              -22.93065536               -0.53627264               18.31216213             -109.18637522
              30.64682951               -8.52180016               66.10423313                0.54524991                8.88720746                4.60750635              -26.67342191                0.51562947               11.60530465             -131.88500409
              22.29355017               11.70526717               71.23266009                0.58458004               -0.60583517               -1.27409660                3.55509868               -0.11290551                0.12316639                9.22503073
              23.28749182                9.84771116               70.34909902                0.03275986               -1.08573352                0.06915748                0.47158351               -3.04640588               22.53463659               -8.23159615
              24.27183550                7.92731194               69.91402336                0.00010000               -1.35473844                0.42593271               -0.39635850               -6.45227639               45.55740548              -14.52251053
              25.26039705                5.99572386               69.48621838                0.00010000               -0.70070998                0.86411910               -2.82649250               -7.35740495               45.68021186              -20.84821221
              26.25782130                4.05703581               69.04744855                0.00010000                0.25206583                1.28891254               -5.60468261               -7.95798535               44.36991415              -27.71337490
              27.26543836                2.11453537               68.58878942                0.00010000                1.34416660                1.82959618               -8.74275100               -8.13052339               42.15844456              -35.43083883
              28.28470463                0.17306732               68.10214674                0.00010000                2.63371582                2.57012458              -12.34077385               -7.55288958               39.14329191              -44.50284489
              29.31811268               -1.76076267               67.58056195                0.00010000                4.29613654                3.47164794              -16.54839327               -5.96613045               34.77060241              -55.83739593
              30.37062736               -3.67914394               67.00463959                0.00010000                6.46589655                4.32791207              -21.35259189               -3.41198709               27.67156313              -71.83649342
              31.44743061               -5.57722153               66.33954616                0.04051321                8.66525930                4.96981589              -26.56181832               -1.13189290               15.75161389              -90.90589665
              32.54393255               -7.46668357               65.52412861                0.54735376                9.65019354                6.36866832              -30.32516323                0.16811163                8.31271180             -111.08261958
              24.14330040               12.69350092               71.03929726                0.58166632               -0.39740332               -1.08553806                3.03793560               -0.11145448                0.13532661                9.34198703
              25.13932637               10.84948178               70.06871536                0.02914608               -0.77187309                0.29043922               -0.39035594               -3.41084673               28.49551891               -8.04405391
              26.12786294                8.93532606               69.66551498                0.00010000               -1.06242006                1.08828641               -1.32436199               -6.97479618               57.38516822              -13.26149719
              27.11807797                7.00927608               69.26578553                0.00010000               -0.59395905                1.73595546               -3.85228258               -7.63855942               57.19273973              -18.73685014
              28.11598376                5.07586399               68.85009833                0.00010000                0.30079797                2.33978047               -6.84763391               -7.98334317               55.33822442              -24.76785777
              29.12409393                3.13962521               68.40584394                0.00010000                1.43775811                3.04732697              -10.31954721               -7.87759275               52.17598632              -31.70542184
              30.14473892                1.20604880               67.92010373                0.00010000                2.86659691                3.92108547              -14.36301712               -7.17207174               47.54177250              -40.01107692
              31.18142587               -0.71873739               67.37672742                0.00010000                4.72182107                4.91704044              -19.08851846               -5.74529876               40.94399231              -50.39540478
              32.23917535               -2.62848492               66.75310383                0.00010000                7.07166683                5.92807861              -24.55036204               -3.53550777               31.56885322              -63.30885894
              33.32285920               -4.51691714               66.01781992                0.04377839                9.49702374                7.03201871              -30.61898843               -1.28379557               17.65420290              -78.93933386
              34.42911582               -6.39442679               65.11648210                0.54922234               10.62566161                8.24651548              -34.94858604                0.24036605                9.07912272              -97.01443876
              25.97935935               13.68355641               70.84694138                0.57901410               -0.19096049               -0.90769756                2.52826362               -0.11083789                0.14262153                9.36834408
              26.97744974               11.85351994               69.78961221                0.02588017               -0.34070341                0.52181905               -1.25151165               -3.62449201               35.00548043               -7.95661796
              27.97254528                9.94907766               69.42964307                0.00010000               -0.51809102                1.59177933               -2.23728640               -7.25061270               70.27012629              -11.80035500
              28.96708792                8.03044297               69.06845675                0.00010000               -0.23699904                2.36039663               -4.78266964               -7.76127932               69.71151717              -16.10437688
              29.96780530                6.10383142               68.68586815                0.00010000                0.53068912                3.08526035               -7.90388440               -7.83100513               67.32037829              -21.04487021
              30.97770171                4.17548190               68.26620714                0.00010000                1.59102494                3.96043952              -11.61470613               -7.44907680               63.28808280              -26.88863074
              31.99962580                2.25148903               67.79261087                0.00010000                3.00193571                5.03723887              -16.02246310               -6.61302750               57.40471927              -33.98491823
              33.03774042                0.33757814               67.24498169                0.00010000                4.92355802                6.26760800              -21.27759267               -5.26032948               49.21366125              -42.75259891
              34.09809696               -1.56058237               66.59783362                0.00010000                7.49780781                7.58255573              -27.50981424               -3.21338140               38.00189623              -53.67544534
              35.18769658               -3.43658116               65.81907877                0.04705452               10.28311049                8.94999262              -34.69813318               -1.05587077               21.34400595              -67.34032429
              36.30375917               -5.30175326               64.84061788                0.55115886               11.60625925               10.25849295              -39.59697542                0.40628105               10.82432756              -84.89281560
              27.80115658               14.67534697               70.65457963                0.57611121                0.01586960               -0.73742304                2.01898975               -0.11330996                0.15301442                9.29460381
              28.80131527               12.85991816               69.51082817                0.02249453                0.23855410                0.76266703               -2.11631066               -3.77167403               42.22945293               -7.95611953
              29.80592766               10.96716164               69.20863114                0.00010000                0.33916760                1.92057080               -3.10370167               -7.33669919               84.52957173              -10.11730557
              30.80809863                9.05648401               68.89947011                0.00010000                0.41985317                2.64473614               -5.56428657               -7.64194208               83.53048012              -12.95317320
              31.81432472                7.13756920               68.56285808                0.00010000                0.96780779                3.44858738               -8.70289042               -7.30035166               80.60278833              -16.57938843
              32.82745478                5.21883400               68.18104252                0.00010000                1.80287065                4.53294885              -12.54143300               -6.60044029               75.82584777              -21.09295389
              33.85038214                3.30679357               67.73485844                0.00010000                3.04179494                5.86246136              -17.21540945               -5.63120686               68.94180670              -26.68680604
              34.88829068                1.40661477               67.20127089                0.00010000                4.93424393                7.38875284              -22.93695771               -4.33744075               59.40795942              -33.70354341
              35.94906702               -0.47683380               66.55101093                0.00010000                7.73109973                9.02171223              -29.94431908               -2.49687841               46.34375636              -42.70758948
              37.04291268               -2.33791729               65.74658625                0.05048097               10.92593151               10.63437272              -38.35463077               -0.62138245               26.21952698              -54.70861847
              38.16758565               -4.18925693               64.69616932                0.55302320               12.46729701               12.15434683              -43.78170135                0.58578065               13.20506571              -71.92182129
              29.60795075               15.66880795               70.46109438                0.57321505                0.22508323               -0.56921858                1.50426430               -0.11628547                0.20130149                9.23475738
              30.61020159               13.86877328               69.23156037                0.01881499                1.06473482                1.01079353               -2.98921952               -3.96879636               50.36224306               -8.15627492
              31.62924545               11.98748908               69.00518537                0.00010000                1.68199689                1.86935467               -3.88355956               -7.28967460              100.50332621               -7.97046058
              32.64384152               10.08333769               68.76465782                0.00010000                1.51014111                2.37208664               -6.14090408               -6.90933485               98.90367158               -9.18147589
              33.65944827                8.17280317               68.48868501                0.00010000                1.63135003                3.42507465               -9.17197242               -6.04474498               95.37967512              -11.44893932
              34.67646853                6.26614088               68.15990715                0.00010000                1.98863105                4.77991671              -13.00611901               -5.10255995               89.99997247              -14.49122551
              35.69922089                4.36873826               67.75857780                0.00010000                2.90752281                6.36912204              -17.80311332               -4.12971340               82.37128597              -18.37915736
              36.73461898                2.48535320               67.25936199                0.00010000                4.67352783                8.16226837              -23.84550235               -2.99237173               71.73351080              -23.38653832
              37.79269145                0.61985187               66.62815101                0.00010000                7.65365383               10.10990325              -31.51815980               -1.50103413               56.80772129              -30.04410864
              38.88769206               -1.22389370               65.81745796                0.05375937               11.27313088               11.96842692              -41.15618768               -0.12757942               32.42278405              -39.61805036
              40.01815407               -3.05866632               64.69984196                0.55480730               13.04620101               13.73827144              -46.99287524                0.64874824               16.27052327              -56.45174419
              31.39890020               16.66396260               70.26778881                0.57065207                0.43580157               -0.39135456                0.98885155               -0.11997614               -0.16827715                8.04451917
              32.40325822               14.88013404               68.94853117                0.01561961                2.33347798                1.25481215               -3.88517823               -4.48621931               59.70373967               -7.41685880
              33.44556976               13.00454874               68.82657132                0.00010000                4.06698135                0.54404253               -4.50632488               -5.73703890              118.74136153               -4.53377587
              34.48459784               11.10392574               68.67148088                0.00010000                3.25284385                1.71951421               -6.43631840               -4.67487219              115.82850964               -4.78312861
              35.51062664                9.20607069               68.46988160                0.00010000                2.24353259                3.18158434               -9.23937289               -3.55926883              111.66734982               -5.81929207
              36.52946849                7.31443234               68.21014505                0.00010000                1.89744585                4.82909186              -12.92152270               -2.83394340              105.97183314               -7.33689996
              37.54857555                5.43417602               67.87298907                0.00010000                2.39305698                6.62169091              -17.65555240               -2.16911817               97.99146573               -9.33431720
              38.57732963                3.56986014               67.43165597                0.00010000                3.98588407                8.57399022              -23.77892074               -1.41850697               86.75190400              -11.98125308
              39.62829323                1.72536426               66.84835009                0.00010000                7.07748249               10.69521131              -31.83773643               -0.50690662               70.44537234              -15.64153815
              40.71887928               -0.09854875               66.06377055                0.05730307               11.09063087               12.82241565              -42.56251847                0.19282886               40.82299513              -20.92092955
              41.85010585               -1.91449150               64.88559527                0.55663902               13.12265686               14.56210640              -48.52906235                0.39185320               20.38303261              -34.61790701
              33.17320835               17.66098086               70.05064016                0.78430667                0.66827070               -0.29817385                0.36424217                0.71968227                3.65307002                6.85369338
              34.17989106               15.89386953               68.68375199                0.50682528                5.87523063                1.37354911               -4.70922980               -5.46726181               72.44744999               -6.48944724
              35.29071297               13.99836993               68.69251217                0.45483753                8.44655324               -0.61788051               -4.80341020               -4.29275680              138.56327495               -2.46169494
              36.34882212               12.11772798               68.62620040                0.44281594                4.35216684                1.38022345               -6.36470107               -1.67432554              133.55890033               -2.50962423
              37.37775630               10.23643486               68.51066128                0.43865557                2.14311053                3.03641625               -8.84217981               -1.03729630              129.38127438               -2.99810877
              38.39168434                8.36272272               68.33595929                0.44153047                1.13272143                4.82903814              -12.22678322               -0.54155479              123.84490515               -3.77827733
              39.40041073                6.50117208               68.08379342                0.45161360                1.16881300                6.69960614              -16.69209951               -0.11096804              116.13116505               -4.83234624
              40.41506060                4.65683300               67.72747682                0.46897804                2.52757386                8.69728649              -22.59733457                0.40229726              105.14927369               -6.26385618
              41.45096221                2.83375610               67.22785558                0.49471898                5.81719040               10.83918358              -30.54328165                1.05297774               89.06065156               -8.33382573
              42.53140440                1.03255461               66.52601728                0.52975981               10.34572153               13.11033618              -41.66253403                1.19349731               55.43346531              -11.01183894
              43.65787664               -0.76742420               65.34732156                0.77903014               12.64722355               14.70673095              -47.33043295                0.77919815               30.98194458              -21.72719560
              15.30530476                8.06247347               73.10507602                0.82096862               -1.56332487               -1.74952705                5.93827595               -0.44926713               -5.05100115                5.55839411
              16.28967151                6.06741562               72.50461481                0.56740108               -1.53063550               -1.01624588                4.01056417               -0.51250103               -7.12223925               -4.18343807
              17.27469205                4.06412772               71.86326202                0.49251372               -1.35580014               -0.55441498                1.95989679               -0.48771664               -7.39038825               -0.47921527
              18.26255551                2.04381059               71.25830098                0.45928199               -0.90972506                0.00437725                0.01619635               -0.43527042               -4.98999836               -0.48512333
              19.25649755                0.00594170               70.66542228                0.44239906               -0.17935458                0.55835025               -1.97912541               -0.36537044               -3.89099852               -0.28890567
              20.25896842               -2.04508614               70.08241130                0.44137694                0.73673244                1.12570980               -4.02093986               -0.30840682               -3.21729853               -0.09246911
              21.27123220               -4.10143373               69.50267058                0.45616124                1.69295981                1.68943661               -6.07973901               -0.28373819               -3.28805844                0.11150679
              22.29282762               -6.15501751               68.91772033                0.48700086                2.54190171                2.23889963               -8.11715133               -0.28758382               -4.13055849                0.31284029
              23.32207023               -8.20035746               68.32041632                0.53466286                3.22007147                2.77715924              -10.11594818               -0.29004237               -5.77733204                0.40973895
              24.35722904              -10.23546911               67.70159274                0.60039550                3.76298054                3.30828184              -12.12014864               -0.29411514               -6.30553466                1.18617708
              25.39732984              -12.26155751               67.09257084                0.82689969                4.01008003                3.90063305              -14.09331039               -0.68142927               -5.74740654               -4.13907501
              17.29586994                9.04497820               72.86354231                0.61191867               -1.21505595               -1.79248531                5.19090711               -0.26002655                3.60648846                8.08003820
              18.28371938                7.05725316               72.25770390                0.08258484               -0.71262679               -0.74642290                3.27921837               -0.55637435                8.28251711               -7.72888704
              19.28161740                5.05858357               71.74577957                0.00010000                0.17882178               -0.94000428                1.74119435               -1.92288209               12.97552230               -9.43276163
              20.28729582                3.04385436               71.23358692                0.00010000                0.78374020               -1.20778696                0.10265127               -3.17935175               13.67931751              -12.54444585
              21.29729221                1.01152520               70.73558689                0.00010000                1.11381250               -0.90585937               -1.56761726               -4.12444190               14.87470275              -16.63861805
              22.30957207               -1.03382904               70.24733498                0.00010000                1.30341476               -0.42838969               -3.28452862               -4.61083828               15.51750169              -21.40834296
              23.32336050               -3.08453936               69.76224528                0.00010000                1.49207875                0.12633009               -5.01202356               -4.57943241               15.41403957              -26.68189852
              24.33941364               -5.13262851               69.27176913                0.00010000                1.80175541                0.70777727               -6.70604665               -4.11379621               14.49211018              -31.99985800
              25.35939561               -7.17258587               68.76778511                0.01612653                2.27371392                1.35503080               -8.35958821               -3.41421733               13.11579937              -35.89330366
              26.38488792               -9.20238629               68.24901120                0.11390697                2.86041714                3.32101962               -9.98905344               -1.84411720                9.87861456              -25.62809476
              27.41660395              -11.22255118               67.67909463                0.59626290                3.17160349                4.53951443              -11.73819101                0.78697242                7.40045031              -31.98595413
              19.27555431               10.02662377               72.67302097                0.58089335               -1.06156457               -1.72784549                4.71280269               -0.13480755                0.07731140                9.91823528
              20.26493866                8.05248717               71.94020792                0.02985998               -1.29605452               -0.35527772                2.25854583               -1.59372269               12.15850042              -10.11802930
              21.24963322                6.04532763               71.44939358                0.00010000               -0.94559090               -1.13175286                1.26727229               -4.85735760               24.77098968              -17.57726134
              22.24602684                4.01965485               70.96764373                0.00010000                0.10294474               -1.59076554               -0.93017881               -6.77986979               25.00597406              -24.42724536
              23.25169211                1.98782451               70.47851187                0.00010000                0.83946888               -1.55227539               -3.00885039               -8.03644380               24.50122357              -32.69764767
              24.26281622               -0.05365393               69.98546612                0.00010000                1.33754569               -1.14921809               -5.20797454               -8.84042436               23.96734640              -42.18865129
              25.27844302               -2.09890713               69.48524312                0.00010000                1.78909863               -0.55112452               -7.59687077               -8.66306526               23.26237185              -52.77525936
              26.29859819               -4.14086196               68.97865112                0.00010000                2.25503217                0.18736699              -10.35758463               -7.46783164               23.63158761              -64.05474790
              27.32354367               -6.17325684               68.48796923                0.00010000                3.58569111                1.30341160              -14.18216294               -4.09869850               37.25261326              -74.75335187
              28.37031201               -8.16904872               68.25876275                0.02505304                6.49277028                3.15853821              -24.91795520               -0.43963559               34.26613590              -87.67261254
              29.45339907              -10.17076722               67.70707344                0.53767118                8.30870583                4.24240156              -26.45263264                2.34670452               19.13536450             -104.83590988
              21.24144699               11.01042129               72.46908057                0.57795982               -0.83059302               -1.51146435                4.14701791               -0.11657411                0.12322554                9.38019914
              22.23314106                9.05014761               71.64545621                0.02640591               -1.20722105               -0.13508953                1.37946941               -2.59093180               17.80498005               -8.81672020
              23.21730257                7.03594851               71.17576194                0.00010000               -1.19697596               -0.37616116                0.08921437               -5.66680063               35.60180621              -16.00830740
              24.20920154                5.01203905               70.70499764                0.00010000               -0.37152300               -0.15420146               -2.05380451               -6.76920551               35.33201839              -23.58083954
              25.20987211                2.98047969               70.22604568                0.00010000                0.51468392                0.01093221               -4.47974663               -7.71900644               34.37395598              -31.56862483
              26.21949522                0.94318660               69.73247935                0.00010000                1.37175602                0.44960258               -7.13433527               -8.14562200               32.82083501              -40.59596903
              27.23730723               -1.09556185               69.22027927                0.00010000                2.24557511                1.10964401              -10.12539789               -7.68595022               30.97164155              -50.90481683
              28.26440672               -3.12888117               68.68894609                0.00010000                3.41505835                1.95881785              -13.66902349               -5.91727973               29.91146519              -62.96187476
              29.30560840               -5.14651763               68.15651144                0.00010000                5.45994327                3.03952459              -18.41740265               -2.48086684               26.77316599              -78.84725081
              30.37360559               -7.13921553               67.56418180                0.02651269                8.06833298                3.10452258              -23.14870259               -0.01915373               16.94876133             -112.48856538
              31.46697506               -9.13770315               66.83426557                0.53835852                9.33694691                3.85005918              -27.12922976                0.37631629               10.37797789             -136.92472029
              23.19377019               11.99639448               72.26851109                0.57540628               -0.61773824               -1.30329396                3.60898097               -0.11310566                0.12221903                9.61636455
              24.18759280               10.04978537               71.35394883                0.02286269               -0.96822116                0.07281926                0.49936170               -3.16941167               23.49215521               -8.52923789
              25.17440576                8.03780441               70.90701202                0.00010000               -1.07406280                0.54326964               -0.92338374               -6.50713686               46.90182054              -15.11292106
              26.16611155                6.01657082               70.45576520                0.00010000               -0.41206674                0.94305118               -3.23441316               -7.19523989               46.26653273              -21.92667482
              27.16616443                3.98804316               69.98980448                0.00010000                0.49168900                1.33923451               -5.91114874               -7.70301631               44.63319864              -29.39284829
              28.17594533                1.95533812               69.50024608                0.00010000                1.53136803                1.85817576               -8.95093184               -7.76548007               42.06920246              -37.83186587
              29.19679179               -0.07671425               68.97818141                0.00010000                2.76315239                2.55018153              -12.42572065               -7.06322723               38.58193138              -47.72956687
              30.23120838               -2.10168560               68.41523943                0.00010000                4.37344482                3.35332351              -16.46974489               -5.37211072               33.66958691              -59.92592297
              31.28426069               -4.11246635               67.79263072                0.00010000                6.49530390                4.00535600              -20.99935314               -2.92820204               26.13161814              -76.51273697
              32.36111445               -6.10695826               67.07805983                0.02969269                8.68199790                4.21850079              -25.72537265               -0.98102931               14.59241591              -96.20876262
              33.45790064               -8.09376604               66.22538910                0.54005470                9.67861897                5.25737516              -29.38442615               -0.10556776                7.65459119             -116.71300915
              25.13240309               12.98435541               72.06990798                0.57253837               -0.40601894               -1.11036563                3.08175226               -0.11143386                0.13807609                9.74384987
              26.12834290               11.05160400               71.06488965                0.01934785               -0.60143489                0.29586178               -0.37388842               -3.50251974               29.57598166               -8.33953959
              27.12037439                9.04681390               70.64879603                0.00010000               -0.66424500                1.17311247               -1.91745235               -7.01815593               58.95920727              -13.85326473
              28.11505800                7.03090007               70.22459456                0.00010000               -0.16649542                1.79764086               -4.34455531               -7.52480243               57.95791045              -19.74919759
              29.11704448                5.00726438               69.77959975                0.00010000                0.69425130                2.35589925               -7.22892167               -7.75449988               55.67748175              -26.30791270
              30.12894302                2.98035012               69.30127344                0.00010000                1.80109658                3.00140689              -10.57020499               -7.53127813               52.05897559              -33.87636532
              31.15306641                0.95544178               68.77594179                0.00010000                3.18867932                3.78139994              -14.43148085               -6.72261550               46.87094519              -42.91271542
              32.19271661               -1.06181470               68.18670532                0.00010000                4.96253024                4.62731779              -18.86251259               -5.27957611               39.63882747              -54.09928333
              33.25231702               -3.06641051               67.51101302                0.00010000                7.12840397                5.40135878              -23.81914429               -3.32059971               29.68531650              -67.89665671
              34.33528469               -5.05484551               66.71967959                0.03294421                9.30811163                6.19331133              -29.03984031               -1.40666571               16.19255224              -84.43820453
              35.43847925               -7.03255564               65.77615917                0.54180499               10.31945604                7.16580660              -33.11375173               -0.18874560                8.26241551             -103.18236376
              27.05704434               13.97418717               71.87240150                0.57015246               -0.19604262               -0.92754315                2.55943767               -0.11100195                0.14459138                9.77675442
              28.05508392               12.05570261               70.77710705                0.01593918               -0.11488884                0.52896824               -1.24575857               -3.69830839               36.22597625               -8.25639640
              29.05474657               10.06126666               70.40353807                0.00010000                0.00405506                1.64621294               -2.87095042               -7.29998121               72.13502735              -12.37982465
              30.05516502                8.05252364               70.01753984                0.00010000                0.34389100                2.38419344               -5.34784845               -7.70224978               70.73730087              -17.01868765
              31.06162439                6.03516114               69.60439212                0.00010000                1.09886774                3.05161507               -8.35887514               -7.66616163               67.82447755              -22.38722229
              32.07714237                4.01536626               69.14837383                0.00010000                2.14399536                3.84296469              -11.91797619               -7.18240723               63.22802555              -28.75847386
              33.10450429                1.99891375               68.63178169                0.00010000                3.51633846                4.79790013              -16.09369846               -6.28471605               56.65553332              -36.48996811
              34.14746914               -0.00913925               68.03346234                0.00010000                5.31876034                5.85563038              -20.95683472               -4.97729449               47.64266556              -46.02553432
              35.21087950               -2.00443917               67.32744206                0.00010000                7.58285640                6.94956462              -26.50294406               -3.22894530               35.59983941              -57.87920441
              36.29912627               -3.98309204               66.48311543                0.03581985                9.93332503                8.08128489              -32.52489516               -1.37087340               19.44158213              -72.63587870
              37.40954600               -5.95044991               65.45715916                0.54365658               11.04197312                9.20150482              -37.07459003               -0.11287239                9.80887342              -90.88316932
              28.96715216               14.96580455               71.67488450                0.56748946                0.01450774               -0.75177794                2.03728466               -0.11356868                0.15518599                9.69934950
              29.96729724               13.06218336               70.48960927                0.01277766                0.52007897                0.77182946               -2.12221570               -3.84288504               43.62279811               -8.26260159
              30.97755374               11.07973816               70.17371377                0.00010000                0.99106411                1.93894629               -3.75957904               -7.40803451               86.76855964              -10.66118894
              31.98711852                9.07858394               69.84035677                0.00010000                1.16624422                2.61994902               -6.19602942               -7.64187705               84.92241741              -13.72875939
              33.00087862                7.06829669               69.47296259                0.00010000                1.72118750                3.36213470               -9.23569323               -7.20961765               81.38293504              -17.66897601
              34.02154227                5.05720941               69.05354781                0.00010000                2.54994877                4.35726457              -12.91470738               -6.43634941               75.93003005              -22.58830992
              35.05187760                3.05139978               68.56184034                0.00010000                3.74906877                5.55501637              -17.32623863               -5.44725719               68.20234112              -28.69553750
              36.09652364                1.05529791               67.97321251                0.00010000                5.49066507                6.89946297              -22.58555914               -4.23517953               57.61605113              -36.37526445
              37.16169090               -0.92741922               67.25703137                0.00010000                7.86771537                8.31789151              -28.75598723               -2.68072280               43.39781853              -46.26499548
              38.25387795               -2.89321981               66.37644255                0.03900033               10.46233189                9.73254593              -35.68285052               -1.03589786               23.86083457              -59.42624945
              39.37093754               -4.84852555               65.27336549                0.54549645               11.70595861               11.05070471              -40.70435298                0.05530029               12.00107418              -77.30465134
              30.86201535               15.95915161               71.47616986                0.56474521                0.22772539               -0.57810706                1.50854807               -0.11789459                0.20707387                9.63887448
              31.86429260               14.07113920               70.20155085                0.00969124                1.40849729                1.02253653               -3.00715538               -4.05784686               51.98362126               -8.48259388
              32.89018530               12.10004558               69.96241738                0.00010000                2.47381754                1.83464064               -4.54936172               -7.39891514              103.23244822               -8.43448632
              33.91376896               10.10492262               69.69943774                0.00010000                2.43106350                2.28635697               -6.83415053               -6.95094797              100.78665179               -9.76662052
              34.93880657                8.10240384               69.39364108                0.00010000                2.57716690                3.28934898               -9.78992367               -6.01136513               96.56658466              -12.22931635
              35.96531229                6.10251155               69.02726236                0.00010000                2.93320431                4.56234862              -13.47274695               -5.02627030               90.40761772              -15.54020129
              36.99747065                4.11001408               68.57919102                0.00010000                3.81361296                6.02513848              -18.00101074               -4.07195283               81.78942913              -19.78324268
              38.04158455                2.12885001               68.02186236                0.00010000                5.41560566                7.63576692              -23.54493767               -3.03851255               69.85694437              -25.27473193
              39.10578277                0.16191866               67.31855197                0.00010000                7.89650445                9.35103692              -30.26626178               -1.79269003               53.38497033              -32.65483492
              40.19951464               -1.78844112               66.42094526                0.04196598               10.77403581               11.01068744              -38.11495626               -0.55368943               29.66705292              -43.38623233
              41.32126348               -3.72943581               65.24652977                0.54723544               12.17488405               12.54411555              -43.53167027                0.19985595               14.97653087              -60.75688544
              32.74081908               16.95424241               71.27765089                0.56213931                0.44272393               -0.39444719                0.97930858               -0.12144942               -0.17963603                8.39673184
              33.74524632               15.08263409               69.90948432                0.00681300                2.74864679                1.26904359               -3.91703339               -4.62505858               61.63886598               -7.72273427
              34.79579202               13.11643098               69.77756131                0.00010000                5.02474932                0.40903226               -5.17920190               -5.85984319              122.11923827               -4.81777171
              35.84574131               11.12431108               69.60298839                0.00010000                4.36351830                1.57653714               -7.19063074               -4.71977160              118.33078604               -5.11134679
              36.88306238                9.13408367               69.37368200                0.00010000                3.38326555                3.00125986               -9.95015006               -3.55051472              113.39322927               -6.23353229
              37.91340662                7.14845638               69.07772605                0.00010000                3.05188484                4.57810029              -13.50684208               -2.81218538              106.83963324               -7.88015427
              38.94410008                5.17190255               68.69430848                0.00010000                3.52210977                6.25757141              -17.99693164               -2.18075381               97.76131765              -10.05453162
              39.98384881                3.20801325               68.19391571                0.00010000                4.95140737                8.04243948              -23.63743141               -1.53101206               85.02681356              -12.94896358
              41.04312823                1.25960152               67.53475506                0.00010000                7.51549073                9.92908304              -30.70517158               -0.79128927               66.72694261              -17.00632659
              42.13415863               -0.67300606               66.65332312                0.04522061               10.68979062               11.81317202              -39.40163415               -0.13319163               37.82866596              -23.17567805
              43.25692404               -2.59764324               65.41650463                0.54898121               12.27654119               13.39631894              -45.00728797                0.14544497               19.20755602              -37.15389186
              34.60280300               17.95126266               71.05417346                0.78015646                0.67998677               -0.29797446                0.34080329                0.72413234                3.81739460                7.15181921
              35.60960287               16.09652007               69.63642477                0.50243226                6.42542221                1.38859810               -4.75502245               -5.71616728               74.91415385               -6.76131630
              36.73131144               14.10822623               69.64038671                0.45375148                9.60589836               -0.82047456               -5.50887485               -4.45139319              142.75293514               -2.66215788
              37.80172083               12.13645336               69.55812178                0.44265499                5.61697639                1.21422788               -7.18392463               -1.69190736              136.75565113               -2.72589208
              38.84365097               10.16242903               69.41796157                0.43872259                3.47644350                2.83453669               -9.64913251               -1.06013149              131.75299219               -3.24951697
              39.87124970                8.19407356               69.20977890                0.44138914                2.53238708                4.56171754              -12.95044912               -0.57886793              125.31695073               -4.09337319
              40.89429871                6.23516551               68.91368393                0.45078093                2.60078195                6.32629578              -17.23288041               -0.19887474              116.44603129               -5.23993937
              41.92326534                4.28969880               68.49996798                0.46705864                3.83387890                8.16855545              -22.74170114                0.20839328              103.86529835               -6.80225468
              42.97097629                2.36050032               67.92490005                0.49107356                6.54151107               10.08987991              -29.80690114                0.69098217               85.48427208               -9.07904667
              44.05409556                0.44782232               67.12191962                0.52379434               10.12352203               12.08283847              -38.91598106                0.89320601               52.66468596              -12.41637368
              45.17344673               -1.46150943               65.88657638                0.77501844               11.93511670               13.61338051              -44.40974345                0.71909353               30.30133715              -23.29571611
              15.86407368                8.36413671               74.16495236                0.81440446               -1.58746931               -1.77580824                6.03091372               -0.45688734               -5.21607973                5.72135557
              16.84819899                6.27540169               73.54504193                0.55852867               -1.56351280               -1.03146186                4.07256906               -0.53283638               -7.34437631               -4.33423585
              17.83280343                4.17808167               72.88303303                0.48884426               -1.38965012               -0.56223274                1.99777719               -0.50041188               -7.61773722               -0.44698645
              18.82040599                2.06327894               72.25851437                0.45783653               -0.92242921                0.00676254                0.02686971               -0.43929927               -5.18765693               -0.47820894
              19.81435484               -0.06913735               71.64554008                0.44227771               -0.17189634                0.56913318               -1.99535637               -0.36945218               -4.14227388               -0.28284209
              20.81696806               -2.21461523               71.04194378                0.44122918                0.75523941                1.14742259               -4.06590395               -0.31402147               -3.50678254               -0.09293860
              21.82945963               -4.36527099               70.44143902                0.45496327                1.72025852                1.72297690               -6.15933090               -0.29180476               -3.58294549                0.10472218
              22.85137323               -6.51305131               69.83593841                0.48393060                2.57971450                2.28266359               -8.22927176               -0.29535748               -4.40296493                0.30315219
              23.88105392               -8.65249863               69.21848433                0.52824611                3.26800261                2.83055583              -10.26426333               -0.29749723               -6.04489679                0.39067378
              24.91673328              -10.78168106               68.57934577                0.58994290                3.81943666                3.37283932              -12.30674440               -0.29833235               -6.57253834                1.18790981
              25.95744265              -12.90197963               67.95032943                0.81979729                4.07093708                3.97514038              -14.31315816               -0.67561457               -6.01089176               -4.27147963
              17.94823983                9.34637863               73.91588264                0.60062020               -1.23416859               -1.82472675                5.27085485               -0.26809328                3.78709881                8.38247221
              18.93589815                7.26508707               73.29074854                0.06926139               -0.71895749               -0.75299141                3.32796461               -0.58039858                8.65448703               -8.01969537
              19.93386068                5.17245934               72.76329284                0.00010000                0.18621785               -1.08323607                1.76384259               -1.92765879               13.48766532               -9.58743398
              20.93962250                3.06334656               72.23455216                0.00010000                0.78733593               -1.18580190                0.08899795               -3.12538514               14.12096624              -13.12587702
              21.94960740                0.93655398               71.71969543                0.00010000                1.11360790               -0.85399170               -1.60942039               -4.03614346               15.27195824              -17.57803671
              22.96189466               -1.20314100               71.21406816                0.00010000                1.30761102               -0.35232510               -3.36170432               -4.49759959               15.88533952              -22.74516145
              23.97575962               -3.34804122               70.71151136                0.00010000                1.50694061                0.21629651               -5.12879925               -4.46490527               15.79553600              -28.50780239
              24.99203347               -5.49022467               70.20389749                0.00010000                1.83171003                0.80019181               -6.86275960               -4.03538033               14.90906744              -34.52056363
              26.01239382               -7.62419307               69.68317223                0.00680153                2.32284932                1.42546639               -8.55913419               -3.42482200               13.56136905              -39.68195353
              27.03849046               -9.74795267               69.14785562                0.09800328                2.92956261                3.32599385              -10.22746404               -1.85754325               10.27159436              -34.58733626
              28.07098508              -11.86222823               68.56020146                0.58575340                3.24946145                4.56283976              -12.01127056                1.13693595                7.72682501              -41.58923291
              20.02129494               10.32764218               73.72053187                0.57156148               -1.07846315               -1.76409541                4.78238514               -0.13403671                0.05239281               10.31581267
              21.01051031                8.26034186               72.96302974                0.01987804               -1.26520897               -0.35318778                2.30213594               -1.77029419               12.80496291              -10.48068355
              21.99599076                6.15641695               72.46089571                0.00010000               -0.83533308               -1.17182608                1.03603201               -4.86118887               25.59484723              -18.11349066
              22.99380365                4.03956290               71.95758008                0.00010000                0.20643888               -1.55455633               -1.07670689               -6.54750345               25.34689865              -25.59365597
              24.00011954                1.91378281               71.44772166                0.00010000                0.89038099               -1.45666720               -3.14450614               -7.84398248               24.83733925              -34.55803309
              25.01161127               -0.22166173               70.93275071                0.00010000                1.35628294               -1.02625270               -5.33119265               -8.58517599               24.18235163              -44.83387339
              26.02724520               -2.36094506               70.40872158                0.00010000                1.76031037               -0.41735502               -7.70127501               -8.38402977               23.25449369              -56.36740778
              27.04681747               -4.49704747               69.87456989                0.00010000                2.15201393                0.31142589              -10.44264387               -7.22716848               22.99894349              -68.89814767
              28.07028547               -6.62398930               69.34539231                0.00010000                3.54000517                1.37717006              -14.27527781               -3.96618516               32.39840459              -81.51391581
              29.11761758               -8.71516118               68.99965729                0.01463993                6.92235065                3.12854140              -25.98675542               -0.30227312               30.05923862              -96.63020321
              30.20873249              -10.81072283               68.42237241                0.53077208                9.11149108                4.18089975              -29.67352304                2.60565802               18.99477696             -115.44598200
              22.08015973               11.31109672               73.51087208                0.56883026               -0.84422403               -1.54375625                4.20458506               -0.11613483                0.12313392                9.74980744
              23.07171749                9.25802331               72.65943325                0.01599255               -1.13719330               -0.13244518                1.41549049               -2.68751102               18.44979465               -9.10990929
              24.05741587                7.14902282               72.17478268                0.00010000               -1.02054629               -0.21987641               -0.22308681               -5.68515509               36.58829741              -16.77523477
              25.05130657                5.03225543               71.68304397                0.00010000               -0.17317438               -0.09847285               -2.31636895               -6.62352966               35.87375622              -24.77643595
              26.05395238                2.90742064               71.18013846                0.00010000                0.68062220                0.09209793               -4.69004151               -7.50183177               34.67523562              -33.40441170
              27.06491901                0.77633394               70.66032553                0.00010000                1.47561943                0.53828409               -7.28721104               -7.84873632               32.88822551              -43.18289204
              28.08346477               -1.35638832               70.11858256                0.00010000                2.28076665                1.18792645              -10.20185041               -7.31126912               30.66928508              -54.36687143
              29.11053435               -3.48399616               69.55222232                0.00010000                3.38595305                2.00035593              -13.65021984               -5.50118587               28.79565699              -67.40645704
              30.15118383               -5.59664967               68.97196534                0.00010000                5.43220948                3.00445157              -18.37484966               -2.06159165               25.11225864              -84.00789168
              31.21917854               -7.68538184               68.33197453                0.01649580                8.15188523                2.91333076              -23.15288390                0.34712043               15.56915237             -114.59987151
              32.31422154               -9.77861023               67.56164854                0.53144083                9.50430001                3.39427401              -27.13438188                0.35882764                9.05590033             -139.82203212
              24.12511906               12.29676705               73.30483971                0.56622824               -0.62850689               -1.33046113                3.65572642               -0.11046705                0.12510733               10.00968333
              25.11883399               10.25769296               72.35908625                0.01292209               -0.85317608                0.07547279                0.52800247               -3.22535875               24.22579867               -8.82108800
              26.10805554                8.15201942               71.89555568                0.00010000               -0.79493768                0.63559454               -1.29123465               -6.50866029               48.04755620              -15.79092128
              27.10293524                6.03759344               71.42153011                0.00010000               -0.10255722                1.01310283               -3.57482284               -7.06343783               46.91916201              -23.10590308
              28.10600439                3.91562477               70.92922558                0.00010000                0.77551281                1.38487351               -6.18341568               -7.47936794               44.95617890              -31.14928075
              29.11844549                1.78910395               70.40977078                0.00010000                1.76727596                1.88181074               -9.12666474               -7.43994525               42.04445658              -40.27233177
              30.14134991               -0.33718653               69.85363233                0.00010000                2.93048054                2.52912603              -12.46403373               -6.64415613               38.11863163              -50.94087781
              31.17705510               -2.45704036               69.25116705                0.00010000                4.45447065                3.25250929              -16.31584763               -4.90584524               32.74669982              -63.90510423
              32.23043932               -4.56390027               68.58465253                0.00010000                6.47327234                3.77101393              -20.57481557               -2.55653192               24.92431322              -80.84334442
              33.30652055               -6.65689457               67.82503871                0.01921077                8.59632478                3.73225045              -24.89950581               -0.82757612               13.71134459             -100.83070568
              34.40236582               -8.74283735               66.93644009                0.53308105                9.58452709                4.43830546              -28.42208925               -0.23510704                7.10341962             -121.48119571
              26.15609859               13.28448750               73.10093231                0.56381964               -0.41406335               -1.13260348                3.11903683               -0.10942225                0.13797061               10.14827674
              27.15195795               11.25953277               72.06123759                0.00984485               -0.43782042                0.29897192               -0.35428478               -3.53770390               30.41153842               -8.62932267
              28.14734218                9.16173471               71.62716593                0.00010000               -0.27627476                1.22720102               -2.32163839               -7.01288869               60.30485028              -14.51912280
              29.14643246                7.05251749               71.17889442                0.00010000                0.27561666                1.83567849               -4.74602591               -7.42859741               58.76731309              -20.85127031
              30.15285451                4.93511811               70.70551989                0.00010000                1.12494745                2.35496817               -7.55538293               -7.55454342               56.06918152              -27.92476729
              31.16893141                2.81397016               70.19443984                0.00010000                2.19357203                2.94670558              -10.76920604               -7.22483766               52.00928712              -36.09203189
              32.19672595                0.69419420               69.63147412                0.00010000                3.50998859                3.64888218              -14.43330396               -6.33090432               46.32783455              -45.80375786
              33.23913118               -1.41894597               68.99947717                0.00010000                5.15907268                4.38003103              -18.55874562               -4.87726639               38.60067518              -57.68874733
              34.29990741               -3.52122939               68.27672094                0.00010000                7.12164607                4.98577273              -23.04667214               -3.08947612               28.30785452              -72.19040386
              35.38156410               -5.61073683               67.43702312                0.02196949                9.07487787                5.54164397              -27.59750525               -1.41620819               15.15413467              -89.35863362
              36.48140496               -7.68984412               66.45420706                0.53476287                9.98408631                6.31071919              -31.40013009               -0.43656128                7.65759475             -108.60874386
              28.17284007               14.27411498               72.89813013                0.56132454               -0.20073724               -0.94609481                2.58341761               -0.10865084                0.14757984               10.18500506
              29.17083270               12.26367239               71.76469703                0.00657575                0.09864844                0.53447833               -1.23409205               -3.72837650               37.19103847               -8.54978657
              30.17481304               10.17656344               71.37222406                0.00010000                0.50735956                1.66619233               -3.29919467               -7.30781028               73.73982677              -13.01372920
              31.18097989                8.07430701               70.96149978                0.00010000                0.93239076                2.37467137               -5.80157279               -7.64868072               71.77745160              -18.01242115
              32.19346086                5.96272414               70.51869065                0.00010000                1.69463748                2.99113059               -8.73955353               -7.51655391               68.36238454              -23.80356627
              33.21487264                3.84803806               70.02784761                0.00010000                2.70935479                3.71045605              -12.14933798               -6.93433951               63.22467513              -30.67555011
              34.24764795                1.73579112               69.47073690                0.00010000                4.00303614                4.56396482              -16.07618282               -5.97197442               56.04153814              -38.99069048
              35.29493336               -0.36943973               68.82584500                0.00010000                5.63963550                5.48277164              -20.53512482               -4.68432189               46.38889348              -49.19861963
              36.36044066               -2.46418481               68.06777473                0.00010000                7.59388776                6.39928824              -25.44326102               -3.13680065               33.84104738              -61.80687374
              37.44681112               -4.54606169               67.16858086                0.02499011                9.57042559                7.32323613              -30.52845759               -1.51035064               18.07331034              -77.33320602
              38.55184918               -6.61662297               66.09912608                0.53646013               10.50380551                8.25617738              -34.69896225               -0.43831458                9.05275855              -96.09772585
              30.17481075               15.26556560               72.69532532                0.55890481                0.01312204               -0.76479718                2.04856193               -0.10981824                0.15914719               10.10722979
              31.17494197               13.27022234               71.46838386                0.00374772                0.78703050                0.77869791               -2.11973301               -3.88566287               44.75755408               -8.56602980
              32.19055136               11.19505856               71.13343956                0.00010000                1.61780897                1.91941834               -4.20217114               -7.45084688               88.72156247              -11.23816685
              33.20729815                9.10001092               70.77554952                0.00010000                1.91205122                2.55333274               -6.69906931               -7.63734370               86.28939176              -14.56945584
              34.22879238                6.99494072               70.37814422                0.00010000                2.49397447                3.23866509               -9.67655075               -7.11685732               82.16563219              -18.82500516
              35.25717764                4.88817928               69.92274837                0.00010000                3.29859395                4.15602757              -13.19627440               -6.26344592               76.06239268              -24.13051584
              36.29476426                2.78547350               69.38833367                0.00010000                4.41215160                5.24070761              -17.32293113               -5.23541482               67.58044597              -30.70805622
              37.34542067                0.69070946               68.74955970                0.00010000                5.95145438                6.42975481              -22.09886489               -4.06267843               56.16328594              -38.96377009
              38.41379335               -1.39324362               67.97589119                0.00010000                7.91872888                7.66081505              -27.47607860               -2.70571358               41.21645036              -49.55732103
              39.50379525               -3.46427211               67.03292924                0.02774522                9.99839420                8.87813843              -33.18636555               -1.26163782               22.13072459              -63.51747675
              40.61376123               -5.52472057               65.88208226                0.53815364               10.99659862                9.98399027              -37.73486195               -0.31152243               11.08096123              -81.87805576
              32.16133024               16.25881904               72.49126534                0.55650225                0.22962472               -0.58359896                1.50796797               -0.11577513                0.21254906               10.04310235
              33.16362649               14.27924635               71.17141726                0.00076700                1.73386397                1.02915472               -3.01511346               -4.13420435               53.34568324               -8.80537664
              34.19600752               12.21495181               70.91419814                0.00010000                3.23621836                1.75827084               -5.00323181               -7.49867913              105.64807825               -8.91222462
              35.22835086               10.12537366               70.62797481                0.00010000                3.34739140                2.15019260               -7.38698286               -6.98298183              102.59490376              -10.39733128
              36.26295535                8.02749744               70.29288653                0.00010000                3.53600422                3.10694181              -10.30112575               -5.96269400               97.70880229              -13.06227181
              37.29907094                5.93115861               69.89045221                0.00010000                3.87270610                4.30667146              -13.82933723               -4.92175635               90.79253246              -16.63143533
              38.34040947                3.84060527               69.39855758                0.00010000                4.66629878                5.65594867              -18.05829543               -3.95776305               81.27533514              -21.19975947
              39.39239692                1.75915536               68.78846324                0.00010000                6.04492451                7.10328919              -23.06791280               -2.97875627               68.30316899              -27.10656051
              40.46130796               -0.31096851               68.02282577                0.00010000                8.03291987                8.60666368              -28.86314891               -1.90114785               50.81932028              -35.04429214
              41.55305532               -2.36849892               67.05515884                0.03088728               10.26038467               10.06177166              -35.20858413               -0.80334340               27.59041650              -46.53458189
              42.66651566               -4.41694317               65.82920856                0.53988443               11.34603413               11.35523096              -40.09104484               -0.13778832               13.90896895              -64.25036706
              34.13164062               17.25389362               72.28737499                0.55406076                0.44844965               -0.39234682                0.96330944               -0.12264984               -0.18964256                8.74794355
              35.13612512               15.29080543               70.87019050                0.00010000                3.14049224                1.27579794               -3.93479349               -4.76676234               63.31456848               -8.02810425
              36.19445046               13.23022397               70.72298728                0.00010000                5.94838823                0.22620924               -5.64828284               -5.98617629              125.15396847               -5.10397492
              37.25509288               11.14301477               70.52766826                0.00010000                5.46515452                1.37848416               -7.79917690               -4.75674989              120.69925229               -5.46267528
              38.30375355                9.05707955               70.27087860                0.00010000                4.52708998                2.76939632              -10.54419917               -3.52491954              115.01241051               -6.67908523
              39.34563468                6.97431271               69.94000821                0.00010000                4.19293492                4.27954713              -13.96611375               -2.76285143              107.60793415               -8.45272994
              40.38761225                4.89859247               69.51305043                0.00010000                4.58923215                5.85085587              -18.16940955               -2.14023285               97.50530914              -10.79089814
              41.43741932                2.83277525               68.95890734                0.00010000                5.79062114                7.47639988              -23.26872569               -1.54746487               83.53520887              -13.89696417
              42.50342467                0.77888965               68.23424666                0.00010000                7.81418555                9.14268476              -29.33997150               -0.92119364               63.88903903              -18.25239823
              43.59370303               -1.26303668               67.27573787                0.03389864               10.22346394               10.77665285              -36.25333193               -0.32695667               35.49059794              -24.97879252
              44.70789395               -3.29761595               65.98544951                0.54138926               11.41909205               12.17305679              -41.31369790               -0.05421811               18.09726124              -39.07605068
              36.08505363               18.25097210               72.05745623                0.77618719                0.69072605               -0.29215210                0.31189980                0.72032237                3.97375861                7.45218631
              37.09196089               16.30476231               70.58865154                0.49825834                6.95105118                1.39568811               -4.78736063               -5.99122770               77.10789898               -7.03816087
              38.22407466               14.21947599               70.58233467                0.45291782               10.71996927               -1.07479831               -6.01847783               -4.62852876              146.56154712               -2.83809589
              39.30636028               12.15294335               70.48252191                0.44234005                6.85421825                0.99285780               -7.86193046               -1.70279134              139.76675998               -2.93577140
              40.36115902               10.08288536               70.31767863                0.43879845                4.79703575                2.58058099              -10.33824747               -1.06914271              133.95127938               -3.50098985
              41.40230099                8.01674956               70.07695031                0.44122159                3.89916274                4.24368483              -13.53518756               -0.59651736              126.59137350               -4.40598363
              42.43914228                5.95762239               69.73913581                0.44992969                3.94247233                5.90299130              -17.57002142               -0.25030730              116.59273887               -5.63247966
              43.48115044                3.90868336               69.27264280                0.46516011                4.97768674                7.59081131              -22.58533003                0.08625189              102.61875617               -7.29659527
              44.53869601                1.87188518               68.63171755                0.48752412                7.09356731                9.29955335              -28.69917996                0.44467256               82.58530993               -9.70691892
              45.62302179               -0.15296586               67.74769766                0.51788813                9.79469200               11.00708113              -35.94800115                0.66351474               50.24698210              -13.42203593
              46.73458985               -2.17348203               66.45912669                0.77128785               11.15680648               12.41339255              -41.01942735                0.61797338               29.26031410              -24.33703907
              16.44080403                8.67504002               75.22569429                0.80803564               -1.61007137               -1.79918839                6.11124225               -0.46462551               -5.37604115                5.88151152
              17.42470332                6.48931768               74.58606619                0.55074048               -1.59695846               -1.04462321                4.12450132               -0.54902170               -7.55645309               -4.48442033
              18.40886486                4.29466837               73.90321756                0.48567570               -1.42039988               -0.56961619                2.03326068               -0.48711967               -7.83405008               -0.41149756
              19.39629532                2.08217083               73.25883837                0.45649853               -0.93211003                0.01002871                0.03918327               -0.43298852               -5.37787124               -0.47090630
              20.39022266               -0.14802585               72.62551515                0.44195477               -0.16807489                0.58087330               -2.00681229               -0.36895463               -4.38381522               -0.27533911
              21.39293382               -2.39119367               72.00109323                0.44110257                0.76779977                1.16544841               -4.10047752               -0.31999494               -3.79029920               -0.09427191
              22.40557866               -4.63948396               71.37948397                0.45400034                1.73945909                1.75059871               -6.22012367               -0.29762364               -3.87463658                0.09770859
              23.42772301               -6.88487262               70.75313489                0.48084516                2.60931415                2.32013645               -8.31919584               -0.30068056               -4.67540470                0.29039134
              24.45776494               -9.12191979               70.11513105                0.52206398                3.31050878                2.87868674              -10.39188739               -0.30290822               -6.31026997                0.36956890
              25.49393318              -11.34873062               69.45545785                0.57949443                3.86898741                3.42860890              -12.45754734               -0.30482921               -6.82591285                1.18629573
              26.53514469              -13.56673117               68.80630768                0.81284754                4.12115081                4.03523422              -14.48475073               -0.66964526               -6.25498960               -4.40613441
              18.62188012                9.65704813               74.96895941                0.58965674               -1.24811921               -1.85447162                5.33794879               -0.27754914                3.96940535                8.68321816
              19.60939893                7.47887144               74.32426319                0.05607015               -0.71565136               -0.75644458                3.37012937               -0.60525819                9.03094483               -8.30595826
              20.60756709                5.28897221               73.78105642                0.00010000                0.19568100               -1.15501960                1.77953575               -1.92426839               13.99671936               -9.85563369
              21.61331255                3.08227112               73.23536688                0.00010000                0.78241388               -1.14404548                0.07766249               -3.06728925               14.55938048              -13.75792917
              22.62321537                0.85778288               72.70339848                0.00010000                1.10751915               -0.78766626               -1.64996163               -3.93823529               15.67315198              -18.54726694
              23.63546293               -1.37953919               72.18010089                0.00010000                1.31132634               -0.26975455               -3.42809450               -4.36156736               16.24747024              -24.08995728
              24.64944190               -3.62197797               71.65966929                0.00010000                1.52355920                0.30787355               -5.23112559               -4.29985049               16.16290276              -30.30855586
              25.66593411               -5.86167126               71.13451394                0.00010000                1.86114821                0.88614387               -7.00599884               -3.84858115               15.30995172              -36.97905029
              26.68666486               -8.09313292               70.59660243                0.00010000                2.36782332                1.47957606               -8.74324811               -3.20569298               13.99827161              -43.36670940
              27.71329058              -10.31444453               70.04446192                0.08250988                2.98919606                3.14794669              -10.44698912               -1.63312006               10.66549262              -43.48391501
              28.74644878              -12.52637882               69.43886922                0.57532378                3.31582013                4.27986135              -12.25309159                1.44255421                8.05725878              -52.24002754
              20.79160643               10.63795058               74.76866868                0.56236539               -1.09323461               -1.79692620                4.84004059               -0.13081978                0.02706311               10.71142887
              21.78067408                8.47418879               73.98625063                0.00958010               -1.23133014               -0.34892666                2.33984004               -1.87775916               13.32747206              -10.83365884
              22.76697983                6.27156798               73.47011422                0.00010000               -0.72676101               -1.15941817                0.83660320               -4.85040799               26.34045701              -18.78357269
              23.76613886                4.05928992               72.94610959                0.00010000                0.31442196               -1.48554116               -1.20728844               -6.36694057               25.74449106              -26.86787820
              24.77326826                1.83622082               72.41562175                0.00010000                0.96622355               -1.34476684               -3.26702422               -7.64993979               25.19072393              -36.48365167
              25.78546333               -0.39658877               71.87884226                0.00010000                1.42227256               -0.89760628               -5.44358456               -8.30973096               24.41589544              -47.49548497
              26.80171372               -2.63332649               71.33121762                0.00010000                1.82214984               -0.29160302               -7.79274710               -8.06033661               23.27025101              -59.91142945
              27.82190633               -4.86714974               70.76979824                0.00010000                2.23553215                0.40318913              -10.49511459               -6.89994034               22.39515071              -73.61465935
              28.84642436               -7.09232826               70.20246367                0.00010000                3.63051786                1.35986197              -14.23762419               -3.85927234               27.49013876              -88.07257112
              29.89451669               -9.28577169               69.73902765                0.00461593                7.07199986                2.89250768              -25.26450658               -0.33954097               24.66139843             -105.38628787
              30.98786436              -11.48113394               69.11360298                0.52416251                9.33476694                3.90836784              -30.70934403                2.57858840               16.48764268             -125.87904161
              22.94678732               11.62110961               74.55317228                0.55978699               -0.85609712               -1.57113331                4.25324812               -0.11302936                0.12546397               10.12103160
              23.93822635                9.47189291               73.67376602                0.00618503               -1.06647621               -0.13147559                1.45020873               -2.73035229               18.96107696               -9.39480384
              24.92545780                7.26578384               73.17130020                0.00010000               -0.84527316               -0.09826215               -0.42594261               -5.66997073               37.44947275              -17.60029502
              25.92132089                5.05256029               72.65867026                0.00010000                0.03187301               -0.03438073               -2.53216383               -6.51051333               36.44596646              -26.06195903
              26.92609526                2.83088755               72.13224485                0.00010000                0.87473681                0.17276402               -4.87256377               -7.31362681               35.01453510              -35.29999341
              27.93881562                0.60250868               71.58673513                0.00010000                1.63504420                0.61829747               -7.41896820               -7.58666033               32.99857072              -45.78126267
              28.95879614               -1.62781003               71.01624226                0.00010000                2.40607296                1.24515648              -10.25490207               -7.00308609               30.42854731              -57.77606098
              29.98693708               -3.85360747               70.41594169                0.00010000                3.46526079                2.00536064              -13.58418871               -5.24548990               27.75857569              -71.71141567
              31.02810136               -6.06593568               69.78901445                0.00010000                5.41841763                2.91197115              -18.10774760               -2.02679872               23.47740104              -88.92237316
              32.09530544               -8.25659438               69.10112412                0.00632468                8.03218464                2.85753637              -22.83543716                0.33806529               14.24283066             -116.28656449
              33.18874505              -10.44821147               68.29157793                0.52499576                9.34396152                3.25927321              -26.64332721                0.30338724                7.86859974             -141.27609562
              25.08777924               12.60652792               74.34162561                0.55751046               -0.63864352               -1.35395426                3.69716407               -0.10863446                0.12531661               10.40555351
              26.08139280               10.47155927               73.36450888                0.00345277               -0.74331037                0.07569250                0.55643563               -3.24057475               24.80599581               -9.10639813
              27.07291303                8.26960273               72.88118732                0.00010000               -0.52839542                0.69896141               -1.52554732               -6.48001024               49.03586655              -16.53142347
              28.07082489                6.05860230               72.38426875                0.00010000                0.20671540                1.06723539               -3.83936592               -6.95986114               47.58742540              -24.35734635
              29.07704734                3.83967611               71.86613617                0.00010000                1.08014059                1.42082098               -6.40899798               -7.30188415               45.32291009              -32.96041621
              30.09242771                1.61577718               71.31771279                0.00010000                2.03604076                1.89619824               -9.26607528               -7.18702737               42.08497117              -42.72537576
              31.11776815               -0.60842336               70.72890073                0.00010000                3.13472364                2.50360425              -12.46709554               -6.35150422               37.76056265              -54.10037054
              32.15512218               -2.82704253               70.08892248                0.00010000                4.55535686                3.16699408              -16.11730349               -4.65596403               31.99094479              -67.73756763
              33.20887529               -5.03408884               69.38113441                0.00010000                6.42158015                3.62974402              -20.12110097               -2.43758169               23.98094457              -84.88477792
              34.28355378               -7.22862096               68.58006971                0.00921740                8.41454930                3.55170229              -24.12786202               -0.81419035               13.05676627             -104.94824941
              35.37716628               -9.41594848               67.65694732                0.52641382                9.36124949                4.03974795              -27.52105525               -0.30684130                6.67421584             -125.73020892
              27.21455192               13.59403052               74.13228872                0.55529652               -0.42118828               -1.15168347                3.14629922               -0.10823157                0.13686062               10.55118152
              28.21034004               11.47340676               73.05780396                0.00081948               -0.28686804                0.30006707               -0.33006820               -3.54247472               31.08253848               -8.91152622
              29.20881456                9.27976307               72.60236326                0.00010000                0.08551269                1.25578552               -2.57736739               -6.98372154               61.46619267              -15.23233337
              30.21205029                7.07390500               72.12967404                0.00010000                0.70340668                1.85089043               -5.05090759               -7.35182705               59.57321679              -22.01710569
              31.22288270                4.85930397               71.62849209                0.00010000                1.55621233                2.33946922               -7.81527739               -7.39977222               56.50245772              -29.59247657
              32.24317454                2.64043265               71.08588932                0.00010000                2.58515386                2.88847719              -10.91397053               -6.99399951               52.03953370              -38.32322202
              33.27458577                0.42226205               70.48727571                0.00010000                3.81543722                3.53318731              -14.38700277               -6.05653617               45.93172794              -48.64984567
              34.31948329               -1.79026759               69.81553041                0.00010000                5.31711905                4.19241759              -18.22788819               -4.62579259               37.82511780              -61.13699196
              35.38092815               -3.99334080               69.05007958                0.00010000                7.06989887                4.71709753              -22.32137307               -2.96017236               27.34624659              -76.19744842
              36.46088126               -6.18556033               68.16772948                0.01173205                8.81675492                5.14793391              -26.38905654               -1.41941783               14.45978930              -93.82792784
              37.55726325               -8.36741651               67.14815657                0.52794788                9.63819902                5.78344264              -29.96909179               -0.56839401                7.24948744             -113.50171026
              29.32686213               14.58349425               73.92406985                0.55313670               -0.20513718               -0.96082962                2.60055566               -0.11005773                0.14872272               10.59017129
              30.32481076               12.47756062               72.75242521                0.00010000                0.29391144                0.53678872               -1.21725473               -3.73908815               37.98310296               -8.83495101
              31.33274036               10.29471844               72.33755418                0.00010000                0.97183499                1.66188376               -3.57093813               -7.29678721               75.13737260              -13.68133284
              32.34424746                8.09562011               71.90150838                0.00010000                1.48919427                2.34073955               -6.14213708               -7.60507779               72.78852561              -19.05942598
              33.36252424                5.88646549               71.42960105                0.00010000                2.26710848                2.91483673               -9.03432883               -7.39818298               68.92994951              -25.26721884
              34.38958963                3.67354673               70.90538707                0.00010000                3.24067130                3.57809238              -12.30672530               -6.73994863               63.30425414              -32.61243612
              35.42733767                1.46224039               70.31025804                0.00010000                4.43097742                4.35779577              -15.99391947               -5.73257502               55.60358206              -41.45842381
              36.47820918               -0.74319418               69.62275985                0.00010000                5.88134564                5.18359284              -20.08145015               -4.46193581               45.47201973              -52.24876306
              37.54496458               -2.93974689               68.81857684                0.00010000                7.55159787                5.98620600              -24.45782017               -3.03729447               32.63837372              -65.46884391
              38.62924113               -5.12566228               67.87254627                0.01442891                9.22730803                6.77065073              -28.86472107               -1.55563142               17.16881016              -81.56113531
              39.72951074               -7.30027962               66.76317991                0.52955548               10.02696100                7.56236840              -32.72243940               -0.61236045                8.55936136             -100.74795575
              31.42421804               15.57481393               73.71585573                0.55057765                0.01160450               -0.77651279                2.05367221               -0.11212150                0.16080034               10.51290938
              32.42433408               13.48414254               72.44721461                0.00010000                1.03006418                0.78322060               -2.10919810               -3.91752335               45.71385712               -8.86260549
              33.44481932               11.31300075               72.08967034                0.00010000                2.19338059                1.87674614               -4.48827950               -7.47868957               90.44242666              -11.83446297
              34.46820169                9.12071979               71.70637538                0.00010000                2.60865508                2.46185708               -7.07511100               -7.63344364               87.59363414              -15.45103391
              35.49699242                6.91760070               71.27943158                0.00010000                3.21994884                3.09792626              -10.01301914               -7.03721627               82.95364171              -20.02264020
              36.53260067                4.71199450               70.78962232                0.00010000                3.98413790                3.95381393              -13.38261077               -6.11402356               76.26415048              -25.69647692
              37.57667518                2.50941797               70.21538172                0.00010000                4.98155882                4.95308693              -17.23148627               -5.04807906               67.14257743              -32.70367180
              38.63223185                0.31340426               69.53123521                0.00010000                6.29875943                6.02826712              -21.55914728               -3.89320385               55.10006414              -41.45738198
              39.70265037               -1.87361668               68.70750980                0.00010000                7.90347593                7.12121170              -26.26891435               -2.65212958               39.72527843              -52.61232888
              40.79030137               -4.05014732               67.71271524                0.01733436                9.58001770                8.18604494              -31.08857825               -1.34267045               20.97806976              -67.12321480
              41.89425072               -6.21616914               66.51866826                0.53119560               10.39493567                9.12346122              -35.23889937               -0.51054810               10.47508409              -85.85039883
              33.50596249               16.56796399               73.50632921                0.54842428                0.23109836               -0.59017680                1.50213482               -0.11503807                0.21598772               10.44553167
              34.50827348               14.49322503               72.14124858                0.00010000                2.03134100                1.03475956               -3.01348462               -4.20596576               54.52627650               -9.12203403
              35.54658931               12.33225337               71.86235274                0.00010000                3.93525786                1.66070982               -5.30434446               -7.58967342              107.80645583               -9.39583730
              36.58697863               10.14485725               71.55169808                0.00010000                4.19579512                1.98953415               -7.80280556               -7.00980059              104.29839213              -11.05433374
              37.63050521                7.94842401               71.18761856                0.00010000                4.42566283                2.90545793              -10.69109860               -5.91280113               98.81787640              -13.92731711
              38.67549189                5.75262301               70.75067561                0.00010000                4.72305537                4.04545949              -14.06823338               -4.81645436               91.21298292              -17.74746374
              39.72496632                3.56130213               70.21802511                0.00010000                5.39439281                5.30441964              -17.99791925               -3.83099481               80.92530397              -22.61634270
              40.78337975                1.37737116               69.56050411                0.00010000                6.52536266                6.62450728              -22.50210572               -2.87499301               67.16088505              -28.88242139
              41.85547358               -0.79732266               68.74128899                0.00010000                8.07802206                7.96392248              -27.50755547               -1.89422170               49.06338680              -37.25243766
              42.94494019               -2.96194138               67.71677357                0.01987654                9.79349244                9.25132901              -32.73503536               -0.90106860               26.19417454              -49.21922324
              44.05134342               -5.11781040               66.44470887                0.53266707               10.64032369               10.35433785              -37.14299137               -0.32713792               13.19088440              -67.16983246
              35.57139521               17.56301040               73.29691708                0.54602540                0.45301841               -0.39100420                0.94371572               -0.12101441               -0.19789350                9.09571666
              36.57592539               15.50483773               71.83078845                0.00010000                3.49992082                1.28048703               -3.94075717               -4.90932622               64.80279501               -8.32660120
              37.64139362               13.34621494               71.66459566                0.00010000                6.79548212                0.02580885               -5.97091101               -6.11222755              127.90007913               -5.38965373
              38.71183503               11.16051047               71.44700485                0.00010000                6.47885116                1.15866875               -8.26441138               -4.78858260              122.91345533               -5.82438393
              39.77097065                8.97570986               71.16279801                0.00010000                5.57792189                2.51925793              -11.00310586               -3.49319198              116.54829959               -7.14297878
              40.82339347                6.79290369               70.79840378                0.00010000                5.21682396                3.97233410              -14.28498144               -2.70376952              108.35822585               -9.04380658
              41.87530713                4.61550636               70.33092029                0.00010000                5.49816486                5.45215167              -18.18801461               -2.07572999               97.36002428              -11.53661074
              42.93335677                2.44589441               69.72854119                0.00010000                6.43856774                6.94624148              -22.75713402               -1.50828065               82.42673771              -14.82839417
              44.00407848                0.28566177               68.94795563                0.00010000                7.97054826                8.43713998              -27.95401850               -0.94305518               61.94137471              -19.41079927
              45.09276773               -1.86512074               67.92825648                0.02297436                9.76837548                9.87017014              -33.52520061               -0.40291356               33.89504406              -26.45548878
              46.19944599               -4.00908238               66.59023067                0.53427704               10.66782565               11.11029123              -38.08659366               -0.17358743               17.30903339              -40.60677001
              37.61988754               18.56014391               73.06041146                0.77216923                0.69948615               -0.28664863                0.27851202                0.71831919                4.13182833                7.74781354
              38.62688240               16.51883477               71.54067756                0.49404331                7.43922362                1.39970408               -4.80279542               -6.27301715               79.09323777               -7.30801059
              39.76867201               14.33276954               71.52001715                0.45179476               11.74148316               -1.34453994               -6.38560200               -4.81236796              150.03182208               -2.99279250
              40.86171207               12.16803063               71.40088317                0.44211212                7.97880748                0.75201551               -8.39445741               -1.71031540              142.57942036               -3.13228523
              41.92824816                9.99880917               71.21119662                0.43879540                5.99539656                2.30993146              -10.88390158               -1.07029550              136.01686215               -3.74604861
              42.98162000                7.83206969               70.93907515                0.44105404                5.11064178                3.91660020              -13.95904274               -0.60054820              127.78536665               -4.71160660
              44.03046100                5.67034516               70.56228350                0.44917987                5.07193624                5.48387988              -17.71078349               -0.27329757              116.77219146               -6.01032836
              45.08305872                3.51629599               70.04826138                0.46329517                5.85833106                7.04015833              -22.20640319                0.02394444              101.66656474               -7.75673600
              46.14762762                1.37142014               69.35091645                0.48407418                7.42836741                8.57583715              -27.43594580                0.31321514               80.53955063              -10.25747649
              47.23162607               -0.76453798               68.40295960                0.51240702                9.40836715               10.05827577              -33.21397531                0.53459775               48.48939885              -14.14183951
              48.33579496               -2.89560457               67.06618784                0.76760510               10.41688928               11.34778098              -37.82456409                0.52823800               28.37315488              -25.02840368
              17.03580907                8.99523671               76.28717721                0.80203670               -1.62624125               -1.81680963                6.17399323               -0.47061226               -5.53324450                6.03160136
              18.01954666                6.70931927               75.62753195                0.54293710               -1.62294160               -1.05358158                4.16366030               -0.56579800               -7.75768884               -4.62595811
              19.00335024                4.41417400               74.92369824                0.48218503               -1.44978452               -0.57239899                2.06084747               -0.49165931               -8.03270254               -0.37559750
              19.99055097                2.10080380               74.25929804                0.45510795               -0.94632789                0.01129562                0.05238669               -0.43753022               -5.55861239               -0.45925174
              20.98442368               -0.23041078               73.60540383                0.44146980               -0.16788540                0.59128277               -2.01374809               -0.37471562               -4.61630404               -0.27001474
              21.98719326               -2.57451600               72.95993423                0.44093458                0.77507744                1.18268160               -4.12625019               -0.32583481               -4.06185126               -0.09370958
              22.99992523               -4.92368746               72.31703655                0.45283390                1.75123957                1.77414780               -6.26282147               -0.30633925               -4.15613367                0.08793300
              24.02221805               -7.27000158               71.66955449                0.47762583                2.63001650                2.35325562               -8.39173674               -0.30999523               -4.94678309                0.27199254
              25.05252556               -9.60805001               71.01064658                0.51617994                3.34101714                2.91901266              -10.48994020               -0.30951422               -6.57497483                0.34961335
              26.08903840              -11.93596329               70.33019482                0.56947219                3.90588212                3.47625272              -12.57257868               -0.30925638               -7.07800645                1.17805924
              27.13064320              -14.25522539               69.66063441                0.80631546                4.16048081                4.09013202              -14.62384691               -0.65896426               -6.49944295               -4.53673489
              19.31702038                9.97706861               76.02264162                0.57894334               -1.26003476               -1.87894067                5.39068508               -0.28535444                4.15006103                8.97782445
              20.30442003                7.69878346               75.35815113                0.04295212               -0.71644987               -0.75767078                3.40159002               -0.62755298                9.40076000               -8.58186865
              21.30269139                5.40845001               74.79888355                0.00010000                0.20240113               -1.18361403                1.79025167               -1.91380027               14.50028181              -10.20152989
              22.30846806                3.10091675               74.23610541                0.00010000                0.78225204               -1.09509219                0.07311831               -3.01564969               15.00007178              -14.43290461
              23.31833643                0.77550204               73.68669620                0.00010000                1.10525979               -0.71629028               -1.68763125               -3.84141373               16.07634397              -19.54166764
              24.33057325               -1.56268919               73.14550627                0.00010000                1.31341015               -0.18448309               -3.48924149               -4.21539923               16.61066483              -25.43757517
              25.34460463               -3.90594599               72.60688885                0.00010000                1.53630590                0.39704226               -5.32148287               -4.10054155               16.51840017              -32.08323938
              26.36129937               -6.24646903               72.06377751                0.00010000                1.89033224                0.96165847               -7.13556625               -3.58287575               15.69681425              -39.36422389
              27.38241127               -8.57885988               71.50830727                0.00010000                2.41170771                1.50986338               -8.90851250               -2.81992293               14.41516305              -46.87895428
              28.40953353              -10.90120076               70.93891584                0.06737762                3.04521946                2.82070742              -10.64726931               -1.23981730               11.04327964              -51.44132187
              29.44331566              -13.21432407               70.31513963                0.56545745                3.37821374                3.71065060              -12.47736907                1.62224304                8.38293067              -62.55963579
              21.58667229               10.95765789               75.81733269                0.55333770               -1.10580843               -1.82540955                4.88948727               -0.12614609                0.00112876               11.10890236
              22.57561420                8.69416586               75.00982654                0.00010000               -1.18656748               -0.34572330                2.37222204               -1.93825513               13.75555970              -11.17743458
              23.56294094                6.39050171               74.47762777                0.00010000               -0.62141328               -1.12530944                0.69364824               -4.82271024               27.02483154              -19.55643456
              24.56318594                4.07890195               73.93343431                0.00010000                0.41302043               -1.40298257               -1.31284537               -6.22125568               26.18116426              -28.22646420
              25.57120135                1.75526341               73.38238118                0.00010000                1.05736838               -1.22978477               -3.37023898               -7.46329144               25.55419939              -38.45781316
              26.58433331               -0.57820566               72.82387901                0.00010000                1.52464464               -0.77363245               -5.53883597               -8.03451357               24.65520160              -50.16086329
              27.60169424               -2.91574662               72.25286664                0.00010000                1.95705623               -0.18233322               -7.86599530               -7.71691146               23.29308208              -63.39444547
              28.62347443               -5.25076841               71.66466759                0.00010000                2.45823003                0.45601593              -10.50888979               -6.52359066               21.82139368              -78.17061075
              29.65085884               -7.57785274               71.06063983                0.00010000                3.81159063                1.25460067              -14.04737497               -3.78212912               23.22942378              -94.29140733
              30.69970624               -9.87954914               70.49436715                0.00010000                6.92379206                2.45227843              -23.17990900               -0.56107517               19.18058829             -113.57387240
              31.78933468              -12.18101238               69.80818553                0.51776708                8.96284386                3.34237936              -29.16098342                2.22218885               12.63923107             -135.57450060
              23.84148153               11.94056042               75.59593704                0.55107975               -0.86704212               -1.59481062                4.29514209               -0.10981424                0.12710798               10.49363189
              24.83281111                9.69186899               74.68843743                0.00010000               -0.99902233               -0.13194011                1.48247356               -2.74193048               19.38396374               -9.67121664
              25.82150108                7.38594382               74.16626383                0.00010000               -0.67649303               -0.00869154               -0.55020368               -5.64699127               38.20626744              -18.45082169
              26.81928125                5.07285710               73.63240069                0.00010000                0.23385651                0.02703874               -2.69640998               -6.42442548               37.01328740              -27.40733400
              27.82617821                2.75090635               73.08268718                0.00010000                1.08058807                0.24528963               -5.02019357               -7.16008653               35.37400063              -37.23197923
              28.84089301                0.42183816               72.51194617                0.00010000                1.83254670                0.68239508               -7.52412746               -7.37259746               33.13693568              -48.36836645
              29.86282915               -1.90959265               71.91348452                0.00010000                2.60203333                1.27596195              -10.28314655               -6.77648179               30.23200889              -61.10265532
              30.89293368               -4.23734871               71.28053855                0.00010000                3.63601364                1.96939959              -13.47429510               -5.15046634               26.83368259              -75.83306030
              31.93554942               -6.55376787               70.60981039                0.00010000                5.42689938                2.75958903              -17.65654482               -2.33771740               21.91868687              -93.55156924
              33.00147166               -8.85215520               69.87526579                0.00010000                7.75682472                2.85421132              -22.16295781               -0.07859476               12.99249459             -118.20754925
              34.09068592              -11.14747649               69.02878199                0.51844922                8.92142510                3.34961053              -25.74176986                0.10588311                6.90316030             -142.34100578
              26.08185886               12.92576168               75.37878299                0.54913388               -0.64666624               -1.37467639                3.72675821               -0.10727275                0.12241240               10.79503251
              27.07539220               10.69152705               74.37021497                0.00010000               -0.64229280                0.07584615                0.58583500               -3.23553638               25.28467487               -9.37935385
              28.06901300                8.39032788               73.86504474                0.00010000               -0.28286489                0.73886873               -1.66699823               -6.43947324               49.89819049              -17.30792797
              29.06973490                6.07944273               73.34474279                0.00010000                0.50027757                1.10393194               -4.03261264               -6.88359829               48.23663980              -25.65202500
              30.07901855                3.76016920               72.80104562                0.00010000                1.38227284                1.44486751               -6.58290064               -7.17451598               45.71371915              -34.79739121
              31.09738035                1.43544224               72.22444928                0.00010000                2.31664613                1.89966337               -9.36723308               -7.01755619               42.17931785              -45.15999325
              32.12535148               -0.89022738               71.60429042                0.00010000                3.36299820                2.47163175              -12.44181663               -6.19661890               37.49576286              -57.17161378
              33.16464032               -3.21138042               70.92882098                0.00010000                4.67797521                3.09127635              -15.89411306               -4.62687963               31.37026203              -71.38899787
              34.21891098               -5.52266096               70.18223051                0.00010000                6.36013245                3.55735413              -19.65643167               -2.60003271               23.21147120              -88.68271410
              35.29184297               -7.82246492               69.34248147                0.00010000                8.15919719                3.61916220              -23.41346548               -1.00739896               12.53794934             -108.71240897
              36.38209492              -10.11402017               68.38601899                0.52003340                9.02519564                4.06827822              -26.69695081               -0.41279415                6.33619473             -129.68028632
              28.30780533               13.91306689               75.16385829                0.54678935               -0.42711480               -1.17051434                3.16617781               -0.10584998                0.13951646               10.94899787
              29.30353418               11.69338591               74.05463623                0.00010000               -0.15046897                0.30178320               -0.30361287               -3.53637281               31.64360147               -9.18256070
              30.30479595                9.40072119               73.57561858                0.00010000                0.41168937                1.26509100               -2.73288854               -6.94929257               62.48092451              -15.97133137
              31.31176797                7.09493574               73.07787627                0.00010000                1.09462194                1.84872116               -5.26877388               -7.29744291               60.34617317              -23.21796332
              32.32668839                4.77980370               72.54921435                0.00010000                1.95852520                2.31355365               -8.00712650               -7.29708517               56.96311562              -31.27981155
              33.35093847                2.45983143               71.97616043                0.00010000                2.95155219                2.83070517              -11.00750920               -6.85216660               52.14708159              -40.53569466
              34.38571943                0.13983998               71.34373406                0.00010000                4.09455963                3.43720049              -14.30916156               -5.91796345               45.67569897              -51.41393266
              35.43282966               -2.17552318               70.63491940                0.00010000                5.44569166                4.06303102              -17.90316947               -4.55230646               37.27100603              -64.41629957
              36.49463326               -4.48262078               69.83029348                0.00010000                6.99266182                4.58345228              -21.68436596               -2.98690208               26.68545691              -79.92307655
              37.57268290               -6.77977195               68.90924199                0.00171215                8.54536390                5.00973835              -25.42348156               -1.48744282               14.00444097              -97.92696076
              38.66554054               -9.06611092               67.85482523                0.52132192                9.28576421                5.59631988              -28.84294043               -0.65018684                6.98816486             -117.99400879
              30.51910381               14.90235139               74.95014124                0.54476310               -0.20933732               -0.97512300                2.61205445               -0.10368363                0.15049458               10.99468386
              31.51701044               12.69756272               73.74035194                0.00010000                0.46867560                0.53804721               -1.19512788               -3.74256816               38.65831446               -9.11237475
              32.52847732               10.41562970               73.30080529                0.00010000                1.38465474                1.64247704               -3.73905013               -7.28511961               76.36977275              -14.36560579
              33.54470353                8.11641715               72.83865704                0.00010000                1.98519173                2.29323982               -6.38257308               -7.57738992               73.74898995              -20.13257410
              34.56818116                5.80644028               72.33800407                0.00010000                2.77986012                2.83333489               -9.24512808               -7.32154600               69.52161820              -26.74734812
              35.60030074                3.49205634               71.78171311                0.00010000                3.70828307                3.45648830              -12.39801247               -6.61758035               63.47687729              -34.53558986
              36.64234682                1.17851663               71.15085851                0.00010000                4.78771105                4.18965025              -15.87277130               -5.59463247               55.35040683              -43.85882412
              37.69605496               -1.13011980               70.42421600                0.00010000                6.05374448                4.96703717              -19.64653621               -4.35221685               44.86299690              -55.14923033
              38.76342171               -3.43099191               69.57861833                0.00010000                7.47646462                5.72092150              -23.61339147               -2.99823589               31.86880461              -68.87192553
              39.84558425               -5.72227015               68.59128644                0.00440105                8.91737087                6.44041235              -27.56638963               -1.57932852               16.61316130              -85.42104054
              40.94176913               -8.00209377               67.44467729                0.52309305                9.61848776                7.14267040              -31.20572752               -0.69154561                8.27296685             -105.00076715
              32.71530900               15.89356443               74.73639877                0.54244904                0.00955017               -0.78415340                2.05580679               -0.10638452                0.16596271               10.91693850
              33.71540450               13.70414686               73.42619990                0.00010000                1.24650600                0.78345552               -2.09304080               -3.94378212               46.54731468               -9.15191324
              34.74023912               11.43357073               73.04367397                0.00010000                2.70025462                1.82400204               -4.66989136               -7.50682548               91.97646292              -12.43914942
              35.76940960                9.14080054               72.63404730                0.00010000                3.21895770                2.36201862               -7.34029578               -7.63754970               88.82395694              -16.34983410
              36.80461828                6.83647040               72.17788384                0.00010000                3.85504560                2.95721918              -10.24974787               -6.98425734               83.75238982              -21.23412287
              37.84651051                4.52896120               71.65509615                0.00010000                4.56923227                3.76857709              -13.48533859               -6.01070428               76.56215577              -27.25626894
              38.89600292                2.22363299               71.04370394                0.00010000                5.43916793                4.71116078              -17.08582782               -4.92016978               66.91983061              -34.65280243
              39.95529387               -0.07618244               70.31837676                0.00010000                6.54079861                5.71603760              -21.03392750               -3.77697812               54.41806104              -43.83657969
              41.02681889               -2.36820235               69.45051290                0.00010000                7.84521611                6.72644108              -25.22931504               -2.59483728               38.79544005              -55.44941410
              42.11219819               -4.65096370               68.41115768                0.00689703                9.22689907                7.69227593              -29.45425014               -1.35602433               20.28087850              -70.38748652
              43.21135687               -6.92325751               67.17730427                0.52430572                9.91586861                8.50957720              -33.32761920               -0.59470004               10.13158264              -89.45546367
              34.89581127               16.88666832               74.52130804                0.54054828                0.23172282               -0.59193589                1.49143825               -0.11209936                0.21923273               10.84627870
              35.89812849               14.71323183               73.11114757                0.00010000                2.29379344                1.03487865               -3.00205264               -4.27303209               55.57555620               -9.43351421
              36.94168713               12.45210974               72.80811125                0.00010000                4.54621910                1.55978792               -5.50283942               -7.67888869              109.75280293               -9.87964476
              37.98905288               10.16365752               72.47191870                0.00010000                4.93241078                1.82707346               -8.09898443               -7.03875259              105.89732610              -11.71978756
              39.04033535                7.86558466               72.07906456                0.00010000                5.19355899                2.70857618              -10.96601170               -5.87636505               99.91278792              -14.80247760
              40.09292406                5.56742788               71.60908754                0.00010000                5.43758546                3.80379198              -14.20320982               -4.73391983               91.71685259              -18.86426444
              41.14908706                3.27273985               71.03859920                0.00010000                5.97133404                4.99844386              -17.85952968               -3.72772648               80.79988338              -24.00983564
              42.21235074                0.98420095               70.33842113                0.00010000                6.86095858                6.23162622              -21.92968130               -2.77890343               66.45186755              -30.58930730
              43.28630623               -1.29646309               69.47267466                0.00010000                8.05840929                7.46242799              -26.32195625               -1.84537966               47.99001675              -39.30565748
              44.37351892               -3.56842463               68.40045813                0.00949921                9.40782560                8.63156151              -30.80448960               -0.91542266               25.35917658              -51.61511536
              45.47446274               -5.83190223               67.08634873                0.52561915               10.09438207                9.60135976              -34.88389589               -0.40929141               12.78993215              -69.79966409
              37.05994001               17.88172571               74.30624930                0.53840698                0.45624357               -0.38643515                0.92104087               -0.12079113               -0.20790517                9.43899401
              38.06450244               15.72484443               72.79137535                0.00010000                3.81478239                1.27960340               -3.93444452               -5.04338782               66.14786625               -8.61998453
              39.13623565               13.46476649               72.60356906                0.00010000                7.53285944               -0.16662943               -6.19354966               -6.23420373              130.40241642               -5.67254132
              40.21515963               11.17734201               72.36238003                0.00010000                7.35424810                0.94417373               -8.60310475               -4.82041178              124.98546562               -6.18706394
              41.28332062                8.89064192               72.05081649                0.00010000                6.47586473                2.27912560              -11.33283370               -3.46680173              118.03608451               -7.61189203
              42.34467692                6.60503704               71.65430858                0.00010000                6.06773537                3.68733971              -14.47789524               -2.65213285              109.16490227               -9.63825405
              43.40467532                4.32360187               71.14929014                0.00010000                6.21209042                5.09747718              -18.09668941               -2.01370668               97.42679630              -12.27656168
              44.46891873                2.04845009               70.50376466                0.00010000                6.89307798                6.49536556              -22.19738006               -1.45288050               81.77547541              -15.73357409
              45.54253688               -0.21895379               69.67516629                0.00010000                8.02050702                7.86385516              -26.70211150               -0.91499914               60.77954675              -20.49736545
              46.62932887               -2.47833247               68.60523386                0.01199719                9.37946797                9.16078717              -31.38012911               -0.41285350               32.94774430              -27.74597188
              47.73012624               -4.73123032               67.22371763                0.52709541               10.07973683               10.29688958              -35.59890658               -0.23309809               16.85805726              -41.98587542
              39.20715801               18.87893962               74.06302647                0.76834001                0.70619530               -0.27860909                0.24439722                0.71022769                4.28305922                8.03715458
              40.21421996               16.73882390               72.49259563                0.49015275                7.86737391                1.39794662               -4.80356141               -6.53637138               80.91157577               -7.57260205
              41.36450549               14.44877716               72.45462263                0.45087365               12.62746262               -1.59893342               -6.65085213               -4.98716174              153.21114006               -3.12997183
              42.46676921               12.18254100               72.31463276                0.44182205                8.93993996                0.51989920               -8.79447284               -1.71954105              145.21284853               -3.31474526
              43.54330428                9.91116717               72.10000060                0.43869150                7.00761197                2.05252518              -11.28927925               -1.06994913              138.00119496               -3.98011345
              44.60692145                7.64117468               71.79776945                0.44094238                6.10477962                3.61376391              -14.23671755               -0.59943639              129.00520079               -5.00556941
              45.66539988                5.37468939               71.38492014                0.44847820                5.94636675                5.10875222              -17.70546793               -0.28086528              117.14130986               -6.37092072
              46.72584879                3.11410826               70.82851473                0.46143900                6.46944666                6.56581755              -21.71865104               -0.00076342              101.17240062               -8.18811282
              47.79478881                0.86081401               70.08299864                0.48071947                7.58447954                7.97678060              -26.21314937                0.25933528               79.35417105              -10.75751786
              48.87753838               -1.38520889               69.08341816                0.50691501                9.04038294                9.31235869              -30.97554919                0.48202792               47.45099391              -14.71910516
              49.97559647               -3.62596444               67.70263541                0.76399038                9.80580913               10.52658810              -35.24033131                0.47146775               27.85435691              -25.61024465
              17.64942965                9.32474322               77.34917416                0.79576924               -1.64011399               -1.82940734                6.22319971               -0.47503810               -5.68467532                6.18355000
              18.63302851                6.93556016               76.66933939                0.53500980               -1.64924579               -1.06206782                4.19587083               -0.58350231               -7.95026061               -4.76674482
              19.61644473                4.53678580               75.94443451                0.47880906               -1.48055113               -0.57737191                2.08546210               -0.49208430               -8.22275456               -0.33754857
              20.60341748                2.11937105               75.25988610                0.45414455               -0.95921711                0.01057092                0.06608604               -0.43144865               -5.72907131               -0.44454425
              21.59726039               -0.31601088               74.58524019                0.44129311               -0.16767007                0.59830633               -2.01217246               -0.37105038               -4.83737239               -0.26495557
              22.60006408               -2.76421195               73.91856822                0.44065919                0.77876661                1.19764770               -4.13934536               -0.32900113               -4.31965873               -0.09174855
              23.61283572               -5.21742990               73.25422754                0.45160300                1.75566129                1.79570434               -6.29231816               -0.31304901               -4.43086173                0.07660990
              24.63517731               -7.66787881               72.58530016                0.47475570                2.63946990                2.38099753               -8.43994005               -0.31348347               -5.21153570                0.25648429
              25.66562512              -10.11024889               71.90533225                0.51028726                3.36039576                2.95436430              -10.55465169               -0.31616575               -6.82514821                0.32844475
              26.70238522              -12.54261148               71.20400628                0.55947202                3.93257641                3.51681725              -12.65482589               -0.31751081               -7.31902835                1.16359235
              27.74427665              -14.96647629               70.51383074                0.79984022                4.18914233                4.13536333              -14.72522933               -0.64816438               -6.73952288               -4.66483871
              20.03386232               10.30644914               77.07677311                0.56852059               -1.26901257               -1.89550026                5.43160820               -0.29038356                4.33230641                9.27608771
              21.02117219                7.92493948               76.39229499                0.03054122               -0.71219361               -0.76031828                3.42579610               -0.64876921                9.77723599               -8.85123745
              22.01961845                5.53101208               75.81686145                0.00010000                0.21645713               -1.18633930                1.80519533               -1.90193852               15.01869541              -10.60696600
              23.02550134                3.11947675               75.23682924                0.00010000                0.78614691               -1.04528466                0.07030349               -2.97243183               15.43638909              -15.14050239
              24.03534139                0.68997218               74.66964585                0.00010000                1.09911217               -0.64577707               -1.71583382               -3.75325383               16.46541782              -20.55166120
              25.04748358               -1.75223548               74.11031606                0.00010000                1.30986370               -0.10169861               -3.54284665               -4.07136078               16.96650676              -26.78030744
              26.06153866               -4.19947285               73.55323963                0.00010000                1.54841969                0.48094111               -5.40334154               -3.89411514               16.86639603              -33.82361477
              27.07845197               -6.64406884               72.99180262                0.00010000                1.91455680                1.02779092               -7.24539043               -3.29243477               16.06790741              -41.65463047
              28.09982980               -9.08070525               72.41843218                0.00010000                2.44359215                1.52946829               -9.05371995               -2.38431575               14.81769086              -50.14320669
              29.12732382              -11.50744331               71.83151654                0.05291719                3.09150128                2.45061961              -10.82743882               -0.81099429               11.41137206              -57.98060658
              30.16165982              -13.92512266               71.18932184                0.55555676                3.43360042                3.01049885              -12.68066006                1.66884296                8.69890009              -71.34620525
              22.40664129               11.28683321               76.86645842                0.54494432               -1.11511043               -1.84585984                4.92637920               -0.12462175               -0.02775992               11.50411937
              23.39549019                8.92035380               76.03369507                0.00010000               -1.13863004               -0.34296655                2.39629643               -1.96837775               14.11672784              -11.50531041
              24.38386869                6.51305901               75.48398719                0.00010000               -0.52407228               -1.08308145                0.60114899               -4.79435068               27.64470764              -20.39613033
              25.38500874                4.09846535               74.91985269                0.00010000                0.50194266               -1.31858145               -1.39023839               -6.11617431               26.63356343              -29.64366250
              26.39390754                1.67107358               74.34821697                0.00010000                1.15365804               -1.11943305               -3.45103846               -7.30114342               25.91850602              -40.46035822
              27.40808190               -0.76624593               73.76806554                0.00010000                1.64396159               -0.65967147               -5.61211025               -7.78056167               24.89262390              -52.81278511
              28.42678678               -3.20781107               73.17389771                0.00010000                2.12395548               -0.09070342               -7.91264001               -7.38858913               23.31761145              -66.79875369
              29.45056101               -5.64732299               72.55962044                0.00010000                2.72632490                0.48233842              -10.47692390               -6.15077803               21.31357350              -82.53410345
              30.48131327               -8.07965953               71.92151618                0.00010000                4.00108682                1.10737553              -13.72304256               -3.71790173               20.03028746             -100.07168956
              31.53058275              -10.49359909               71.27542947                0.00010000                6.58494726                1.92918121              -20.56987421               -0.88734423               14.69888592             -120.91918119
              32.61301222              -12.90626632               70.53038331                0.51151886                8.24294704                2.61288128              -25.90667972                1.63907811                9.01297210             -144.08665415
              24.76432871               12.26953195               76.63907512                0.54263669               -0.87498728               -1.61629457                4.32347326               -0.10906757                0.12646020               10.85747400
              25.75557884                9.91808015               75.70341549                0.00010000               -0.93544162               -0.12902018                1.51030599               -2.74235671               19.74672526               -9.93308336
              26.74561988                7.50935045               75.16029613                0.00010000               -0.52077782                0.05152050               -0.62416730               -5.62473539               38.88088140              -19.30515580
              27.74516328                5.09310513               74.60474206                0.00010000                0.42049582                0.08104374               -2.81331140               -6.36094310               37.55549117              -28.78628785
              28.75402980                2.66758352               74.03184098                0.00010000                1.27968581                0.30637692               -5.13017069               -7.04131695               35.73738893              -39.17599641
              29.77075700                0.23457109               73.43625258                0.00010000                2.04070734                0.73044942               -7.59821356               -7.20915439               33.29056405              -50.92305145
              30.79484394               -2.20128692               72.81057933                0.00010000                2.82639347                1.28529491              -10.28226959               -6.62341159               30.07137083              -64.32622752
              31.82728487               -4.63442207               72.14645579                0.00010000                3.84519558                1.90598247              -13.32107164               -5.16222503               26.05107155              -79.75187641
              32.87174785               -7.05855774               71.43588355                0.00010000                5.44494270                2.57166553              -17.09404133               -2.81533323               20.52847078              -97.90453818
              33.93618372               -9.46885968               70.65786497                0.00010000                7.40139969                2.83768739              -21.21502149               -0.71828783               11.84869964             -120.70247238
              35.01977585              -11.87286504               69.77674253                0.51229543                8.35921259                3.53344419              -24.56957600               -0.21038949                6.13599510             -143.91310881
              27.10736353               13.25450732               76.41616078                0.54045391               -0.65389750               -1.39398600                3.74940491               -0.10050939                0.12417502               11.18372043
              28.10082455               10.91777339               75.37622558                0.00010000               -0.55072569                0.07692103                0.61500602               -3.22724795               25.69541936               -9.64370187
              29.09634901                8.51408942               74.84784736                0.00010000               -0.06338719                0.76127181               -1.75119362               -6.40570182               50.65850092              -18.09901030
              30.09955681                6.10008623               74.30361649                0.00010000                0.76331131                1.12631831               -4.16579862               -6.83367959               48.84917239              -26.96280216
              31.11161524                3.67720112               73.73447816                0.00010000                1.66062257                1.45828780               -6.70652535               -7.09460534               46.11150884              -36.63293324
              32.13276926                1.24836306               73.13036813                0.00010000                2.58482332                1.89419166               -9.43033975               -6.92334170               42.31335885              -47.54959175
              33.16331170               -1.18210517               72.48006440                0.00010000                3.59090369                2.43511155              -12.39117628               -6.15347846               37.30919895              -60.13035508
              34.20458733               -3.60920334               71.77104021                0.00010000                4.80662598                3.02167341              -15.65698207               -4.75309627               30.85958683              -74.84750795
              35.25944422               -6.02822622               70.98800578                0.00010000                6.29684779                3.51837934              -19.18753272               -2.95375704               22.55330653              -92.28407909
              36.33052429               -8.43684534               70.11180040                0.00010000                7.86854577                3.79775802              -22.73161316               -1.35583003               12.08319346             -112.25552544
              37.41681514              -10.83559743               69.12300830                0.51359692                8.62908512                4.34550239              -25.91649221               -0.57099854                6.05994414             -133.44846619
              29.43578638               14.24165223               76.19561227                0.53858020               -0.43345970               -1.18299358                3.18358834               -0.09901008                0.14061123               11.35100080
              30.43145178               11.91961857               75.05173170                0.00010000               -0.02966826                0.29880300               -0.27636360               -3.52939480               32.12771317               -9.44682540
              31.43519301                9.52457589               74.54770549                0.00010000                0.69631081                1.26307600               -2.82621983               -6.92526884               63.37724758              -16.71828765
              32.44537799                7.11563149               74.02429856                0.00010000                1.43339220                1.83556861               -5.41567867               -7.26774674               61.07325103              -24.42763139
              33.46386085                4.69674928               73.46834956                0.00010000                2.31092313                2.28239594               -8.13761363               -7.24456319               57.43729810              -32.95826305
              34.49159646                2.27245493               72.86573914                0.00010000                3.27399620                2.77680713              -11.05663761               -6.79152438               52.32039036              -42.70028320
              35.52934078               -0.15258469               72.20109248                0.00010000                4.33737641                3.35995981              -14.21213754               -5.89561558               45.53955769              -54.06965091
              36.57834399               -2.57398860               71.45746702                0.00010000                5.54869651                3.97835993              -17.60028221               -4.62417520               36.88835330              -67.51443031
              37.64031471               -4.98819015               70.61639226                0.00010000                6.90471763                4.54106998              -21.13928099               -3.15449588               26.22231276              -83.38498390
              38.71643834               -7.39290452               69.65925985                0.00010000                8.27726808                5.04232760              -24.65632367               -1.64218608               13.69138981             -101.71318579
              39.80586007               -9.78595499               68.57129776                0.51488753                8.94217319                5.64117099              -27.96585367               -0.73638444                6.82069050             -122.17155223
              31.74945063               15.23084745               75.97631094                0.53671015               -0.21376322               -0.98331606                2.61834672               -0.10236628                0.15165730               11.40085672
              32.74731300               12.92374945               74.72852265                0.00010000                0.61900451                0.53450331               -1.16860378               -3.74715555               39.24954342               -9.38343441
              33.76183072               10.53935094               74.26277317                0.00010000                1.73577417                1.61679612               -3.84163351               -7.28218473               77.46688549              -15.05191514
              34.78202848                8.13679760               73.77385692                0.00010000                2.40349109                2.24149771               -6.54280692               -7.57044667               74.65328567              -21.20847205
              35.80990054                5.72284904               73.24469848                0.00010000                3.21221299                2.75542386               -9.38387246               -7.28839392               70.13025037              -28.21633536
              36.84627274                3.30389920               72.65742682                0.00010000                4.09711889                3.35198780              -12.43732244               -6.56638970               63.73810448              -36.41556619
              37.89184292                0.88509402               71.99280261                0.00010000                5.07182771                4.06029585              -15.73522123               -5.55424706               55.26601705              -46.16457265
              38.94770929               -1.52963614               71.22982912                0.00010000                6.17136555                4.82280684              -19.25929750               -4.35293549               44.50767537              -57.88352331
              40.01527023               -3.93740482               70.34630901                0.00010000                7.38680541                5.57644312              -22.92638957               -3.04495491               31.40914720              -72.02649714
              41.09544540               -6.33599879               69.32121848                0.00010000                8.64590784                6.29178916              -26.59093906               -1.63399874               16.29026346              -88.97976488
              42.18818839               -8.72277401               68.13906536                0.51620755                9.27429843                6.95025682              -30.09411536               -0.74106731                8.12217107             -108.95944591
              34.04793504               16.22198590               75.75697187                0.53489207                0.00701361               -0.79042061                2.05421124               -0.10685355                0.16375317               11.31707388
              35.04800517               13.93030864               74.40535380                0.00010000                1.42830662                0.78149152               -2.07026726               -3.97028500               47.28801435               -9.43282899
              36.07650117               11.55691181               73.99627252                0.00010000                3.12328960                1.77072184               -4.78319500               -7.54018357               93.35884549              -13.04149430
              37.11047097                9.16046145               73.55956947                0.00010000                3.72450998                2.26655878               -7.51738669               -7.65553449               89.98356614              -17.24722638
              38.15099137                6.75185776               73.07443662                0.00010000                4.37763559                2.82963884              -10.40351259               -6.96375856               84.56500814              -22.43491182
              39.19802368                4.33949468               72.51991555                0.00010000                5.03999076                3.61130436              -13.52572547               -5.96074822               76.96411065              -28.78238014
              40.25179119                1.92862123               71.87366516                0.00010000                5.78802184                4.52125979              -16.91949965               -4.86198289               66.90839537              -36.52874488
              41.31378411               -0.47753246               71.11055666                0.00010000                6.69935331                5.49166286              -20.56816615               -3.73250883               54.06794812              -46.08455966
              42.38577825               -2.87666129               70.20292350                0.00010000                7.76717224                6.46578122              -24.39242729               -2.57847987               38.28741967              -58.08394608
              43.46912756               -5.26706874               69.12363023                0.00010000                8.94054647                7.38394564              -28.24645486               -1.36421543               19.90672072              -73.39914443
              44.56458918               -7.64694985               67.85211587                0.51767566                9.54616214                8.12784870              -31.95262053               -0.62948713                9.97012196              -92.82493085
              36.33066809               17.21503904               75.53615798                0.53300940                0.23133075               -0.59570285                1.47633787               -0.11347719                0.22195152               11.23785063
              37.33298139               14.93937928               74.08120753                0.00010000                2.51030780                1.03406667               -2.97880030               -4.33579394               56.52295349               -9.73252668
              38.38087424               12.57476538               73.75229595                0.00010000                5.04952241                1.46704639               -5.63159089               -7.76572029              111.52473014              -10.35935863
              39.43397184               10.18212877               73.38971840                0.00010000                5.53589455                1.67968431               -8.30020418               -7.07488030              107.40593989              -12.38111186
              40.49159213                7.77944181               72.96829833                0.00010000                5.81612305                2.53391099              -11.14660459               -5.86155300              101.00998005              -15.66859684
              41.55029430                5.37612529               72.46661142                0.00010000                6.00191356                3.59810063              -14.26214314               -4.68642051               92.32891554              -19.95878433
              42.61163040                2.97551922               71.86083452                0.00010000                6.40236667                4.75164795              -17.68783810               -3.66661980               80.91505785              -25.35642065
              43.67834164                0.58019711               71.12191048                0.00010000                7.08032517                5.93308920              -21.41326994               -2.72011958               66.14036193              -32.21094010
              44.75323691               -1.80808919               70.21484987                0.00010000                8.00540087                7.10258892              -25.36378905               -1.80475078               47.44537310              -41.22123014
              45.83844965               -4.18831987               69.10068378                0.00010000                9.10619819                8.20342666              -29.38854201               -0.90420672               24.93456795              -53.82522225
              46.93536087               -6.56021704               67.74703096                0.51892441                9.69112182                9.09316408              -33.27615914               -0.43719656               12.61415001              -72.28565145
              38.59698500               18.21007185               75.31533790                0.53074035                0.45779556               -0.38531839                0.89739717               -0.12107186               -0.21612826                9.77622846
              39.60156295               15.95098997               73.75209956                0.00010000                4.07261384                1.27814432               -3.91644815               -5.16413741               67.37803980               -8.90351459
              40.67843727               13.58625274               73.54072466                0.00010000                8.13669860               -0.33511991               -6.34492056               -6.34756994              132.70306840               -5.95298790
              41.76429693               11.19405513               73.27494275                0.00010000                8.06632593                0.75507446               -8.84041404               -4.85487692              126.94099124               -6.54472083
              42.83976379                8.80253598               72.93614134                0.00010000                7.19604692                2.06984291              -11.55684682               -3.45275971              119.50696523               -8.07462505
              43.90821786                6.41145669               72.50884587                0.00010000                6.73115876                3.44556315              -14.57867516               -2.61858072              110.07383532              -10.22138108
              44.97438697                4.02365419               71.96898650                0.00010000                6.73861349                4.80737646              -17.95183102               -1.97079303               97.75020870              -12.99430035
              46.04299013                1.64112932               71.28459359                0.00010000                7.19066268                6.14182431              -21.67319846               -1.40885484               81.57370857              -16.59894638
              47.11820022               -0.73460951               70.41391340                0.00010000                8.00905690                7.43471379              -25.67428089               -0.87794089               60.25034436              -21.51972393
              48.20317127               -3.10300020               69.30065390                0.00154484                9.07196814                8.65155954              -29.80489605               -0.39587652               32.49823359              -28.93274162
              49.29963958               -5.46508657               67.87825254                0.52019190                9.64683128                9.72860155              -33.82721308               -0.25429994               16.67436857              -43.32782315
              40.84641040               19.20733267               75.06529940                0.76469086                0.71073613               -0.27391797                0.21244176                0.70349007                4.43510649                8.32136675
              41.85351776               16.96494217               73.44460633                0.48613258                8.22236443                1.39521967               -4.79376534               -6.76800403               82.59370657               -7.82774266
              43.01085768               14.56806298               73.38700011                0.44983763               13.35366527               -1.81897554               -6.83990416               -5.14355436              156.14525913               -3.25625065
              44.12059106               12.19723026               73.22499371                0.44165389                9.71388456                0.31751315               -9.08575196               -1.73180173              147.69934013               -3.48370286
              45.20513538                9.82083867               72.98541104                0.43886242                7.81067070                1.83026956              -11.57872141               -1.07252721              139.94673396               -4.20073792
              46.27680448                7.44503655               72.65434080                0.44086527                6.87032700                3.35798598              -14.40718475               -0.59993498              130.31780618               -5.28397152
              47.34254192                5.07166675               72.20817414                0.44751782                6.58118809                4.80125594              -17.62395366               -0.28465303              117.77896196               -6.71102636
              48.40842824                2.70303360               71.61388836                0.45974887                6.86328502                6.19042768              -21.23418116               -0.00927274              101.17743977               -8.59208000
              49.47980762                0.34060508               70.82665346                0.47740844                7.62904706                7.52145950              -25.17514138                0.24462537               78.91715048              -11.22294191
              50.56100918               -2.01528868               69.78344861                0.50163747                8.73199939                8.77115223              -29.29628698                0.47128622               47.02861837              -15.24317068
              51.65444760               -4.36564501               68.36138121                0.76052445                9.34384241                9.94415607              -33.34957187                0.44516919               27.69428323              -26.21311852
              18.28178510                9.66370979               78.41164120                0.78986477               -1.65040006               -1.84036958                6.25738342               -0.47989564               -5.83675329                6.32975234
              19.26528110                7.16807318               77.71144937                0.52749263               -1.67183295               -1.06701529                4.21848048               -0.59750118               -8.13610501               -4.90758153
              20.24834844                4.66256913               76.96540748                0.47560175               -1.50586168               -0.58111258                2.10555815               -0.48406673               -8.39840403               -0.29690527
              21.23516386                2.13802663               76.26061976                0.45291136               -0.96771598                0.01134876                0.08249835               -0.42975982               -5.88477381               -0.42873137
              22.22899412               -0.40452122               75.56516038                0.44098628               -0.16755610                0.60132591               -2.00247923               -0.37728005               -5.04650406               -0.26039933
              23.23181274               -2.95984666               74.87714732                0.44060789                0.77909716                1.20539992               -4.13573991               -0.33322531               -4.56990888               -0.09088266
              24.24457606               -5.52017946               74.19119019                0.45058149                1.75349451                1.80910033               -6.29756628               -0.31451446               -4.69502124                0.06607665
              25.26688263               -8.07787681               73.50075569                0.47199482                2.63702080                2.39948946               -8.45208182               -0.31684148               -5.46497180                0.24134313
              26.29731648              -10.62768098               72.79955355                0.50480429                3.36383515                2.97730354              -10.57815624               -0.31828806               -7.07090414                0.30553123
              27.33415933              -13.16771196               72.07709830                0.55002251                3.94436705                3.54758783              -12.69594130               -0.31997124               -7.55738895                1.14748519
              28.37620382              -15.69950436               71.36612983                0.79342115                4.20444847                4.17036123              -14.78124986               -0.63131441               -6.97670423               -4.78472776
              20.77262276               10.64530610               78.13127378                0.55813738               -1.27463415               -1.91357589                5.46100023               -0.29737272                4.51496629                9.57099823
              21.75987641                8.15740303               77.42666705                0.01821409               -0.70458567               -0.75670132                3.44249484               -0.67045940               10.15702412               -9.11807245
              22.75853104                5.65675801               76.83498746                0.00010000                0.22675136               -1.17123487                1.81718680               -1.89669307               15.53229374              -11.04594892
              23.76441144                3.13814012               76.23751148                0.00010000                0.78134604               -0.99553730                0.06347734               -2.94012042               15.86455490              -15.86761085
              24.77415796                0.60149204               75.65237952                0.00010000                1.09490829               -0.58088295               -1.73451586               -3.67841424               16.84602022              -21.57080386
              25.78630961               -1.94779266               75.07464934                0.00010000                1.31440167               -0.02756123               -3.58625547               -3.94440964               17.30649061              -28.11082713
              26.80044600               -4.50208846               74.49882202                0.00010000                1.55776837                0.55590336               -5.46308026               -3.70868773               17.19723753              -35.51755989
              27.81746497               -7.05388192               73.91886971                0.00010000                1.93025872                1.08865789               -7.33211076               -3.02873389               16.41569825              -43.83704083
              28.83905117               -9.59790794               73.32723287                0.00010000                2.47031679                1.54715381               -9.16683242               -2.00075379               15.18725469              -53.11316319
              29.86687131              -12.13223608               72.72236706                0.03907806                3.13159481                2.17153826              -10.97861519               -0.46176528               11.75547245              -63.06276231
              30.90168307              -14.65780074               72.06152643                0.54641920                3.48117565                2.46690967              -12.85262099                1.61766534                8.99795638              -78.10164718
              23.25164379               11.62543828               77.91586027                0.53652444               -1.12237896               -1.86492774                4.94971200               -0.11455053               -0.05705971               11.89613468
              24.24042000                9.15293915               77.05775247                0.00010000               -1.09831539               -0.33631038                2.41732337               -1.98228235               14.43758220              -11.82304876
              25.22967748                6.63914444               76.48965075                0.00010000               -0.43962870               -1.03887402                0.54673502               -4.77810809               28.22003070              -21.27889569
              26.23162742                4.11811589               75.90562954                0.00010000                0.58405664               -1.23862920               -1.44400551               -6.04242676               27.08478170              -31.09140122
              27.24135861                1.58386112               75.31336041                0.00010000                1.24388097               -1.01834031               -3.50896689               -7.16281291               26.27543089              -42.47262733
              28.25650504               -0.96039788               74.71163681                0.00010000                1.75664790               -0.55663951               -5.66051658               -7.56330928               25.12683050              -55.43253116
              29.27649157               -3.50906139               74.09461384                0.00010000                2.28111976               -0.00977155               -7.93026502               -7.10492112               23.35467059              -70.10524464
              30.30212744               -6.05610366               73.45512912                0.00010000                2.95819978                0.50379561              -10.40153571               -5.82452959               20.92048126              -86.68818860
              31.33565557               -8.59673790               72.78617898                0.00010000                4.13446957                0.97798550              -13.33038450               -3.62595254               17.96083085             -105.38006544
              32.38481683              -11.12428120               72.08296967                0.00010000                6.20154384                1.48302531              -18.20149314               -1.13564485               11.73062002             -127.37286022
              33.45968644              -13.65016616               71.29005194                0.50552387                7.48696129                1.97185435              -22.42018270                1.10988449                6.57053383             -151.36319277
              25.71532999               12.60800754               77.68240651                0.53446816               -0.88053866               -1.62696729                4.34007702               -0.10462416                0.13044743               11.22034239
              26.70652461               10.15067682               76.71864355                0.00010000               -0.87689247               -0.13011725                1.53300657               -2.74165054               20.07043612              -10.17925584
              27.69779214                7.63598053               76.15378048                0.00010000               -0.38391922                0.08969367               -0.66725999               -5.60973254               39.48678120              -20.15398386
              28.69884622                5.11336754               75.57613447                0.00010000                0.58116651                0.12571443               -2.89089476               -6.31975852               38.06393702              -30.17489301
              29.70941547                2.58112523               74.98008377                0.00010000                1.45598565                0.35704147               -5.20435735               -6.95772494               36.09452793              -41.10969451
              30.72796593                0.04107455               74.35998190                0.00010000                2.23189383                0.76808598               -7.64020778               -7.09264360               33.45501945              -53.42752066
              31.75405335               -2.50228389               73.70783913                0.00010000                3.03424781                1.28568847              -10.25086690               -6.52543824               29.95402044              -67.43711848
              32.78865089               -5.04380601               73.01411711                0.00010000                4.03281551                1.83809256              -13.13301360               -5.21505530               25.44077326              -83.47363221
              33.83470966               -7.57834823               72.26792956                0.00010000                5.44678917                2.39433258              -16.50422657               -3.26041061               19.40815711             -102.03001223
              34.89758667              -10.10257558               71.45096536                0.00010000                7.04705124                2.76554445              -20.16051473               -1.31639704               10.88457317             -123.83283396
              35.97565068              -12.61836366               70.53739047                0.50613308                7.80640108                3.63107210              -23.29383201               -0.51922950                5.54913091             -146.45373378
              28.16421275               13.59289893               77.45377109                0.53272840               -0.65987524               -1.40354008                3.76322575               -0.10377678                0.12045332               11.57150272
              29.15761400               11.15033681               76.38251509                0.00010000               -0.47103232                0.07377568                0.64136049               -3.22450018               26.05393014               -9.89514841
              30.15479211                8.64093831               75.83002086                0.00010000                0.12367732                0.77245483               -1.80019122               -6.38623705               51.33398602              -18.88956277
              31.16008755                6.12063018               75.26142682                0.00010000                0.98524954                1.13875734               -4.25181200               -6.80968329               49.41938435              -28.26931716
              32.17449710                3.59100195               74.66691511                0.00010000                1.89868713                1.46464380               -6.78591678               -7.05440198               46.50536113              -38.44557675
              33.19806129                1.05496384               74.03584248                0.00010000                2.81831340                1.88462590               -9.45869046               -6.88560716               42.47772924              -49.87675709
              34.23086337               -1.48334762               73.35646690                0.00010000                3.79146928                2.39963211              -12.31862785               -6.17881450               37.19359065              -62.96925228
              35.27389068               -4.01934181               72.61568134                0.00010000                4.91767786                2.96026568              -15.41471229               -4.94287874               30.45551488              -78.12895576
              36.32921692               -6.54885125               71.79847985                0.00010000                6.23068183                3.48622696              -18.72490394               -3.35257399               21.99742266              -95.74518782
              37.39850431               -9.06897031               70.88784921                0.00010000                7.58305420                3.95609157              -22.06953306               -1.73374750               11.67788182             -115.70921839
              38.48087801              -11.57754472               69.86768914                0.50750740                8.23736948                4.63823154              -25.15929041               -0.74604877                5.83595768             -137.15227895
              30.59837870               14.57993674               77.22753006                0.53083833               -0.43834812               -1.19449995                3.19136526               -0.10340197                0.13550349               11.74408259
              31.59399522               12.15215233               76.04910896                0.00010000                0.06976642                0.29675631               -0.24747521               -3.52910208               32.55161154               -9.69818935
              32.59977403                9.65142962               75.51909419                0.00010000                0.92968466                1.25430348               -2.88023428               -6.91604931               64.17526883              -17.45972589
              33.61258892                7.13614269               74.96956270                0.00010000                1.71098701                1.81733158               -5.50870803               -7.26275646               61.75228125              -25.62722756
              34.63399377                4.61041811               74.38646207                0.00010000                2.60072246                2.25122807               -8.21810208               -7.23282240               57.91469836              -34.60703471
              35.66460336                2.07876707               73.75502767                0.00010000                3.53944667                2.73023834              -11.07092136               -6.79059717               52.54625497              -44.79890247
              36.70478271               -0.45429125               73.05949131                0.00010000                4.53467887                3.30000574              -14.10574196               -5.94831354               45.50272800              -56.60816077
              37.75529694               -2.98460069               72.28291376                0.00010000                5.62519890                3.92309475              -17.32541125               -4.77605291               36.63903799              -70.44217911
              38.81728668               -5.50862369               71.40750786                0.00010000                6.81541264                4.53990770              -20.67407605               -3.39273412               25.89328321              -86.62747061
              39.89160519               -8.02345375               70.41611551                0.00010000                8.02959246                5.13672402              -24.02966715               -1.84232399               13.46351780             -105.24948862
              40.97787853              -10.52559903               69.29550815                0.50859300                8.62733375                5.77219590              -27.25933372               -0.83248875                6.71098247             -126.10000648
              33.01771353               15.56900893               77.00250818                0.52901968               -0.21744577               -0.99389353                2.61796275               -0.10162419                0.15229901               11.79703214
              34.01553908               13.15627193               75.71697986                0.00010000                0.73836164                0.53265366               -1.13780148               -3.75578140               39.77470319               -9.64092502
              35.03248077               10.66602438               75.22397262                0.00010000                2.01524289                1.58942210               -3.90088409               -7.29343974               78.45231848              -15.72988440
              36.05584393                8.15697681               74.70780090                0.00010000                2.73677485                2.19259242               -6.64364689               -7.58349850               75.50372080              -22.27076797
              37.08721626                5.63602651               74.15032662                0.00010000                3.55573831                2.68771023               -9.46752259               -7.29148108               70.74873690              -29.65456459
              38.12695870                3.10956861               73.53296666                0.00010000                4.40242985                3.26809648              -12.44153116               -6.57066021               64.07453961              -38.23354358
              39.17526486                0.58265249               72.83615408                0.00010000                5.28716821                3.96587155              -15.59922718               -5.58507522               55.32221459              -48.36327316
              40.23270207               -1.94087991               72.03903004                0.00010000                6.24752162                4.73228531              -18.93241081               -4.43040210               44.34779127              -60.45438412
              41.30021529               -4.45805310               71.12009054                0.00010000                7.29655503                5.51007804              -22.38534173               -3.15744430               31.16151619              -74.95926061
              42.37863317               -6.96623583               70.05946766                0.00010000                8.41517476                6.25209272              -25.86501215               -1.72563347               16.11344084              -92.28270171
              43.46851879               -9.46210080               68.84279498                0.50999134                8.98856232                6.89386502              -29.28380147               -0.79102220                8.05316596             -112.67218726
              35.42182022               16.56005887               76.77748299                0.52734551                0.00439302               -0.79748119                2.04605244               -0.10346335                0.16179673               11.70922136
              36.42186415               14.16280540               75.38479455                0.00010000                1.56900728                0.77817967               -2.03849385               -3.99651449               47.95407250               -9.70013536
              37.45320036               11.68321807               74.94801007                0.00010000                3.45263338                1.72230219               -4.85007102               -7.58103845               94.61503179              -13.63497452
              38.49091681                9.17999453               74.48369957                0.00010000                4.11859961                2.18425952               -7.63006100               -7.68601961               91.08114602              -18.13023234
              39.53557235                6.66417231               73.96981358                0.00010000                4.78236835                2.72407454              -10.49677600               -6.97199330               85.39045312              -23.60770093
              40.58656418                4.14412900               73.38458164                0.00010000                5.39786822                3.48766336              -13.52857475               -5.95693231               77.46105406              -30.25614919
              41.64352972                1.62502619               72.70531395                0.00010000                6.04151533                4.38188017              -16.76087837               -4.86298484               67.07968298              -38.31604448
              42.70739449               -0.88995499               71.90701344                0.00010000                6.79819985                5.34125647              -20.18640352               -3.75038788               53.98077903              -48.19684307
              43.77949371               -3.39842213               70.96266435                0.00010000                7.68728727                6.30877524              -23.75490796               -2.61159034               38.07577385              -60.53374279
              44.86114023               -5.89841189               69.84622858                0.00010000                8.71471606                7.21415438              -27.38375624               -1.39517840               19.74212861              -76.20292362
              45.95378804               -8.38772172               68.53825186                0.51118447                9.26478034                7.91744389              -30.99591398               -0.65435298                9.91956468              -96.00990326
              37.81015120               17.55305931               76.55083480                0.52533044                0.22983911               -0.59750067                1.46100377               -0.10868322                0.22999641               11.62615544
              38.81244959               15.17183553               75.05157156                0.00010000                2.67598345                1.02849671               -2.94762858               -4.38882781               57.38647056              -10.02384651
              39.86367087               12.70047042               74.69547943                0.00010000                5.43598523                1.38922558               -5.71072408               -7.84600277              113.15205389              -10.83134803
              40.92116930               10.20066200               74.30591462                0.00010000                5.99855309                1.55888693               -8.43208809               -7.11582277              108.84029664              -13.02961997
              41.98364193                7.69050800               73.85613247                0.00010000                6.28984432                2.39321982              -11.26042482               -5.86778400              102.11700407              -16.51222750
              43.04696618                5.17932187               73.32384468                0.00010000                6.42236113                3.43755158              -14.27805129               -4.67368072               93.04904423              -21.01458293
              44.11208915                2.67029010               72.68484244                0.00010000                6.70882215                4.56750239              -17.52330963               -3.64872974               81.24859281              -26.63981116
              45.18114263                0.16594522               71.91015573                0.00010000                7.21756188                5.72241335              -20.99299778               -2.70480851               66.15423938              -33.73763270
              46.25644039               -2.33187759               70.96539888                0.00010000                7.94432830                6.86351318              -24.64307143               -1.79541052               47.28033814              -43.00868817
              47.34002919               -4.82195274               69.81268729                0.00010000                8.88055012                7.93298776              -28.39831161               -0.90300803               24.78362721              -55.89593337
              48.43405139               -7.30375192               68.42082554                0.51259676                9.40222028                8.77923449              -32.18517496               -0.44850354               12.58175842              -74.68054589
              40.18209411               18.54810886               76.32419724                0.52317210                0.45823609               -0.38076785                0.87733103               -0.11859746               -0.22432514               10.11687572
              41.18667647               16.18337534               74.71304639                0.00010000                4.26798601                1.27099951               -3.89310787               -5.25812411               68.51375284               -9.18941206
              42.26745383               13.71100258               74.47667065                0.00010000                8.59431528               -0.46845826               -6.44245385               -6.44253268              134.83936610               -6.22977426
              43.35856278               11.21117227               74.18557175                0.00010000                8.60514832                0.60515099               -9.00308288               -4.88950408              128.80297529               -6.89326788
              44.43955680                8.71203671               73.81967955                0.00010000                7.73728471                1.90525058              -11.70696036               -3.45211471              120.97775180               -8.52349976
              45.51330847                6.21288003               73.36273507                0.00010000                7.21874892                3.25917594              -14.62835483               -2.60560929              111.09625417              -10.78257922
              46.58393178                3.71637623               72.79025352                0.00010000                7.10787645                4.59017389              -17.80739634               -1.95221760               98.31986050              -13.67784734
              47.65546600                1.22449328               72.07030069                0.00010000                7.37758430                5.88659536              -21.24519636               -1.38762329               81.75464382              -17.41465604
              48.73148346               -1.26115187               71.16168067                0.00010000                7.97442016                7.13763191              -24.90291575               -0.85571200               60.18658574              -22.47809553
              49.81495441               -3.73975214               70.00913594                0.00010000                8.84664342                8.31455053              -28.71681648               -0.38156808               32.39158071              -30.05069359
              50.90841633               -6.21213704               68.54717337                0.51360291                9.34619263                9.36338861              -32.64210673               -0.26021262               16.67260457              -44.66621107
              42.53724629               19.54544395               76.06727530                0.76112757                0.71471000               -0.26649071                0.18216757                0.69637420                4.58747163                8.61185364
              43.54439339               17.19725552               74.39672033                0.48233170                8.48884969                1.38801779               -4.77644754               -6.94544313               84.17207138               -8.09105987
              44.70702328               14.69110126               74.31782455                0.44887746               13.89758472               -1.99013200               -6.96897323               -5.26757995              158.87946756               -3.37311144
              45.82234508               12.21276502               74.13291772                0.44147736               10.29342973                0.15927469               -9.29572631               -1.74618186              150.06489238               -3.64056880
              46.91289188                9.72861301               73.86842617                0.43875582                8.40846950                1.65763042              -11.78672828               -1.07947361              141.87575806               -4.40703344
              47.99051447                7.24450539               73.50962576                0.44057469                7.42698395                3.16253595              -14.51816391               -0.60537213              131.74324994               -5.54469914
              49.06143156                4.76209357               73.03244107                0.44685233                7.02018942                4.57173393              -17.53400339               -0.29143551              118.68661511               -7.02859484
              50.13091826                2.28367713               72.40383111                0.45804123                7.10700060                5.91838470              -20.83904023               -0.01570039              101.62523529               -8.96861634
              51.20357157               -0.18912495               71.57949581                0.47445653                7.62323677                7.20269160              -24.39609911                0.24186762               79.05451557              -11.66080666
              52.28338300               -2.65566173               70.49749242                0.49659222                8.50226846                8.40904073              -28.13892593                0.47489909               47.06137602              -15.74674215
              53.37361694               -5.11648415               69.03564397                0.75722872                9.02339405                9.56528831              -32.08103230                0.43781831               27.80984205              -26.86362331
              18.93307824               10.01207310               79.47432183                0.78408541               -1.65381167               -1.84230571                6.26984989               -0.48030562               -5.98096677                6.47407454
              19.91654012                7.40697317               78.75370900                0.51967081               -1.68859878               -1.06982329                4.22747126               -0.61338003               -8.31019660               -5.04549789
              20.89930626                4.79168774               77.98654567                0.47253407               -1.52855068               -0.58379099                2.12399829               -0.48664704               -8.55979086               -0.25116591
              21.88596911                2.15701297               77.26153607                0.45179263               -0.97517610                0.01017854                0.10054873               -0.42411816               -6.02712241               -0.41730755
              22.87980274               -0.49565715               76.54519061                0.44116075               -0.16665031                0.60132264               -1.98255006               -0.37021209               -5.24313252               -0.25022901
              23.88263610               -3.16103364               75.83585342                0.44034915                0.77620918                1.20921385               -4.11259167               -0.33226420               -4.80419887               -0.09598831
              24.89532693               -5.83137202               75.12827621                0.44980113                1.74392022                1.81243183               -6.27278959               -0.31870447               -4.94619552                0.05828234
              25.91751451               -8.49927997               74.41625852                0.46917562                2.62687507                2.40968973               -8.43041185               -0.32218717               -5.70713921                0.22175436
              26.94786443              -11.15949691               73.69376912                0.49935792                3.35733308                2.99029697              -10.56334207               -0.32465585               -7.30497312                0.28163263
              27.98466117              -13.81019930               72.95008745                0.54084315                3.94075449                3.56293773              -12.68590663               -0.32550269               -7.78547950                1.12519266
              29.02667952              -16.45296405               72.21820574                0.78735326                4.20183476                4.18863325              -14.77915761               -0.61440477               -7.20602570               -4.89670562
              21.53337511               10.99365004               79.18599312                0.54858846               -1.27761086               -1.92249564                5.47096633               -0.30563723                4.69028460                9.86285525
              22.52059900                8.39627494               78.46114489                0.00633068               -0.69776079               -0.75284208                3.44910888               -0.69444917               10.53683036               -9.37230186
              23.51941989                5.78584983               77.85320519                0.00010000                0.24006854               -1.14998327                1.82212759               -1.90371039               16.04888358              -11.49980439
              24.52540037                3.15711476               77.23809879                0.00010000                0.78520179               -0.94993145                0.05302512               -2.92340695               16.28930008              -16.60185298
              25.53512393                0.51035608               76.63495554                0.00010000                1.08852642               -0.52130331               -1.74787321               -3.62250564               17.21699211              -22.58481773
              26.54717090               -2.14894151               76.03859095                0.00010000                1.30695582                0.04022687               -3.61683495               -3.84374028               17.63073532              -29.41887104
              27.56126305               -4.81324770               75.44397803                0.00010000                1.55920909                0.62194715               -5.49893755               -3.55903077               17.50678107              -37.15993583
              28.57835508               -7.47518307               74.84516040                0.00010000                1.94072427                1.14728997               -7.39475370               -2.82276244               16.74199441              -45.89932865
              29.60007753              -10.12959394               74.23509553                0.00010000                2.48923149                1.57696937               -9.25129912               -1.72809671               15.53575892              -55.78696701
              30.62813971              -12.77456992               73.61194423                0.02507847                3.16113466                2.02723557              -11.08888755               -0.24113776               12.07425208              -66.98565083
              31.66330022              -15.41107772               72.93226942                0.53763018                3.51605126                2.17849152              -12.97918829                1.52816214                9.27678547              -83.10384005
              24.12171570               11.97362318               78.96545266                0.52825380               -1.12643497               -1.88110297                4.95814039               -0.11626184               -0.08658632               12.28531775
              25.11045135                9.39191633               78.08204154                0.00010000               -1.06617304               -0.32712584                2.43319363               -1.99602615               14.72568957              -12.12741989
              26.10039224                6.76868807               77.49492189                0.00010000               -0.37283136               -0.99745836                0.51641196               -4.77286481               28.75731201              -22.18317979
              27.10299472                4.13801434               76.89097258                0.00010000                0.65083275               -1.16523871               -1.47956626               -6.00164608               27.52549955              -32.54323898
              28.11340889                1.49391679               76.27803763                0.00010000                1.31851809               -0.92605742               -3.54579603               -7.06472280               26.62348017              -44.47273376
              29.12936508               -1.16022911               75.65485521                0.00010000                1.84894941               -0.46217433               -5.68466926               -7.39593703               25.36091423              -58.00042949
              30.15038788               -3.81893308               75.01529241                0.00010000                2.40202079                0.06826797               -7.92177491               -6.87894885               23.42063274              -73.30526155
              31.17740550               -6.47633417               74.35158973                0.00010000                3.11507286                0.53680706              -10.29797379               -5.56848137               20.67486580              -90.62335072
              32.21268934               -9.12795753               73.65490848                0.00010000                4.19583454                0.90675428              -12.94594617               -3.51675958               16.81387756             -110.24178510
              33.26132219              -11.76965458               72.91139960                0.00010000                5.87845108                1.20870109              -16.46562563               -1.25810667               10.11479269             -133.10310834
              34.33025836              -14.40939422               72.08197965                0.49971185                6.89361696                1.57504021              -19.73051412                0.75643708                5.32009758             -157.73807068
              26.69446358               12.95602798               78.72587666                0.52653172               -0.88499954               -1.64046796                4.34747058               -0.10111132                0.13080098               11.57994624
              27.68561359               10.38973242               77.73407562                0.00010000               -0.82994986               -0.12556567                1.55374957               -2.74626440               20.36187515              -10.41754570
              28.67786458                7.76590066               77.14695093                0.00010000               -0.27374240                0.11481940               -0.69128480               -5.60988384               40.03561602              -20.99155106
              29.68013874                5.13380998               76.54692416                0.00010000                0.71041693                0.16286546               -2.93805295               -6.30051030               38.53826415              -31.55477047
              30.69207292                2.49183493               75.92775383                0.00010000                1.59816446                0.39972451               -5.24760519               -6.90485329               36.44188218              -43.01552583
              31.71210203               -0.15818499               75.28344842                0.00010000                2.38581064                0.80056255               -7.65343921               -7.01551507               33.63265893              -55.86977787
              32.73978914               -2.81188234               74.60556200                0.00010000                3.19539371                1.28953390              -10.19444884               -6.46525816               29.89433063              -70.43284311
              33.77600990               -5.46444693               73.88379552                0.00010000                4.16368082                1.78775363              -12.93027983               -5.26486695               25.01960011              -87.01985648
              34.82306275               -8.11145886               73.10579902                0.00010000                5.42021861                2.26246258              -15.96235608               -3.57067459               18.61927275             -105.98706945
              35.88441427              -10.75039590               72.25465467                0.00010000                6.74227429                2.67373633              -19.18532795               -1.72838054               10.18322630             -127.47388138
              36.95790824              -13.37957691               71.31086589                0.50044577                7.34939642                3.63167644              -22.11062090               -0.73829845                5.15330765             -149.93504214
              29.25228459               13.94081382               78.49142529                0.52486975               -0.66312129               -1.41155961                3.76434317               -0.09712761                0.11960783               11.95102382
              30.24565338               11.38940502               77.38905279                0.00010000               -0.40837954                0.07287951                0.66609741               -3.22615326               26.37472205              -10.13144158
              31.24411700                8.77098446               76.81184353                0.00010000                0.26984353                0.77644714               -1.82586421               -6.38766509               51.93895241              -19.67031423
              32.25105025                6.14127165               76.21858025                0.00010000                1.15949014                1.14514408               -4.30258033               -6.80780953               49.94810266              -29.55778912
              33.26730680                3.50191128               75.59875982                0.00010000                2.08609058                1.46810694               -6.82979420               -7.04362920               46.89058233              -40.22112787
              34.29277206                0.85578214               74.94119432                0.00010000                3.00189289                1.87688467               -9.45925439               -6.88316935               42.66832921              -52.13341155
              35.32734466               -1.79314240               74.23369184                0.00010000                3.94563072                2.37236256              -12.23189189               -6.23205624               37.14823455              -65.69465468
              36.37168467               -4.44057910               73.46274597                0.00010000                4.99400753                2.91330239              -15.18043428               -5.12337900               30.16750492              -81.26551731
              37.42722481               -7.08270827               72.61350770                0.00010000                6.15939811                3.45543028              -18.29201967               -3.68424462               21.56738443              -99.12208159
              38.49487263               -9.71617986               71.67040974                0.00010000                7.33148074                4.04415756              -21.44956505               -2.03791434               11.34662585             -119.18818176
              39.57385442              -12.33676069               70.61982249                0.50163822                7.89817892                4.82579781              -24.44858250               -0.88877327                5.66905747             -140.92654256
              31.79533865               14.92779679               78.25943958                0.52341382               -0.44187645               -1.19893343                3.18941132               -0.09724538                0.13357241               12.13124486
              32.79091988               12.39119001               77.04678219                0.00010000                0.14530000                0.29201728               -0.21856847               -3.53389727               32.92907730               -9.93474764
              33.79824465                9.78142961               76.49010081                0.00010000                1.10679256                1.24264530               -2.90740024               -6.92690455               64.89094592              -18.18809713
              34.81305573                7.15671286               75.91412440                0.00010000                1.92226000                1.79868583               -5.56290268               -7.27669434               62.38551925              -26.80495197
              35.83668985                4.52119707               75.30398752                0.00010000                2.82182934                2.22474775               -8.26167412               -7.24787224               58.38863718              -36.21429273
              36.86949232                1.87935270               74.64432071                0.00010000                3.74097047                2.69461100              -11.06190314               -6.82340759               52.81281997              -46.82511916
              37.91150926               -0.76443509               73.91897764                0.00010000                4.68079373                3.25741592              -14.00015459               -6.03272125               45.54853839              -59.03610846
              38.96310819               -3.40618089               73.11095879                0.00010000                5.67346810                3.88777975              -17.08448186               -4.94355841               36.50047697              -73.22823508
              40.02497862               -6.04235025               72.20291074                0.00010000                6.73001050                4.54808771              -20.28089745               -3.62468665               25.67128770              -89.71266013
              41.09770840               -8.66951275               71.17866651                0.00010000                7.81579109                5.22069854              -23.50842309               -2.02867832               13.30046921             -108.62416904
              42.18129444              -11.28306096               70.02611109                0.50278265                8.35860353                5.88996106              -26.67435939               -0.91768940                6.64396527             -129.87379421
              34.32355323               15.91683515               78.02867020                0.52150325               -0.22106221               -0.99765372                2.61343795               -0.09851871                0.15302751               12.19027323
              35.32134261               13.39524536               76.70576662                0.00010000                0.82514100                0.52621115               -1.10508858               -3.76790596               40.24395512               -9.88743977
              36.34005605               10.79583737               76.18475549                0.00010000                2.22031419                1.56379538               -3.93056121               -7.31739258               79.34410927              -16.39354948
              37.36574890                8.17724537               75.64098398                0.00010000                2.98267327                2.15151084               -6.70307243               -7.60982482               76.30432567              -23.30985332
              38.39970952                5.54640623               75.05534803                0.00010000                3.80935877                2.63504111               -9.51391923               -7.31712449               71.36955099              -31.05152563
              39.44193607                2.90967436               74.40859620                0.00010000                4.62571509                3.20704881              -12.42776081               -6.60741215               64.46837849              -39.98260381
              40.49222382                0.27200592               73.68081807                0.00010000                5.43962963                3.90235394              -15.47952224               -5.65270365               55.48740456              -50.45777699
              41.55072866               -2.36282351               72.85118091                0.00010000                6.29195578                4.67929401              -18.67133828               -4.54056678               44.33265324              -62.88243719
              42.61806294               -4.99174652               71.89860217                0.00010000                7.21405555                5.48528822              -21.97173395               -3.29212072               31.05919559              -77.71392880
              43.69500977               -7.61176589               70.80391824                0.00010000                8.22670620                6.25829538              -25.32607401               -1.82703668               16.03030226              -95.38600464
              44.78259706              -10.21896147               69.55338933                0.50397730                8.75872861                6.89412399              -28.68728446               -0.83758489                8.03550710             -116.19231425
              36.83654786               16.90784371               77.79789292                0.51988604                0.00116882               -0.79936301                2.03602382               -0.10088564                0.16201258               12.10152756
              37.83655955               14.40171423               76.36458392                0.00010000                1.66744634                0.77025764               -2.00230660               -4.02073191               48.55815514               -9.96135867
              38.86989679               11.81270551               75.89927109                0.00010000                3.68654121                1.68202328               -4.88496674               -7.62274695               95.76551104              -14.21527790
              39.91029037                9.19974308               75.40696825                0.00010000                4.40107866                2.12094125               -7.69911238               -7.72158913               92.12312955              -18.99136328
              40.95791836                6.57389789               74.86450110                0.00010000                5.07270100                2.64625325              -10.55232325               -6.99783853               86.22221372              -24.74339738
              42.01174439                3.94349368               74.24934406                0.00010000                5.65173461                3.40029186              -13.51759929               -5.98283806               78.03231534              -31.66977585
              43.07095305                1.31361199               73.53844759                0.00010000                6.21524514                4.28887543              -16.63194677               -4.90106472               67.39203765              -40.01278254
              44.13604929               -1.31259501               72.70682859                0.00010000                6.85627665                5.24903534              -19.89958068               -3.80575780               54.08509562              -50.18337514
              45.20807858               -3.93264449               71.72782534                0.00010000                7.61666626                6.22336242              -23.29689127               -2.67513304               38.06238473              -62.82502510
              46.28838262               -6.54434684               70.57595511                0.00010000                8.54276611                7.13099950              -26.78591747               -1.44241160               19.70870237              -78.83291157
              47.37893391               -9.14517848               69.23219759                0.50520711                9.05512868                7.81060017              -30.34139498               -0.67704060                9.93537345              -99.03760408
              39.33379448               17.90084789               77.56537805                0.51792105                0.22716936               -0.59374279                1.45063094               -0.10712108                0.23759990               12.01753989
              40.33606617               15.41065051               76.02225496                0.00010000                2.78888944                1.01693690               -2.91467259               -4.42825038               58.18138279              -10.31412109
              41.38957227               12.82947783               75.63808147                0.00010000                5.70292808                1.33033099               -5.75464458               -7.90919356              114.65987127              -11.29178702
              42.45012473               10.21966419               75.22107663                0.00010000                6.32149425                1.47217929               -8.51794405               -7.15446871              110.20934157              -13.66029566
              43.51600215                7.59933130               74.74308983                0.00010000                6.62202419                2.29371909              -11.33514184               -5.88734226              103.23000842              -17.32646936
              44.58256522                4.97768020               74.18105039                0.00010000                6.71445287                3.32651776              -14.28200559               -4.68616439               93.85687850              -22.02406633
              45.65029121                2.35778343               73.51036832                0.00010000                6.91523815                4.44433131              -17.39749881               -3.66287464               81.75372919              -27.85462274
              46.72086998               -0.25784280               72.70205052                0.00010000                7.30104493                5.58779136              -20.68983080               -2.72280644               66.40740220              -35.17023056
              47.79631211               -2.86727927               71.72198844                0.00010000                7.89127762                6.71880682              -24.14457332               -1.81424954               47.36963593              -44.67950077
              48.87869553               -5.46914590               70.53271755                0.00010000                8.72037102                7.77638173              -27.74090832               -0.91713175               24.80361305              -57.84606755
              49.97071953               -8.06274947               69.10332746                0.50610493                9.20239960                8.59746318              -31.47301311               -0.45621206               12.63373877              -76.98858524
              41.81480020               18.89596886               77.33288452                0.51644608                0.45644000               -0.37171350                0.85981090               -0.11782334               -0.24184384               10.45137314
              42.81936460               16.42205297               75.67423741                0.00010000                4.39495175                1.25612958               -3.85843835               -5.31564769               69.56873851               -9.46943576
              43.90269924               13.83931213               75.41187559                0.00010000                8.89914669               -0.55924334               -6.50158593               -6.50944676              136.83641085               -6.49960436
              44.99734753               11.22918667               75.09488109                0.00010000                8.97281353                0.50313755               -9.11644051               -4.91886559              130.58259488               -7.23083828
              46.08215551                8.61977227               74.70200213                0.00010000                8.11107211                1.79367277              -11.81523732               -3.46111406              122.44763276               -8.95477720
              47.15956898                6.01002403               74.21627878                0.00010000                7.55315264                3.13405046              -14.66540935               -2.60921487              112.21353435              -11.31681874
              48.23321856                3.40249861               73.61283857                0.00010000                7.35434432                4.44681658              -17.70602510               -1.95427779               99.08689791              -14.32226521
              49.30665586                0.79916082               72.85968966                0.00010000                7.49390668                5.72216213              -20.94858426               -1.38793707               82.22148386              -18.17774300
              50.38309669               -1.79826835               71.91585508                0.00010000                7.94271586                6.95189688              -24.38565793               -0.85277575               60.43746745              -23.37347284
              51.46551018               -4.38881920               70.72631757                0.00010000                8.69600561                8.11047066              -28.01877631               -0.37839277               32.50149493              -31.10802429
              52.55701680               -6.97322921               69.22541040                0.50737352                9.15066246                9.14454003              -31.89528472               -0.25991043               16.77946385              -45.98795110
              44.27926978               19.89341362               77.06894275                0.75782387                0.71401594               -0.25552320                0.15508159                0.68290620                4.73025570                8.88563230
              45.28640994               17.43577310               75.34907738                0.47846779                8.64899274                1.37201336               -4.73626911               -7.05149875               85.64730589               -8.34256822
              46.45224964               14.81829297               75.24762064                0.44810304               14.24386695               -2.10191658               -7.05484051               -5.34726791              161.43729297               -3.48242352
              47.57128728               12.22972694               75.03907919                0.44132469               10.68464341                0.05402775               -9.45120090               -1.76043611              152.32189046               -3.78707601
              48.66594251                9.63520475               74.74967647                0.43868019                8.81836513                1.54324786              -11.94841423               -1.08958679              143.78776079               -4.59962472
              49.74765458                7.04036121               74.36397752                0.44053821                7.80631800                3.03371781              -14.61395056               -0.61568917              133.26214203               -5.78771660
              50.82206886                4.44671976               73.85749407                0.44615225                7.31118094                4.42211455              -17.48850780               -0.30300774              119.81121739               -7.32374308
              51.89387820                1.85660044               73.19710756                0.45629905                7.25838766                5.74396226              -20.58474245               -0.02582069              102.40610712               -9.31883047
              52.96723662               -0.72824133               72.33873148                0.47126055                7.61051694                7.00270173              -23.89581696                0.23714614               79.58280783              -12.07271405
              54.04608854               -3.30693648               71.22067009                0.49178446                8.35523621                8.18827194              -27.42502647                0.47696944               47.38619555              -16.23630041
              55.13434134               -5.87985867               69.71976056                0.75413146                8.82528019                9.33705485              -31.31107188                0.44023556               28.09535137              -27.54791766
              19.60339141               10.36984870               80.53703820                0.77851188               -1.65380919               -1.84163347                6.26260136               -0.48237539               -6.11957863                6.60925631
              20.58685332                7.65229145               79.79599880                0.51325780               -1.70329290               -1.06670002                4.21917109               -0.62633286               -8.46872761               -5.17865565
              21.56932555                4.92422678               79.00788745                0.46967814               -1.54384184               -0.58410743                2.13467409               -0.46389399               -8.70165236               -0.20552035
              22.55597648                2.17655505               78.26263073                0.45068185               -0.97557179                0.01115101                0.12018196               -0.41706026               -6.15558114               -0.40475001
              23.54981412               -0.58905566               77.52550938                0.44087979               -0.16666617                0.60043167               -1.95083265               -0.37067390               -5.42098884               -0.23936648
              24.55264316               -3.36724148               76.79489549                0.44003577                0.77164687                1.20696168               -4.07495083               -0.34222312               -5.02459447               -0.10356852
              25.56524705               -6.15041745               76.06573439                0.44895654                1.73018899                1.81140743               -6.22398984               -0.32368867               -5.18427360                0.04997678
              26.58724694               -8.93124549               75.33214746                0.46676695                2.60705155                2.40457882               -8.36968129               -0.32014244               -5.93888103                0.19845436
              27.61738808              -11.70470114               74.58828671                0.49415250                3.33830918                2.99144982              -10.50502227               -0.32436591               -7.52928399                0.25675751
              28.65401312              -14.46892167               73.82338017                0.53216076                3.92293172                3.56604196              -12.62598550               -0.32629879               -8.00277015                1.10154038
              29.69584672              -17.22556581               73.07054667                0.78146119                4.18335980                4.19143583              -14.71597405               -0.59224470               -7.42751241               -5.00147537
              22.31612491               11.35143237               80.24069311                0.53893902               -1.27239585               -1.92938043                5.46202632               -0.31364708                4.86724873               10.14837119
              23.30340095                8.64162445               79.49564923                0.00010000               -0.67850476               -0.74157128                3.44415492               -0.72177062               10.91470055               -9.61775441
              24.30255481                5.91838571               78.87143001                0.00010000                0.25230744               -1.12458374                1.81239872               -1.91953789               16.55183973              -11.95323568
              25.30844710                3.17666656               78.23857198                0.00010000                0.77254145               -0.90646549                0.04298664               -2.91959300               16.70290459              -17.32863902
              26.31800564                0.41694866               77.61742206                0.00010000                1.07273611               -0.46680947               -1.76108738               -3.58534785               17.57494633              -23.58567662
              27.32990182               -2.35517187               77.00231264                0.00010000                1.30032641                0.09887722               -3.62932796               -3.77133194               17.94878057              -30.69857325
              28.34401217               -5.13230337               76.38884326                0.00010000                1.56427705                0.68334284               -5.52983144               -3.45525898               17.80226788              -38.74230631
              29.36118736               -7.90719970               75.77097463                0.00010000                1.94851739                1.20198495               -7.42374277               -2.68607644               17.03422249              -47.83937361
              30.38298252              -10.67478665               75.14220689                0.00010000                2.49975529                1.62120260               -9.30476168               -1.56631980               15.85525231              -58.19284458
              31.41118247              -13.43326125               74.50058931                0.01245962                3.17929465                1.99339341              -11.15929206               -0.14182068               12.37306748              -70.11118013
              32.44656841              -16.18365145               73.80194266                0.52892708                3.53859435                2.10208790              -13.05630606                1.41505882                9.53676149              -86.90391971
              25.01673430               12.33126109               80.01502308                0.52058886               -1.12697379               -1.88992638                4.94876339               -0.10894787               -0.11788490               12.67131353
              26.00546456                9.63746002               79.10641634                0.00010000               -1.04208091               -0.31548961                2.43896382               -2.01195474               14.99220389              -12.41493788
              26.99589268                6.90173511               78.49997899                0.00010000               -0.32214481               -0.95789235                0.50028651               -4.79665882               29.26611618              -23.08782401
              27.99902167                4.15842574               77.87603821                0.00010000                0.70264481               -1.10010521               -1.50096105               -5.98827254               27.95166967              -33.98029752
              29.00994558                1.40160815               77.24244449                0.00010000                1.37234400               -0.84280652               -3.56390596               -6.99832291               26.96415840              -46.44346967
              30.02646855               -1.36526394               76.59794342                0.00010000                1.91120636               -0.37441217               -5.68987981               -7.27248071               25.59761868              -60.50482820
              31.04816971               -4.13675059               75.93617834                0.00010000                2.47700661                0.14815968               -7.89191763               -6.71805783               23.52355718              -76.38661245
              32.07600868               -6.90720579               75.24916964                0.00010000                3.19767664                0.59201609              -10.18981097               -5.39539963               20.57636909              -94.34505482
              33.11212324               -9.67227709               74.52726006                0.00010000                4.20164170                0.90489054              -12.62768860               -3.42972854               16.29719739             -114.71455144
              34.16004151              -12.42905380               73.75365716                0.00010000                5.64025269                1.10989551              -15.37907957               -1.31225513                9.40760955             -138.27946512
              35.22492829              -15.18352405               72.89544166                0.49438008                6.48867799                1.43720570              -18.06156058                0.53927445                4.84270090             -163.48522251
              27.70154809               13.31363384               79.76935592                0.51877428               -0.88602475               -1.64523041                4.33965221               -0.10113752                0.12969597               11.93690250
              28.69268784               10.63531466               78.74971854                0.00010000               -0.79460833               -0.12293112                1.56995859               -2.75901716               20.62351800              -10.64034937
              29.68565592                7.89922786               78.13995479                0.00010000               -0.19396198                0.13235189               -0.70276975               -5.62495975               40.53461245              -21.81411318
              30.68880860                5.15466445               77.51737341                0.00010000                0.80364682                0.19242078               -2.96244520               -6.30118428               38.98165436              -32.91288949
              31.70172886                2.40009253               76.87513166                0.00010000                1.70011733                0.43687744               -5.26640798               -6.87877303               36.77869885              -44.88124209
              32.72281095               -0.36266011               76.20691311                0.00010000                2.49320033                0.83436274               -7.64487187               -6.97026998               33.82609404              -58.24224867
              33.75159286               -3.12934018               75.50395015                0.00010000                3.29974611                1.30471166              -10.12498469               -6.42962862               29.89945719              -73.31730181
              34.78880587               -5.89535938               74.75551152                0.00010000                4.23215485                1.76951824              -12.73769539               -5.29662094               24.77762514              -90.41404658
              35.83623596               -8.65668883               73.94868244                0.00010000                5.36892282                2.19362451              -15.51854855               -3.74631826               18.14311341             -109.81534402
              36.89618433              -11.41106334               73.06725880                0.00010000                6.50292177                2.61540129              -18.41318975               -1.95689921                9.74870534             -131.42549329
              37.96629440              -14.15490734               72.09517806                0.49502209                7.01100708                3.61016452              -21.17248922               -0.85913177                4.93079272             -154.06324532
              30.37134992               14.29835648               79.52905795                0.51732811               -0.66597159               -1.41585521                3.75860520               -0.09466652                0.11785197               12.33252920
              31.36469020               11.63500140               78.39583704                0.00010000               -0.36531119                0.07144440                0.68945755               -3.23733201               26.66070695              -10.36081107
              32.36404369                8.90438214               77.79350358                0.00010000                0.37215570                0.77639334               -1.83557987               -6.40662142               52.48358032              -20.43520606
              33.37213331                6.16227415               77.17537521                0.00010000                1.28254946                1.14877318               -4.32780531               -6.82162286               50.43836105              -30.81994482
              34.38969468                3.41034570               76.53031923                0.00010000                2.21812703                1.47257576               -6.84776416               -7.05047434               47.26490855              -41.95198094
              35.41649586                0.65142332               75.84665739                0.00010000                3.12908615                1.87614571               -9.44184809               -6.89716771               42.88150554              -54.31849496
              36.45227640               -2.11065636               75.11182906                0.00010000                4.04645310                2.36002700              -12.14315649               -6.28581063               37.17014297              -68.31900832
              37.49742492               -4.87181542               74.31207265                0.00010000                5.03122177                2.88795226              -14.97226287               -5.25903681               29.99771359              -84.28920026
              38.55290084               -7.62840460               73.43263946                0.00010000                6.08485589                3.43587320              -17.92011125               -3.90807971               21.27932192             -102.45046461
              39.61912203              -10.37674578               72.45885791                0.00010000                7.12664056                4.08088584              -20.91644609               -2.23431271               11.11383798             -122.74271359
              40.69543365              -13.11132076               71.37871749                0.49594420                7.63116163                4.91327954              -23.83504782               -0.97878413                5.56428798             -144.83527322
              33.02636492               15.28531673               79.29131828                0.51614343               -0.44493831               -1.19977137                3.18073587               -0.09575329                0.12942154               12.51956540
              34.02191554               12.63674354               78.04473759                0.00010000                0.19429085                0.28600063               -0.18921027               -3.54591615               33.26643416              -10.16346428
              35.03025074                9.91475573               77.46094618                0.00010000                1.22485229                1.23004799               -2.91639806               -6.95008628               65.53667133              -18.89972851
              36.04641259                7.17763992               76.85830464                0.00010000                2.06597332                1.78308739               -5.59020241               -7.30035459               62.97541486              -27.95476337
              37.07157021                4.42954404               76.22122859                0.00010000                2.97285321                2.20683604               -8.28098262               -7.27383625               58.85326097              -37.77541402
              38.10586965                1.67486281               75.53378961                0.00010000                3.87725932                2.67349349              -11.04203451               -6.86616494               53.10793091              -48.78073169
              39.14911539               -1.08213964               74.77948822                0.00010000                4.77518635                3.23416762              -13.90726109               -6.11556487               45.66065802              -61.36814917
              40.20137338               -3.83760033               73.94122412                0.00010000                5.69446639                3.87084858              -16.88750857               -5.08428133               36.45573481              -75.90563506
              41.26300472               -6.58797137               73.00188991                0.00010000                6.65204279                4.55791640              -19.96426723               -3.80421303               25.54392131              -92.69843624
              42.33441423               -9.32944563               71.94594705                0.00010000                7.64319808                5.27506290              -23.08792442               -2.16701798               13.19685092             -111.92168338
              43.41586868              -12.05664175               70.76202096                0.49718791                8.14544494                5.96435849              -26.20029952               -0.97695755                6.61267575             -133.58588444
              35.66658123               16.27436106               79.05477694                0.51448987               -0.22483448               -0.99675846                2.60757464               -0.09828700                0.15188488               12.57979871
              36.66433289               13.64072141               77.69487809                0.00010000                0.87821820                0.51731779               -1.07276538               -3.78222099               40.66721515              -10.12355960
              37.68414559               10.92898310               77.14536140                0.00010000                2.35025102                1.54154016               -3.94041932               -7.34549991               80.15635783              -17.04138144
              38.71133791                8.19793590               76.57373945                0.00010000                3.14247366                2.12173501               -6.73551761               -7.63819345               77.05708030              -24.32169272
              39.74699507                5.45448242               75.96004824                0.00010000                3.97591659                2.60092611               -9.53903646               -7.34860516               71.98326075              -32.40428081
              40.79085624                2.70489319               75.28441144                0.00010000                4.77165890                3.17082434              -12.41168139               -6.65305409               64.89889928              -41.66488201
              41.84242825               -0.04597300               74.52656364                0.00010000                5.53573919                3.86799585              -15.38904977               -5.72605488               55.72936450              -52.46062277
              42.90157102               -2.79439845               73.66560328                0.00010000                6.31168134                4.65541118              -18.48105205               -4.64639981               44.41987245              -65.19671070
              43.96866187               -5.53724627               72.68065586                0.00010000                7.14405156                5.48312369              -21.67389189               -3.41179483               31.05709343              -80.33986303
              45.04445205               -8.27124452               71.55294618                0.00010000                8.08124360                6.27880957              -24.93913434               -1.91297615               16.01015445              -98.35502785
              46.13028674              -10.99203359               70.26904929                0.49791597                8.58346915                6.91149083              -28.25555557               -0.87181456                8.05177023             -119.58587791
              38.29167847               17.26538156               78.81820347                0.51266759               -0.00293960               -0.79712762                2.02698445               -0.10075823                0.16452502               12.49303485
              39.29164907               14.64708990               77.34474842                0.00010000                1.72238927                0.75891016               -1.96360722               -4.03770451               49.11081264              -10.21696228
              40.32612625               11.94558653               76.85031074                0.00010000                3.82501629                1.65235437               -4.89905658               -7.65571309               96.82459207              -14.78097659
              41.36814940                9.22007462               76.32971732                0.00010000                4.57572814                2.08036680               -7.74150167               -7.75070534               93.11136701              -19.82845832
              42.41764082                6.48156256               75.75876712                0.00010000                5.25572977                2.59975807              -10.58981878               -7.02610246               87.04812390              -25.84007699
              43.47326399                3.73827929               75.11422966                0.00010000                5.81225589                3.35063195              -13.51271423               -6.01866306               78.64989426              -33.02446899
              44.53388594                0.99522028               74.37267502                0.00010000                6.32273277                4.23898338              -16.54899202               -4.95180216               67.79893986              -41.62731648
              45.59971865               -1.74449211               73.50902182                0.00010000                6.88644782                5.20389931              -19.71237853               -3.87148208               54.31571012              -52.06401288
              46.67161489               -4.47830890               72.49672653                0.00010000                7.56116900                6.18744630              -22.99863911               -2.74365565               38.17416621              -64.99094047
              47.75094203               -7.20386943               71.31051023                0.00010000                8.41978222                7.10039844              -26.39768705               -1.48963278               19.75496139              -81.32903197
              48.84001054               -9.91841193               69.93142396                0.49908062                8.90685065                7.76485763              -29.91208262               -0.69326921                9.99077644             -101.94193661
              40.90114940               18.25841850               78.57984742                0.51128571                0.22244355               -0.59049723                1.44334422               -0.10823901                0.23763825               12.40018672
              41.90337383               15.65589962               76.99327811                0.00010000                2.84486101                1.00371514               -2.87441050               -4.44886043               58.91612308              -10.59310273
              42.95804662               12.96203019               76.58038654                0.00010000                5.84869661                1.29423953               -5.77636822               -7.94721362              116.06394886              -11.74090773
              44.02034776               10.23954324               76.13555573                0.00010000                6.51108635                1.42391688               -8.57728333               -7.18069378              111.51449777              -14.27250016
              45.08826834                7.50647758               75.62942963                0.00010000                6.82387499                2.23959811              -11.39431247               -5.90832279              104.33511456              -18.11033057
              46.15682526                4.77190583               75.03820457                0.00010000                6.89476306                3.26686171              -14.29905699               -4.70960960               94.71880643              -22.98750612
              47.22616360                2.03880666               74.33689246                0.00010000                7.04226457                4.37924503              -17.33228855               -3.69266903               82.37230183              -29.00491935
              48.29767055               -0.69032047               73.49635911                0.00010000                7.35012402                5.51867483              -20.51239252               -2.75717470               66.81536431              -36.51917633
              49.37316608               -3.41349735               72.48250741                0.00010000                7.85459386                6.64722644              -23.84662471               -1.84630339               47.61525606              -46.25134551
              50.45476243               -6.12923655               71.25786912                0.00010000                8.61701346                7.70021335              -27.34697829               -0.93760696               24.92416287              -59.69360448
              51.54550635               -8.83673644               69.79136528                0.50021640                9.07439217                8.50413834              -31.04120383               -0.45951882               12.73378961              -79.21223963
              43.49455146               19.25357162               78.34139346                0.50994284                0.45087138               -0.36891876                0.84527624               -0.11910361               -0.25716878               10.76679486
              44.49906018               16.66716420               76.63587762                0.00010000                4.44934489                1.24122981               -3.80638301               -5.34062564               70.55034673               -9.72675162
              45.58353836               13.97147132               76.34663893                0.00010000                9.05139767               -0.60337564               -6.53779729               -6.54452668              138.70357959               -6.76358708
              46.68008813               11.24855295               76.00324294                0.00010000                9.17867054                0.45420388               -9.20220637               -4.93687480              132.28199136               -7.55799732
              47.76711177                8.52635453               75.58337480                0.00010000                8.33272956                1.73971278              -11.90883683               -3.47280066              123.90108601               -9.36827604
              48.84674272                5.80361653               75.06942689                0.00010000                7.75735373                3.07238715              -14.72023159               -2.62174496              113.38710600              -11.82413217
              49.92225885                3.08280518               74.43613302                0.00010000                7.50682218                4.37505208              -17.67650796               -1.96864369               99.98278602              -14.92901368
              50.99687917                0.36588139               73.65132901                0.00010000                7.56730309                5.63926005              -20.79923036               -1.40185523               82.87156547              -18.89218408
              52.07360491               -2.34536437               72.67396751                0.00010000                7.92749091                6.85826608              -24.10462265               -0.86237266               60.87932080              -24.21218784
              53.15542898               -5.04986517               71.44876041                0.00010000                8.61075141                8.00718810              -27.63330621               -0.38247032               32.73669400              -32.10905700
              54.24581994               -7.74832916               69.90926768                0.50120610                9.03909533                9.02968068              -31.47595881               -0.25456628               16.94638107              -47.27530532
              46.07158216               20.25104013               78.07037693                0.75456296                0.70794606               -0.25314918                0.14196423                0.67147785                4.86761195                9.13919729
              47.07866162               17.68072421               76.30199494                0.47491048                8.70925864                1.35600097               -4.68095161               -7.09372841               87.01685874               -8.56652205
              48.24576733               14.94996268               76.17672773                0.44710783               14.40327207               -2.15086418               -7.11359219               -5.38194797              163.82689070               -3.58733196
              49.36672706               12.24862731               75.94389371                0.44107450               10.89907131                0.00743603               -9.57543672               -1.77064906              154.47210664               -3.92521518
              50.46374876                9.54127184               75.62945789                0.43867626                9.06063260                1.49173115              -12.09348803               -1.09998882              145.66408393               -4.78027918
              51.54793971                6.83335357               75.21734674                0.44036635                8.03885561                2.97370423              -14.72898803               -0.62850767              134.82948473               -6.01476151
              52.62452587                4.12630770               74.68267091                0.44557146                7.49316421                4.35025259              -17.52216319               -0.31773950              121.07215630               -7.59871162
              53.69780300                1.42246473               73.99213626                0.45469194                7.35696583                5.65833471              -20.49453195               -0.03960342              103.39565489               -9.64547307
              54.77166519               -1.27633203               73.10157947                0.46828418                7.61374128                6.90323424              -23.66322861                0.22815149               80.34285006              -12.46072454
              55.85007782               -3.96909279               71.94899189                0.48698246                8.28389181                8.07723778              -27.07450522                0.47434377               47.87486803              -16.70824434
              56.93734302               -6.65614283               70.40942253                0.75095157                8.72651998                9.21863377              -30.92400546                0.44730478               28.46889408              -28.23774314
              20.29276547               10.73694840               81.59957385                0.77331362               -1.64491519               -1.83158134                6.22943525               -0.48068319               -6.25520304                6.73508268
              21.27631632                7.90409919               80.83809242                0.50659689               -1.70620951               -1.05968868                4.19275533               -0.63883021               -8.61163177               -5.29995608
              22.25864128                5.06049221               80.02923915                0.46698526               -1.55403821               -0.57986357                2.13152809               -0.46392071               -8.81718687               -0.15970928
              23.24523556                2.19703547               79.26393971                0.44941573               -0.97615367                0.00990269                0.14055543               -0.41501587               -6.26440579               -0.38930745
              24.23911821               -0.68426983               78.50617395                0.44048577               -0.16581763                0.59772710               -1.91456124               -0.37234057               -5.58463827               -0.23464385
              25.24191920               -3.57793932               77.75435441                0.44047799                0.76356396                1.19784157               -4.01468181               -0.33540964               -5.22416334               -0.10075393
              26.25438949               -6.47659023               77.00379642                0.44762061                1.71326845                1.80524500               -6.14694606               -0.32560312               -5.39503968                0.03117512
              27.27618457               -9.37296524               76.24886490                0.46396266                2.58282734                2.39725041               -8.28595880               -0.33146142               -6.15326688                0.17651525
              28.30604603              -12.26220213               75.48366868                0.48908563                3.30806149                2.97779433              -10.40292556               -0.32889072               -7.74330764                0.22515772
              29.34234580              -15.14258677               74.69756774                0.52383914                3.88751142                3.55162648              -12.50728324               -0.32722144               -8.20663078                1.07384946
              30.38379626              -18.01578553               73.92388626                0.77586040                4.14504607                4.17344361              -14.58257522               -0.56662610               -7.63277933               -5.09897414
              23.12080785               11.71863258               81.29523364                0.53010218               -1.26517351               -1.92808751                5.43292830               -0.32272803                5.03678073               10.42578666
              24.10815611                8.89350230               80.53002799                0.00010000               -0.66369556               -0.72754633                3.42127223               -0.74579090               11.27938336               -9.84709912
              25.10753394                6.05469357               79.88945316                0.00010000                0.26551527               -1.10426946                1.79632581               -1.94581993               17.04045612              -12.39308718
              26.11346642                3.19713450               79.23895852                0.00010000                0.76741310               -0.87142503                0.03565369               -2.93295347               17.11227251              -18.04293819
              27.12288220                0.32170744               78.59973379                0.00010000                1.06294448               -0.41961907               -1.77249876               -3.57133792               17.93637434              -24.56564441
              28.13472531               -2.56596090               77.96600439                0.00010000                1.28821085                0.15065887               -3.63079929               -3.72904098               18.24313907              -31.93849629
              29.14864641               -5.45853778               77.33338140                0.00010000                1.54753000                0.74090062               -5.53990045               -3.38942541               18.07822918              -40.25699740
              30.16567591               -8.34899273               76.69668555                0.00010000                1.94607412                1.25965401               -7.44454187               -2.61099045               17.31928486              -49.66970278
              31.18756790              -11.23242418               76.04900030                0.00010000                2.50946923                1.67390104               -9.32842156               -1.49890220               16.14157395              -60.38817003
              32.21586529              -14.10707051               75.38875839                0.00010000                3.18804315                2.03366998              -11.18725147               -0.13399681               12.64717430              -72.75202742
              33.25132876              -16.97405110               74.67114330                0.52043550                3.54634687                2.17257330              -13.07839170                1.28929718                9.78079946              -90.00627460
              25.93657147               12.69838665               81.06442793                0.51279934               -1.12319598               -1.89507122                4.92166719               -0.10761752               -0.15080905               13.05271650
              26.92533951                9.88954826               80.13082082                0.00010000               -1.02393902               -0.29987813                2.43685109               -2.03254297               15.24079917              -12.68905142
              27.91609269                7.03840682               79.50492762                0.00010000               -0.28884460               -0.92998798                0.49015173               -4.82866334               29.74944325              -23.97391411
              28.91956262                4.17960697               78.86095336                0.00010000                0.73470797               -1.04596522               -1.51105497               -5.99702507               28.36002532              -35.39278478
              29.93078685                1.30733779               78.20675951                0.00010000                1.40104923               -0.76860443               -3.56691938               -6.96540576               27.29220727              -48.36703073
              30.94758360               -1.57492614               77.54105762                0.00010000                1.94229785               -0.28915154               -5.68091430               -7.20149461               25.83885123              -62.93605372
              31.96963281               -4.46177222               76.85745406                0.00010000                2.51337814                0.23293411               -7.85309632               -6.61562758               23.65997553              -79.33920343
              32.99785117               -7.34777216               76.14779351                0.00010000                3.22564808                0.66809266              -10.08974870               -5.28988389               20.58706648              -97.87551333
              34.03414577              -10.22872410               75.40235471                0.00010000                4.17208065                0.96395201              -12.39497994               -3.37656891               16.14489862             -118.87162368
              35.08129278              -13.10191337               74.60381801                0.00010000                5.46988056                1.14819989              -14.78750025               -1.32912441                9.18924889             -143.05456011
              36.14354338              -15.97233407               73.72074844                0.48908443                6.22506000                1.49667200              -17.19910574                0.42577192                4.74075100             -168.81962539
              28.73633226               13.68073116               80.81266970                0.51156135               -0.88471840               -1.64423019                4.31974961               -0.09704257                0.12818329               12.29308960
              29.72748508               10.88750474               79.76547479                0.00010000               -0.77151491               -0.11892598                1.57784728               -2.77774849               20.86236484              -10.85241671
              30.72090196                8.03609381               79.13289553                0.00010000               -0.14450653                0.14410636               -0.70598758               -5.65659071               40.99168748              -22.61802194
              31.72459495                5.17621519               78.48767526                0.00010000                0.86026145                0.21672747               -2.97044827               -6.31596303               39.39552579              -34.24082085
              32.73810719                2.30633535               77.82242567                0.00010000                1.76052363                0.47184720               -5.26754595               -6.87115913               37.10298895              -46.69968474
              33.75980542               -0.57174393               77.13055098                0.00010000                2.55363414                0.87309452               -7.62324037               -6.94528575               34.03137258              -60.54072472
              34.78917988               -3.45387910               76.40306230                0.00010000                3.35123484                1.33557912              -10.05581004               -6.40937463               29.96155878              -76.09749420
              35.82683012               -6.33563088               75.62904161                0.00010000                4.24989311                1.78482239              -12.57754707               -5.31443345               24.67846475              -93.67300844
              36.87417774               -9.21314514               74.79542805                0.00010000                5.30313238                2.18995325              -15.19330632               -3.82977034               17.90688139             -113.52767292
              37.93289276              -12.08410651               73.88639088                0.00010000                6.32539217                2.60954972              -17.87490112               -2.05969660                9.52619660             -135.49494444
              39.00068558              -14.94411766               72.88741611                0.48961929                6.77928168                3.60125006              -20.51762657               -0.90723278                4.83356067             -158.50168544
              31.52108346               14.66550204               80.56659740                0.51021435               -0.66615700               -1.41310252                3.73840207               -0.09541951                0.11153200               12.71033155
              32.51442189               11.88716974               79.40284194                0.00010000               -0.34165150                0.06874638                0.70957311               -3.25387524               26.91544006              -10.57763844
              33.51425043                9.04128895               78.77513194                0.00010000                0.42899674                0.77416998               -1.83436518               -6.43595871               52.97499068              -21.18189108
              34.52300182                6.18394152               78.13202415                0.00010000                1.35361842                1.15190855               -4.33491544               -6.84137710               50.89176854              -32.05110286
              35.54132279                3.31677473               77.46180454                0.00010000                2.29452590                1.48122122               -6.84872963               -7.06214318               47.62425070              -43.63451829
              36.56889234                0.44253575               76.75235735                0.00010000                3.20047319                1.88639776               -9.41714003               -6.91247385               43.10863365              -56.43389753
              37.60533226               -2.43506063               75.99082871                0.00010000                4.09681023                2.36732188              -12.06643509               -6.32517119               37.24575877              -70.85372222
              38.65082854               -5.31207571               75.16330071                0.00010000                5.03468689                2.89033329              -14.80876155               -5.34366633               29.92881756              -87.22177267
              39.70602600               -8.18492504               74.25510547                0.00010000                6.01214093                3.44048818              -17.63643361               -4.03451488               21.12028263             -105.73954272
              40.77107136              -11.04972238               73.25208082                0.00010000                6.96975088                4.10359120              -20.51001074               -2.33812096               10.97756071             -126.35863881
              41.84542101              -13.90030906               72.14312154                0.49056560                7.43496511                4.95036038              -23.36314275               -1.02294124                5.51476847             -148.85733498
              34.29108847               15.65246911               80.32305430                0.50889036               -0.44678008               -1.19780496                3.16597350               -0.09368584                0.12933355               12.90822298
              35.28662067               12.88887967               79.04299799                0.00010000                0.21612736                0.27967973               -0.16145989               -3.56056647               33.56977490              -10.38567189
              36.29541102               10.05157721               78.43177285                0.00010000                1.28304762                1.21781190               -2.91291950               -6.97774387               66.11949597              -19.59366715
              37.31228162                7.19925336               77.80232036                0.00010000                2.14295415                1.77286594               -5.59964998               -7.32077974               63.52269506              -29.07465375
              38.33827010                4.33595978               77.13836787                0.00010000                3.05548448                2.20036773               -8.28660347               -7.29446963               59.30058053              -39.29011106
              39.37339131                1.46598402               76.42348002                0.00010000                3.95089044                2.67004652              -11.02293073               -6.89930591               53.41581856              -50.67096440
              40.41728791               -1.40653266               75.64083241                0.00010000                4.82149430                3.23336489              -13.83947980               -6.17606091               45.81754525              -63.61898147
              41.46982120               -4.27782421               74.77320862                0.00010000                5.69231028                3.87601428              -16.74747907               -5.17986851               36.48201859              -78.49980415
              42.53113411               -7.14433538               73.80362540                0.00010000                6.58465874                4.57723226              -19.73742686               -3.91872832               25.49392201              -95.62115828
              43.60151437              -10.00203469               72.71690802                0.00010000                7.51330064                5.31463780              -22.78108801               -2.25135008               13.14491821             -115.18891625
              44.68140013              -12.84511045               71.50210510                0.49140366                7.98857552                6.01135185              -25.84727366               -1.00731476                6.60991490             -137.28390148
              37.04638862               16.64154594               80.08082169                0.50779509               -0.22861682               -0.99175890                2.59866166               -0.09526068                0.14638071               12.97105419
              38.04410245               13.89276334               78.68431132                0.00010000                0.89666178                0.50476500               -1.03867270               -3.79264448               41.05025160              -10.35404976
              39.06432185               11.06564519               78.10594710                0.00010000                2.40506062                1.52418157               -3.93774476               -7.36778968               80.89815132              -17.67335395
              40.09220366                8.21939884               77.50627363                0.00010000                3.21904447                2.10521332               -6.75164258               -7.65416951               77.76106867              -25.30656131
              41.12870274                5.36078209               76.86456730                0.00010000                4.05974970                2.58775918               -9.55529892               -7.36818766               72.57755657              -33.71457869
              42.17339866                2.49593668               76.16036257                0.00010000                4.84582644                3.16135759              -12.40605448               -6.68661761               65.34213080              -43.28690025
              43.22561927               -0.37039334               75.37303707                0.00010000                5.58176178                3.86347463              -15.33909369               -5.78201620               56.01403248              -54.38672673
              44.28503389               -3.23455542               74.48155986                0.00010000                6.31213161                4.65965584              -18.36835944               -4.72481332               44.56985839              -67.42390639
              45.35186190               -6.09338039               73.46512434                0.00010000                7.08927691                5.50102636              -21.49038505               -3.49674071               31.11862343              -82.87732003
              46.42681943               -8.94342962               72.30513555                0.00010000                7.97821675                6.30921337              -24.69269522               -1.97157964               16.03050585             -101.24081413
              47.51142624              -11.78008203               70.98827822                0.49246843                8.46068090                6.93886245              -27.97014351               -0.88914819                8.08922636             -122.90232452
              39.78674846               17.63263393               79.83843261                0.50594192               -0.00799284               -0.79421527                2.02244607               -0.10103457                0.16761351               12.87863766
              40.78666854               14.89897497               78.32531177                0.00010000                1.73356301                0.74479573               -1.92362970               -4.04130111               49.61691839              -10.46213901
              41.82141972               12.08206085               77.80128996                0.00010000                3.86963963                1.63431475               -4.90031977               -7.66827858               97.80101080              -15.33430439
              42.86406133                9.24135763               77.25213821                0.00010000                4.64743896                2.06448672               -7.76977354               -7.75889766               94.04341248              -20.64327947
              43.91436850                6.38771496               76.65270472                0.00010000                5.33865265                2.58674577              -10.62387762               -7.03967933               87.85158834              -26.90064064
              44.97083438                3.52921117               75.97908977                0.00010000                5.88855903                3.33980851              -13.52859629               -6.04491337               79.28137388              -34.32658476
              46.03213968                0.67073683               75.20746775                0.00010000                6.37388030                4.23101864              -16.52355931               -4.99394198               68.25268874              -43.17250846
              47.09831199               -2.18463110               74.31258102                0.00010000                6.89669086                5.20109553              -19.62795773               -3.92616309               54.61427340              -53.86086254
              48.17007350               -5.03431485               73.26785256                0.00010000                7.52362119                6.19166153              -22.84844603               -2.79870051               38.35403488              -67.06342731
              49.24878441               -7.87585042               72.04800137                0.00010000                8.34242339                7.10807283              -26.18972928               -1.52584282               19.84425422              -83.72886311
              50.33692197              -10.70633320               70.63395594                0.49353182                8.81375580                7.76220269              -29.66802457               -0.69943979               10.06722848             -104.75499807
              42.51168585               18.62566164               79.59424494                0.50447489                0.21636622               -0.59293473                1.43915255               -0.10323661                0.23692444               12.77862455
              43.51384951               15.90765925               77.96476675                0.00010000                2.84438858                0.99130700               -2.82603073               -4.44363152               59.59308489              -10.86220530
              44.56857362               13.09833148               77.52255411                0.00010000                5.87610408                1.28191741               -5.78567969               -7.94924483              117.36947962              -12.18242799
              45.63137159               10.26068857               77.04953097                0.00010000                6.57409957                1.41655604               -8.62446096               -7.18121565              112.75244496              -14.86902808
              46.70005561                7.41251700               76.51520358                0.00010000                6.90534611                2.23317673              -11.45502630               -5.91654723              105.41157980              -18.86693486
              47.76947852                4.56273285               75.89506925                0.00010000                6.97635436                3.25940192              -14.34660003               -4.72857325               95.59427482              -23.91016767
              48.83958270                1.71422704               75.16372255                0.00010000                7.10418991                4.37015277              -17.34120927               -3.72169426               83.04332207              -30.10011024
              49.91156231               -1.13053351               74.29180267                0.00010000                7.37622591                5.50855441              -20.46329832               -2.79167524               67.30149595              -37.79968165
              50.98710722               -3.96954716               73.24505594                0.00010000                7.83793038                6.63653436              -23.73191272               -1.87782255               47.94025714              -47.74489028
              52.06832092               -6.80126817               71.98577798                0.00010000                8.56478918                7.68636559              -27.17497891               -0.95656652               25.09513850              -61.45983741
              53.15840300               -9.62483797               70.48250338                0.49430410                9.00820799                8.47703151              -30.83457323               -0.45658448               12.85737600              -81.36148737
              45.22068850               19.62077524               79.34979005                0.50307150                0.44375618               -0.37155057                0.84406940               -0.11240506               -0.26137700               11.08666303
              46.22512606               16.91880111               77.59810975                0.00010000                4.43585046                1.22743866               -3.75393182               -5.32646193               71.46489040               -9.98415573
              47.30940551               14.10769919               77.28111964                0.00010000                9.05627154               -0.59813761               -6.56023381               -6.53986460              140.44874452               -7.02604520
              48.40625149               11.26968875               76.91083697                0.00010000                9.22938856                0.46162709               -9.27645723               -4.93465170              133.89694672               -7.87679080
              49.49399328                8.43237850               76.46382540                0.00010000                8.41506946                1.74579971              -12.00726343               -3.47870032              125.31306613               -9.76635489
              50.57455288                5.59439921               75.92187414                0.00010000                7.84894389                3.07467093              -14.81325882               -2.63429328              114.56822974              -12.30787648
              51.65097216                2.75813989               75.25930841                0.00010000                7.58499002                4.37213516              -17.73547225               -1.98597209              100.93326097              -15.50348203
              52.72625268               -0.07446001               74.44370506                0.00010000                7.61397739                5.63049967              -20.80155620               -1.42018131               83.60944029              -19.56613722
              53.80325171               -2.90158416               73.43376263                0.00010000                7.93456040                6.84337083              -24.04045534               -0.87661641               61.41362148              -25.00445456
              54.88494389               -5.72212311               72.17365144                0.00010000                8.58390928                7.98519218              -27.51083023               -0.38932433               33.03164995              -33.06246212
              55.97492989               -8.53679257               70.59589123                0.49535480                8.99860013                8.99573703              -31.31980391               -0.24419927               17.14078839              -48.52241299
              47.91338600               20.61823063               79.07178204                0.75095986                0.70103124               -0.25446091                0.14570105                0.66749026                5.01127394                9.40692373
              48.92039632               17.93220803               77.25545834                0.47158632                8.67513426                1.34069181               -4.63082385               -7.06606958               88.31357447               -8.80083339
              50.08688869               15.08636873               77.10534880                0.44639803               14.38014714               -2.13304654               -7.15518756               -5.36602783              166.06491805               -3.68906066
              51.20799926               12.26992111               76.84757045                0.44087744               10.94412286                0.02323631               -9.68562604               -1.77201005              156.50864393               -4.05730908
              52.30577115                9.44743300               76.50780671                0.43879177                9.15159995                1.50545014              -12.24329506               -1.10695581              147.47470061               -4.95140156
              53.39103126                6.62422627               76.06939776                0.44027978                8.14756654                2.98270567              -14.88611715               -0.64032535              136.38773408               -6.22865319
              54.46872248                3.80166974               75.50705081                0.44504312                7.59257418                4.35298510              -17.65429767               -0.33245749              122.38107987               -7.85693328
              55.54288274                0.98207648               74.78721692                0.45310774                7.42577573                5.65364893              -20.57473674               -0.05446851              104.47730253               -9.95252554
              56.61723799               -1.83267975               73.86546691                0.46563497                7.64300499                6.89044166              -23.67760274                0.21658816               81.20798680              -12.82812665
              57.69574284               -4.64156432               72.67917999                0.48237011                8.28099738                8.05587843              -27.02909964                0.46772071               48.43606478              -17.16147324
              58.78285794               -7.44492323               71.10128046                0.74797735                8.71150978                9.18693359              -30.84456399                0.45691372               28.87805335              -28.91603549
              21.00125021               11.11323077               82.66162690                0.76840000               -1.62948264               -1.81367502                6.16745355               -0.47879397               -6.37805252                6.85393046
              21.98495538                8.16242120               81.87985390                0.50001384               -1.70578399               -1.04671301                4.15005758               -0.64993841               -8.73806780               -5.41971780
              22.96713453                5.20060457               81.05051801                0.46418978               -1.56009075               -0.57690746                2.12335519               -0.45460926               -8.91554941               -0.10992185
              23.95375357                2.21873127               80.26544184                0.44868059               -0.97139368                0.00628739                0.16017381               -0.40780311               -6.35351310               -0.37512008
              24.94770665               -0.78086821               79.48721816                0.44044682               -0.16080689                0.59184146               -1.86552028               -0.36633025               -5.71943378               -0.22583428
              25.95053743               -3.79255654               78.71460185                0.43961697                0.75645584                1.19115359               -3.93710207               -0.34682938               -5.39525095               -0.10546450
              26.96283577               -6.80896391               77.94279547                0.44695618                1.68859551                1.78629500               -6.04430889               -0.33401442               -5.59757576                0.01814849
              27.98430934               -9.82335648               77.16642828                0.46134532                2.54916570                2.38341159               -8.16534559               -0.33038357               -6.35413787                0.15563129
              29.01381908              -12.83086123               76.38022820                0.48397902                3.26767896                2.96251487              -10.26201886               -0.33126841               -7.93392632                0.19587129
              30.04966292              -15.82982598               75.57323451                0.51566546                3.83675018                3.52739117              -12.33595498               -0.32790256               -8.39592136                1.04237518
              31.09055409              -18.82205936               74.77889517                0.77072676                4.08911708                4.14202340              -14.38481251               -0.53728683               -7.83010239               -5.19309329
              23.94727184               12.09509402               82.34935168                0.52138795               -1.25027420               -1.91757033                5.37809528               -0.32988803                5.19843507               10.69454891
              24.93476910                9.15195407               81.56407467                0.00010000               -0.64192195               -0.70945058                3.38295935               -0.77165206               11.64334245              -10.06271228
              25.93443340                6.19483550               80.90735653                0.00010000                0.28214144               -1.08950583                1.77932306               -1.97727195               17.53356464              -12.82612396
              26.94041192                3.21879415               80.23928506                0.00010000                0.76269287               -0.84389838                0.02883699               -2.95742887               17.50342002              -18.74332571
              27.94968726                0.22505021               79.58197208                0.00010000                1.03525321               -0.37780698               -1.77038543               -3.57301672               18.27547812              -25.51717017
              28.96111699               -2.78064500               78.92969666                0.00010000                1.26041724                0.20124672               -3.63565617               -3.70687870               18.53071745              -33.14133651
              29.97489560               -5.79110096               78.27804526                0.00010000                1.54185861                0.78741771               -5.52495006               -3.35399071               18.32726533              -41.71108256
              30.99195416               -8.79952237               77.62208379                0.00010000                1.94227746                1.31421816               -7.44648424               -2.57975498               17.57686633              -51.38813608
              32.01374115              -11.80123608               76.95563846                0.00010000                2.50143970                1.73619575               -9.33479247               -1.49260392               16.42096855              -62.41448172
              33.04198295              -14.79455207               76.27684428                0.00010000                3.18367215                2.10242454              -11.18559738               -0.18165972               12.90781148              -75.11643329
              34.07741459              -17.78063912               75.54037483                0.51276545                3.54316383                2.29349906              -13.06006720                1.15771329               10.01553996              -92.75455339
              26.88093235               13.07487937               82.11345642                0.50570037               -1.11514851               -1.88839287                4.87748749               -0.10323071               -0.18227257               13.43173453
              27.86978086               10.14823219               81.15515336                0.00010000               -1.00916673               -0.28544361                2.42080717               -2.05623480               15.47484444              -12.94396937
              28.86074901                7.17881446               80.50978203                0.00010000               -0.26952915               -0.90861996                0.48100191               -4.87615390               30.20626842              -24.84009168
              29.86439028                4.20185331               79.84581711                0.00010000                0.74682274               -1.00084515               -1.51290295               -6.02308749               28.74827052              -36.77037362
              30.87568547                1.21157566               79.17110610                0.00010000                1.40803744               -0.69982006               -3.56039402               -6.95796265               27.60425973              -50.23541492
              31.89255103               -1.78853160               78.48432514                0.00010000                1.94739292               -0.20646713               -5.66003349               -7.15532185               26.07164853              -65.28658539
              32.91463333               -4.79321556               77.77911642                0.00010000                2.51491645                0.32181247               -7.81379637               -6.55513546               23.81531231              -82.17583024
              33.94284936               -7.79707212               77.04737467                0.00010000                3.21816920                0.75978095              -10.00764066               -5.24332495               20.66414206             -101.21841029
              34.97899671              -10.79613732               76.27936046                0.00010000                4.12917036                1.06215144              -12.23764066               -3.37110995               16.15490997             -122.77141141
              36.02543276              -13.78777749               75.45790715                0.00010000                5.34428733                1.26635170              -14.49485581               -1.36574089                9.16752667             -147.53645767
              37.08588246              -16.77618938               74.55145954                0.48403981                6.04496923                1.66624899              -16.80455188                0.33383943                4.75737837             -173.87238452
              29.79850157               14.05732616               81.85575091                0.50486268               -0.87922663               -1.63504234                4.27980476               -0.10014041                0.11766661               12.64326294
              30.78970931               11.14624520               80.78127548                0.00010000               -0.76061847               -0.11533779                1.57962083               -2.79897323               21.07686273              -11.05124228
              31.78328920                8.17666310               80.12583503                0.00010000               -0.12601651                0.15262742               -0.70454308               -5.69278332               41.41118675              -23.39857442
              32.78718898                5.19877724               79.45796444                0.00010000                0.88118532                0.23768457               -2.96656520               -6.33517432               39.77942803              -35.53243710
              33.80091291                2.21105381               78.76978075                0.00010000                1.78063948                0.50687401               -5.25646895               -6.86952829               37.40878496              -48.46451915
              34.82280177               -0.78477434               78.05444831                0.00010000                2.57102505                0.91739646               -7.59693288               -6.93125977               34.23650803              -62.76264814
              35.85233341               -3.78466472               77.30283395                0.00010000                3.36038255                1.38573234               -9.99867089               -6.39687548               30.05624498              -78.77500061
              36.89000942               -6.78432675               76.50396058                0.00010000                4.23454553                1.83271172              -12.46402763               -5.32265945               24.66781454              -96.81124253
              37.93702432               -9.77999305               75.64481631                0.00010000                5.23553894                2.23722568              -14.98526296               -3.86843060               17.82055899             -117.12489744
              38.99472020              -12.76922504               74.70976078                0.00010000                6.19454123                2.66708983              -17.54687350               -2.10483338                9.43967766             -139.54168591
              40.06091515              -15.74731414               73.68482552                0.48441586                6.61949505                3.65164637              -20.11494434               -0.92065412                4.81058727             -162.99555625
              32.70109147               15.04217852               81.60382599                0.50331931               -0.66270072               -1.40346321                3.70407277               -0.09717650                0.11154083               13.08141753
              33.69446446               12.14592543               80.41002850                0.00010000               -0.33650841                0.06577655                0.72328752               -3.27141655               27.14443981              -10.78305459
              34.69436130                9.18186701               79.75681627                0.00010000                0.44158117                0.77020577               -1.82547875               -6.46446740               53.41759389              -21.90833494
              35.70329608                6.20660700               79.08867691                0.00010000                1.37425941                1.15600564               -4.32893447               -6.85356917               51.30757320              -33.24810450
              36.72184649                3.22171314               78.39334463                0.00010000                2.31741354                1.49626239               -6.83916699               -7.06407150               47.96027100              -45.26624383
              37.74964436                0.22981633               77.65831459                0.00010000                3.22008674                1.91063215               -9.39383788               -6.91471693               43.33317252              -58.48070482
              38.78624822               -2.76550091               76.87050036                0.00010000                4.10400753                2.39685438              -12.01362992               -6.34149635               37.34875761              -73.30541092
              39.83172451               -5.76041789               76.01589742                0.00010000                5.01390811                2.92355903              -14.70426779               -5.38402694               29.92391029              -90.07075203
              40.88652639               -8.75139280               75.07991079                0.00010000                5.94663398                3.47898276              -17.45745049               -4.09291848               21.05010872             -108.97771491
              41.95065719              -11.73443570               74.04865769                0.00010000                6.85605992                4.14731770              -20.25011474               -2.38254724               10.91126045             -129.98742529
              43.02364758              -14.70315645               72.91145464                0.48532062                7.29903982                4.99188410              -23.05195676               -1.03419106                5.50254788             -152.92682824
              35.58906421               16.02925690               81.35463775                0.50232677               -0.44717230               -1.18873448                3.14540638               -0.09771081                0.12395347               13.29670878
              36.58459249               13.14756073               80.04150839                0.00010000                0.21270403                0.27005992               -0.13738242               -3.57208210               33.83914380              -10.59981131
              37.59331829               10.19206722               79.40268779                0.00010000                1.28394876                1.20659510               -2.90091758               -6.99391827               66.64655692              -20.27125603
              38.61027146                7.22189736               78.74631165                0.00010000                2.15519290                1.76899102               -5.59674325               -7.32225820               64.02532920              -30.16453613
              39.63642215                4.24097906               78.05549652                0.00010000                3.07250063                2.20704288               -8.28545230               -7.29241434               59.71931837              -40.75916346
              40.67172148                1.25343830               77.31333100                0.00010000                3.96577744                2.68645526              -11.01312469               -6.90609756               53.71505103              -52.50003853
              41.71573770               -1.73672763               76.50269862                0.00010000                4.82496454                3.25790182              -13.80712175               -6.20152457               45.98919890              -65.79785113
              42.76822077               -4.72585557               75.60627454                0.00010000                5.67230312                3.90844536              -16.67655728               -5.22646764               36.54521465              -81.02340123
              43.82918376               -7.71041340               74.60714138                0.00010000                6.53060646                4.61864820              -19.61466618               -3.97454231               25.49106862              -98.49208265
              44.89883290              -10.68627868               73.49032529                0.00010000                7.42445335                5.36407732              -22.60416212               -2.29059814               13.12722176             -118.43233238
              45.97767283              -13.64747646               72.24507549                0.48614287                7.88399320                6.06127603              -25.63007126               -1.01286019                6.62520710             -140.96888619
              38.46252959               17.01840383               81.10675017                0.50104042               -0.23170882               -0.98629155                2.58724619               -0.09730978                0.14293640               13.36312939
              39.46021250               14.15132663               79.67410464                0.00010000                0.88083577                0.49154802               -1.00437504               -3.79336616               41.39668254              -10.57957958
              40.48014631               11.20599891               79.06660651                0.00010000                2.38632883                1.51131121               -3.92692599               -7.36690374               81.57444432              -18.29276573
              41.50793908                8.24198682               78.43870660                0.00010000                3.21554757                2.10271662               -6.75762614               -7.64067461               78.41353306              -26.26666039
              42.54445726                5.26585399               77.76894226                0.00010000                4.06450036                2.59672076               -9.57015208               -7.35712552               73.13733014              -34.98579525
              43.58922909                2.28354543               77.03629035                0.00010000                4.85271716                3.18013083              -12.41914912               -6.68949514               65.77044083              -44.85521339
              44.64151160               -0.70034288               76.21978177                0.00010000                5.58259183                3.89061275              -15.33806398               -5.80418258               56.30365107              -56.24770695
              45.70088092               -3.68224898               75.29823609                0.00010000                6.29735260                4.69517001              -18.34067650               -4.76392096               44.74057317              -69.58152723
              46.76745865               -6.65901984               74.25084816                0.00010000                7.05136808                5.54521745              -21.42644608               -3.54068449               31.20662836              -85.34908982
              47.84190829               -9.62715415               73.05909228                0.00010000                7.91636402                6.35947778              -24.58918031               -2.00101258               16.06928297             -104.06865324
              48.92578593              -12.58193093               71.70964642                0.48723427                8.38776487                6.98697044              -27.83069821               -0.88902117                8.13610849             -126.16280835
              41.32127241               18.00953107               80.85865239                0.49962320               -0.01423219               -0.78851356                2.02437399               -0.09820386                0.16667972               13.26566876
              42.32113009               15.15739169               79.30627582                0.00010000                1.70238119                0.72654525               -1.88401716               -4.02618853               50.08016149              -10.70322163
              43.35532003               12.22229344               78.75230434                0.00010000                3.82364001                1.62765224               -4.89388314               -7.64571607               98.70176304              -15.87860026
              44.39760289                9.26395169               78.17432185                0.00010000                4.62004965                2.07385509               -7.79102355               -7.72859324               94.91457548              -21.43971939
              45.44772103                6.29291347               77.54628957                0.00010000                5.32627785                2.60821108              -10.66277489               -7.02031879               88.61326114              -27.92995072
              46.50412844                3.31704092               76.84365773                0.00010000                5.88637178                3.36863327              -13.57371809               -6.04330691               79.89177128              -35.58366446
              47.56544846                0.34108463               76.04220383                0.00010000                6.37454328                4.26533383              -16.56267264               -5.01040326               68.70509596              -44.66036742
              48.63161931               -2.63195217               75.11646267                0.00010000                6.89133906                5.24054214              -19.64938011               -3.95537591               54.92617280              -55.59168363
              49.70327524               -5.59950905               74.03975761                0.00010000                7.50522123                6.23573074              -22.84290710               -2.82998478               38.55252908              -69.06560403
              50.78172373               -8.55908913               72.78671565                0.00010000                8.30853590                7.15353866              -26.15172693               -1.54592619               19.94651542              -86.05721180
              51.86944596              -11.50773705               71.33806347                0.48813380                8.77222259                7.80147259              -29.59508540               -0.69393510               10.14976418             -107.49529785
              44.16484427               19.00263356               80.60863047                0.49814319                0.20820909               -0.58816442                1.44454131               -0.10699631                0.23936452               13.15796235
              45.16692636               16.16585754               78.93675750                0.00010000                2.79138575                0.96988993               -2.77584543               -4.40916506               60.21943614              -11.12976722
              46.22067199               13.23855195               78.46467294                0.00010000                5.79104109                1.29311419               -5.78837015               -7.89638094              118.58251920              -12.61941048
              47.28274718               10.28346392               77.96306652                0.00010000                6.51448346                1.45129816               -8.66749566               -7.14076573              113.91636029              -15.45408703
              48.35096166                7.31801821               77.40032911                0.00010000                6.87223043                2.27554152              -11.52672844               -5.89654645              106.43536771              -19.60141492
              49.42019179                4.35091810               76.75127257                0.00010000                6.96674836                3.30447846              -14.43391557               -4.72792787               96.44017002              -24.79907819
              50.49029662                1.38496380               75.99006828                0.00010000                7.10876450                4.41613263              -17.43095674               -3.73557715               83.70683482              -31.15048597
              51.56236708               -1.57743814               75.08709315                0.00010000                7.38496473                5.55482844              -20.54293558               -2.81372906               67.79670864              -39.02623285
              52.63799592               -4.53430522               74.00786916                0.00010000                7.84253410                6.68223128              -23.79087306               -1.89947649               48.28100832              -49.17812067
              53.71921776               -7.48408338               72.71436954                0.00010000                8.56035813                7.72863564              -27.20517507               -0.96933000               25.27745183              -63.16213166
              54.80920308              -10.42590148               71.17467382                0.48884279                8.99853154                8.50912765              -30.82898352               -0.44630102               12.98552083              -83.44416143
              46.99268452               19.99776778               80.35827485                0.49687832                0.43438682               -0.37194709                0.85938983               -0.11729133               -0.27497825               11.41198953
              47.99702839               17.17678949               78.56079899                0.00010000                4.35507545                1.20764055               -3.70253693               -5.25860347               72.31894936              -10.24721277
              49.07978603               14.24815572               78.21543426                0.00010000                8.91464602               -0.54144011               -6.57460361               -6.47651192              142.08453675               -7.28870981
              50.17532131               11.29297765               77.81771380                0.00010000                9.12749433                0.52751211               -9.34826512               -4.90182907              135.41709284               -8.19025784
              51.26233592                8.33842430               77.34322954                0.00010000                8.36514955                1.81314797              -12.12123836               -3.46966809              126.65437194              -10.15271520
              52.34262430                5.38313049               76.77316171                0.00010000                7.83786179                3.14075864              -14.95500392               -2.63792587              115.70496301              -12.77271121
              53.41909315                2.42940728               76.08142357                0.00010000                7.59947249                4.43602210              -17.89021837               -1.99771989              101.86557913              -16.05214868
              54.49461375               -0.52085560               75.23529788                0.00010000                7.64188992                5.69143209              -20.95488318               -1.43529186               84.34992129              -20.20835619
              55.57193095               -3.46586442               74.19315840                0.00010000                7.96598173                6.90010558              -24.17962888               -0.88974416               61.96028299              -25.76067334
              56.65393339               -6.40451642               72.89854381                0.00010000                8.61125928                8.03520156              -27.62478757               -0.39611349               33.33641606              -33.97733417
              57.74415614               -9.33755450               71.28287160                0.48961122                9.02227514                9.03297416              -31.39610816               -0.22880452               17.33832858              -49.72819543
              49.80445503               20.99519462               80.07329095                0.74781533                0.69113227               -0.25731649                0.16219913                0.65862376                5.15003206                9.67779594
              50.81136635               18.19001035               78.20937847                0.46844911                8.52492785                1.32208593               -4.57188108               -6.93977734               89.54377969               -9.04337279
              51.97495358               15.22772315               78.03362398                0.44561750               14.15378375               -2.04325730               -7.18609332               -5.28305408              168.16271922               -3.78977886
              53.09444202               12.29401416               77.75018118                0.44065683               10.82309384                0.10365088               -9.79187077               -1.76002746              158.41875301               -4.18586908
              54.19141546                9.35428117               77.38459199                0.43890314                9.10041359                1.58568724              -12.40962698               -1.10609027              149.18444925               -5.11578689
              55.27645030                6.41373327               76.91962440                0.44003980                8.14564254                3.06027849              -15.09716527               -0.64724716              137.87560700               -6.43245833
              56.35432831                3.47368424               76.32958496                0.44446628                7.62413264                4.42769612              -17.89328564               -0.34362253              123.65183355               -8.10197159
              57.42893295                0.53639050               75.58064152                0.45205804                7.47667689                5.72461050              -20.82452136               -0.06744790              105.54827254              -10.24392949
              58.50386185               -2.39630311               74.62802742                0.46289908                7.70263104                6.95613116              -23.92248259                0.20459721               82.07779108              -13.17836931
              59.58298557               -5.32337935               73.40840989                0.47784384                8.34206538                8.11370701              -27.25535254                0.45827438               49.00289713              -17.59691395
              60.67070316               -8.24524199               71.79253125                0.74506723                8.77175868                9.23125068              -31.03414519                0.46843723               29.28658605              -29.57375933
              21.72875042               11.49857746               83.72292292                0.76338585               -1.60865665               -1.78834152                6.08247908               -0.47340374               -6.49599544                6.97102675
              22.71266386                8.42726329               82.92109358                0.49375577               -1.70040333               -1.03146946                4.09039182               -0.66261055               -8.84894607               -5.53552544
              23.69474236                5.34461674               82.07170626                0.46146889               -1.55993535               -0.57096612                2.11037991               -0.44558380               -8.98766343               -0.06373073
              24.68146515                2.24184663               81.26714319                0.44766622               -0.95864178                0.00460739                0.18275735               -0.40014415               -6.41505081               -0.36110728
              25.67556952               -0.87829437               80.46886355                0.44058334               -0.15141397                0.57704627               -1.80137762               -0.36317858               -5.83162941               -0.21509618
              26.67843687               -4.01023822               79.67561237                0.43967362                0.75210127                1.17272979               -3.83950190               -0.33866134               -5.54837065               -0.11455433
              27.69061155               -7.14672683               78.88291024                0.44617017                1.66161101                1.76464519               -5.90662993               -0.32696729               -5.77077103                0.01170721
              28.71166909              -10.28116364               78.08555798                0.45950592                2.49748688                2.34617982               -7.97495805               -0.32382584               -6.53552195                0.13339154
              29.74056128              -13.40910522               77.27842830                0.47942367                3.20456568                2.92591459              -10.05020795               -0.32320993               -8.11450431                0.16810380
              30.77576040              -16.52895883               76.45084864                0.50804616                3.76558022                3.48870041              -12.09446757               -0.32259956               -8.57001369                1.01342409
              31.81587289              -19.64260671               75.63619001                0.76571660                4.01124845                4.09001758              -14.10634485               -0.49423004               -8.01504400               -5.27603321
              24.79533055               12.48069404               83.40279555                0.51301308               -1.23124431               -1.89776775                5.30171752               -0.33545911                5.36059380               10.96524932
              25.78301811                9.41694860               82.59768717                0.00010000               -0.61678534               -0.68976117                3.33419705               -0.79700130               12.00603573              -10.26947253
              26.78299485                6.33890708               81.92503963                0.00010000                0.29505762               -1.07451299                1.75245309               -2.01219668               18.01731764              -13.24777407
              27.78891926                3.24189271               81.23953526                0.00010000                0.74926571               -0.81632619                0.01519763               -2.98460888               17.87520878              -19.42346602
              28.79798016                0.12747609               80.56432608                0.00010000                1.01736112               -0.34424011               -1.76041470               -3.58045632               18.57054143              -26.43998405
              29.80926648               -2.99851092               79.89329127                0.00010000                1.24122117                0.24143579               -3.62156878               -3.69935382               18.78936568              -34.29382440
              30.82280458               -6.12908037               79.22288240                0.00010000                1.51767727                0.83246538               -5.50358655               -3.34564714               18.55913024              -43.10099454
              31.83962003               -9.25770184               78.54775586                0.00010000                1.92110977                1.35732472               -7.39945941               -2.57724130               17.77666383              -53.02258771
              32.86122678              -12.37984608               77.86230445                0.00010000                2.48325616                1.78875172               -9.29275559               -1.51098925               16.64824144              -64.30880255
              33.88928515              -15.49407182               77.16504644                0.00010000                3.16758471                2.16999022              -11.15001907               -0.25383179               13.14412317              -77.30456033
              34.92457847              -18.60170654               76.40994195                0.50545571                3.52933202                2.41871290              -12.99393839                1.02219266               10.22825481              -95.28978729
              27.84953213               13.46062210               83.16197768                0.49906534               -1.10213401               -1.87335970                4.81226258               -0.10010882               -0.22251622               13.80236561
              28.83851079               10.41346807               82.17923696                0.00010000               -0.99889122               -0.26719170                2.39077217               -2.07877621               15.69484060              -13.18012531
              29.82955431                7.32312648               81.51454766                0.00010000               -0.26534188               -0.89095000                0.47133161               -4.92530309               30.64158639              -25.67798372
              30.83320396                4.22552011               80.83069530                0.00010000                0.74048555               -0.95930256               -1.50792313               -6.04935580               29.11239856              -38.10311003
              31.84436402                1.11482083               80.13555163                0.00010000                1.39011520               -0.63348282               -3.54611241               -6.95553723               27.89552010              -52.04281777
              32.86100626               -2.00540950               79.42785695                0.00010000                1.92627515               -0.12377171               -5.63492226               -7.13412284               26.28360446              -67.54018758
              33.88288952               -5.13007752               78.70117813                0.00010000                2.49418530                0.41586622               -7.77526806               -6.53098602               23.95804455              -84.89138849
              34.91088997               -8.25401714               77.94764070                0.00010000                3.19109790                0.86616771               -9.95111154               -5.23343270               20.75998585             -104.40425551
              35.94671148              -11.37333019               77.15760190                0.00010000                4.08271308                1.18263276              -12.14422708               -3.39899710               16.21697259             -126.45858808
              36.99254423              -14.48555902               76.31392090                0.00010000                5.24373437                1.41905270              -14.35116114               -1.42551566                9.19895105             -151.76895682
              38.05158617              -17.59423245               75.38465740                0.47885116                5.90419411                1.88413302              -16.61764901                0.24212479                4.79308110             -178.66601218
              30.88763645               14.44322685               82.89826580                0.49778243               -0.86982401               -1.61892768                4.22216977               -0.09335253                0.11744924               12.99016415
              31.87893821               11.41160476               81.79706721                0.00010000               -0.75998541               -0.10961609                1.57295257               -2.81645836               21.27431564              -11.23787236
              32.87243674                8.32108808               81.11880467                0.00010000               -0.13502055                0.15715062               -0.69979795               -5.72492598               41.79588669              -24.15281439
              33.87623780                5.22270666               80.42834395                0.00010000                0.86811433                0.25560566               -2.95232124               -6.34303362               40.13131617              -36.78100073
              34.88979903                2.11480644               79.71729629                0.00010000                1.76222884                0.54566257               -5.23578515               -6.85832518               37.68499392              -50.16685493
              35.91148237               -1.00098635               78.97861233                0.00010000                2.54967394                0.97242312               -7.57014858               -6.90878399               34.42073781              -64.90389000
              36.94079251               -4.12076305               78.20308888                0.00010000                3.33608357                1.45219971               -9.96077218               -6.37785386               30.14917942              -81.34962389
              37.97820405               -7.24037849               77.37976106                0.00010000                4.19981053                1.91062165              -12.40212680               -5.32120104               24.68597900              -99.82918453
              39.02478872              -10.35619342               76.49572279                0.00010000                5.17365304                2.32628937              -14.88157760               -3.88779323               17.79483136             -120.59998415
              40.08167711              -13.46569077               75.53545341                0.00010000                6.09895585                2.77618120              -17.38696823               -2.13109814                9.41043352             -143.48705327
              41.14676783              -16.56402388               74.48511722                0.47960211                6.50907267                3.75684289              -19.90763068               -0.91871524                4.81627013             -167.40905724
              33.91090926               15.42824355               82.64067885                0.49635064               -0.65888606               -1.38738721                3.66855357               -0.08728957                0.11118249               13.46518805
              34.90432040               12.41127575               81.41730769                0.00010000               -0.34776813                0.06012695                0.73033851               -3.27793793               27.34950395              -10.98690805
              35.90395389                9.32626949               80.73862236                0.00010000                0.41522643                0.76368922               -1.81098357               -6.47706812               53.81895457              -22.61362070
              36.91262493                6.23063222               80.04544546                0.00010000                1.34683161                1.16131453               -4.31102548               -6.83968680               51.68361275              -34.40719423
              37.93089053                3.12573408               79.32502120                0.00010000                2.28875707                1.51862216               -6.82111115               -7.03775873               48.26086396              -46.84290077
              38.95840007                0.01403896               78.56448060                0.00010000                3.19170261                1.94969221               -9.37603572               -6.88798747               43.53114846              -60.45564795
              39.99472458               -3.10103352               77.75055611                0.00010000                4.07481252                2.44959785              -11.99126987               -6.32539170               37.44203234              -75.67282658
              41.03989632               -6.21580471               76.86921536                0.00010000                4.97716609                2.98737902              -14.66631344               -5.38460933               29.93289545              -92.83277291
              42.09426790               -9.32680440               75.90595646                0.00010000                5.89282016                3.55395086              -17.38863835               -4.10573355               21.01376208             -112.14296067
              43.15775272              -12.43003540               74.84707852                0.00010000                6.78050893                4.22874246              -20.13898312               -2.39218066               10.87639846             -133.57249966
              44.22987808              -15.51909560               73.68208240                0.48043040                7.21253591                5.06719589              -22.90068015               -1.02421823                5.50682678             -156.96717180
              36.91982626               16.41547910               82.38596242                0.49528326               -0.44727585               -1.17248282                3.12286844               -0.08572287                0.12327931               13.69704325
              37.91535351               13.41280730               81.04025034                0.00010000                0.18563168                0.25642836               -0.11704367               -3.56289369               34.08405691              -10.81332412
              38.92353890               10.33636186               80.37375450                0.00010000                1.23129835                1.19519145               -2.88201566               -6.98097334               67.12408330              -20.93414931
              39.93997947                7.24593295               79.69038549                0.00010000                2.10491078                1.77115990               -5.58225787               -7.28346704               64.48143901              -31.22371824
              40.96563711                4.14517888               78.97265882                0.00010000                3.02553775                2.22695277               -8.27896302               -7.24751953               60.09524495              -42.18181679
              42.00049023                1.03800749               78.20321753                0.00010000                3.92456146                2.72333571              -11.01572738               -6.86910357               53.97875228              -54.26842229
              43.04412834               -2.07177109               77.36468998                0.00010000                4.78962534                3.30904205              -13.81565667               -6.18082109               46.13752397              -67.90661736
              44.09628274               -5.18063090               76.43967748                0.00010000                5.63881950                3.97153071              -16.68268171               -5.22303335               36.60072634              -83.47672584
              45.15690473               -8.28511440               75.41133207                0.00010000                6.49209771                4.69129894              -19.60632938               -3.98073150               25.49359507             -101.30418755
              46.22612469              -11.38111592               74.26482478                0.00010000                7.37495658                5.44211773              -22.56952176               -2.29557249               13.11768816             -121.63377593
              47.30440386              -14.46267996               72.98950367                0.48118764                7.82791754                6.13847104              -25.56087240               -0.99830215                6.64497843             -144.61625847
              39.91453841               17.40479389               82.13256661                0.49459921               -0.23586430               -0.97060486                2.58005414               -0.08851170                0.14236350               13.76965224
              40.91217976               14.41640431               80.66422382                0.00010000                0.83351867                0.47251876               -0.97524850               -3.76771308               41.71496097              -10.80783624
              41.93120878               11.35017332               80.02740858                0.00010000                2.29794016                1.50302695               -3.90833634               -7.32394160               82.19358209              -18.90247432
              42.95813857                8.26605542               79.37112111                0.00010000                3.13284060                2.11351873               -6.75410753               -7.57560247               79.01157405              -27.20445766
              43.99386559                5.17027314               78.67316426                0.00010000                3.99147002                2.62751105               -9.58451382               -7.29445070               73.64591787              -36.22030525
              45.03796797                2.06850568               77.91197959                0.00010000                4.79404803                3.22740885              -12.45302460               -6.64302515               66.15304566              -46.37341529
              46.08974655               -1.03485268               77.06627579                0.00010000                5.54054968                3.95070333              -15.38967298               -5.77857246               56.55619456              -58.04901207
              47.14877896               -4.13637410               76.11474633                0.00010000                6.26958663                4.76545408              -18.40355054               -4.75634037               44.88532183              -71.67627198
              48.21513829               -7.23297842               75.03659541                0.00010000                7.03139318                5.62332358              -21.48943920               -3.54262879               31.27969783              -87.76122086
              49.28940683              -10.32119304               73.81335195                0.00010000                7.89509142                6.44219974              -24.63755430               -2.00317956               16.10168731             -106.84179772
              50.37304011              -13.39632618               72.43166426                0.48196391                8.36332890                7.07067037              -27.84683020               -0.87242662                8.18007979             -129.36618616
              42.89483519               18.39606701               81.87892009                0.49335241               -0.02153757               -0.77977335                2.02942930               -0.09689960                0.16275859               13.66231412
              43.89461982               15.42225768               80.28763143                0.00010000                1.62868825                0.70682164               -1.84372073               -3.98143057               50.50857198              -10.94499721
              44.92740896               12.36642240               79.70341230                0.00010000                3.68738968                1.63200154               -4.88124938               -7.56740736               99.53560269              -16.41876239
              45.96836761                9.28820332               79.09631774                0.00010000                4.49444446                2.10797313               -7.80585338               -7.63946157               95.72086309              -22.22208626
              47.01729785                6.19772910               78.43944923                0.00010000                5.21939669                2.66378003              -10.70724425               -6.94781645               89.31327151              -28.93269401
              48.07275554                3.10255567               77.70761541                0.00010000                5.80694100                3.43708143              -13.64933844               -5.99556744               80.44495716              -36.80147576
              49.13343667                0.00724297               76.87621430                0.00010000                6.32630614                4.34251281              -16.66823661               -4.98626142               69.10726010              -46.09872804
              50.19928167               -3.08532182               75.91959342                0.00010000                6.87172196                5.32403554              -19.77886168               -3.94871321               55.19749196              -57.26667133
              51.27087111               -6.17264793               74.81099442                0.00010000                7.50635931                6.32340242              -22.98419052               -2.83187012               38.72216039              -71.00909536
              52.34940885               -9.25227192               73.52496683                0.00010000                8.31752458                7.24270406              -26.28601587               -1.54800720               20.03342684              -88.32446143
              53.43722160              -12.32126655               72.04205423                0.48281933                8.78127441                7.88984229              -29.69667857               -0.67622474               10.22466366             -110.16762497
              45.86021908               19.38919843               81.62313577                0.49201198                0.19766805               -0.58562351                1.46790372               -0.10049471                0.24681629               13.54272391
              46.86219576               16.43054075               79.90924984                0.00010000                2.68479547                0.94891040               -2.73054277               -4.33296249               60.80605341              -11.39726823
              47.91391499               13.38281335               79.40678670                0.00010000                5.59234392                1.32757771               -5.78483974               -7.77766914              119.71123241              -13.05573947
              48.97404264               10.30821488               78.87618105                0.00010000                6.33209652                1.52828005               -8.70773461               -7.04170766              115.00075018              -16.03274770
              50.04055692                7.22354874               78.28466902                0.00010000                6.72500547                2.36661034              -11.61024773               -5.83163105              107.38247405              -20.31922184
              51.10854275                4.13724730               77.60639094                0.00010000                6.86709493                3.40187408              -14.56190408               -4.69243015               97.21361937              -25.66045556
              52.17789882                1.05199757               76.81510342                0.00010000                7.05764287                4.51686298              -17.60213266               -3.72148943               84.30475797              -32.16401814
              53.24969560               -2.02989339               75.88094396                0.00010000                7.37760844                5.65731564              -20.75069789               -2.81366666               68.23669087              -40.20898238
              54.32545099               -5.10651037               74.76923848                0.00010000                7.86848483                6.78460229              -24.02098009               -1.90526195               48.58059011              -50.56256175
              55.40706530               -8.17633896               73.44167448                0.00010000                8.60269434                7.82808914              -27.43386737               -0.97343984               25.43706703              -64.81027080
              56.49750487              -11.23852933               71.86592371                0.48348856                9.04395717                8.60263201              -31.02223379               -0.42807280               13.10192333              -85.46230968
              48.81014066               20.38435454               81.36697784                0.49134089                0.42049810               -0.37220458                0.88803677               -0.11223808               -0.28873769               11.72902755
              49.81434564               17.44123588               79.52405901                0.00010000                4.20203879                1.18204343               -3.64065715               -5.13187295               73.12002950              -10.50072469
              50.89418144               14.39297396               79.14962757                0.00010000                8.62262162               -0.43098260               -6.58478208               -6.35207973              143.61277398               -7.55267314
              51.98679807               11.31876892               78.72387166                0.00010000                8.87256850                0.65270353               -9.41930388               -4.82744859              136.83488729               -8.50283352
              53.07163281                8.24506131               78.22140063                0.00010000                8.18300155                1.94218075              -12.25195511               -3.43578885              127.89599512              -10.53122950
              54.15045810                5.17059315               77.62277407                0.00010000                7.72573812                3.27022079              -15.14646202               -2.62366960              116.74626506              -13.22303154
              55.22614757                2.09758023               76.90150404                0.00010000                7.55290879                4.56549833              -18.14081280               -1.99627261              102.71059077              -16.58042720
              56.30151628               -0.97217551               76.02460739                0.00010000                7.65319382                5.82019991              -21.25685302               -1.44129949               85.01580849              -20.82559731
              57.37921144               -4.03695589               74.95017005                0.00010000                8.02213668                7.02626067              -24.51620430               -0.89800877               62.45008849              -26.48838737
              58.46195901               -7.09571014               73.62115569                0.00010000                8.69147160                8.15520916              -27.96679202               -0.40131888               33.60919737              -34.85974086
              59.55304088              -10.14921391               71.96796906                0.48426876                9.10818628                9.14058044              -31.69850569               -0.20827312               17.51890792              -50.89098007
              51.74421162               21.38175433               81.07502602                0.74516445                0.67272582               -0.26002027                0.20229013                0.64982421                5.27966866                9.92362909
              52.75093888               18.45418161               79.16402072                0.46531854                8.25643657                1.29457296               -4.49584555               -6.71870773               90.69087971               -9.26232119
              53.90934035               15.37419370               78.96162693                0.44498306               13.72337164               -1.87802560               -7.21083538               -5.12974110              170.11824941               -3.89257925
              55.02540631               12.32126896               78.65173304                0.44036701               10.53382803                0.25000318               -9.89590149               -1.72924344              160.19193431               -4.31385706
              56.12001691                9.26239235               78.25961417                0.43857707                8.90720578                1.73310431              -12.59418244               -1.09245086              150.75828045               -5.27615895
              57.20355043                6.20265172               77.76745446                0.43993210                8.03625552                3.20585705              -15.36376421               -0.64500810              139.23259028               -6.62896476
              58.28074202                3.14330754               77.14918510                0.44357052                7.59276526                4.57273061              -18.23972235               -0.34760969              124.80289375               -8.33670495
              59.35540573                0.08651061               76.37072649                0.45038687                7.51417087                5.86861234              -21.24133690               -0.07568957              106.51662407              -10.52256343
              60.43102544               -2.96598516               75.38701726                0.46024147                7.79456067                7.09707266              -24.39032152                0.19413012               82.86743885              -13.51375623
              61.51129695               -6.01323478               74.13407294                0.47366493                8.46607528                8.24753624              -27.74157837                0.44716530               49.52122294              -18.01494307
              62.60034695               -9.05571772               72.48059755                0.74233095                8.90500001                9.34961894              -31.48278189                0.48231292               29.66597094              -30.20404979
              22.47498900               11.89290606               84.78327649                0.75891095               -1.57958704               -1.75618033                5.96949651               -0.46710869               -6.60896928                7.07621737
              23.45919313                8.69852350               83.96166174                0.48816469               -1.68286739               -1.01022620                4.01028657               -0.66688066               -8.94124024               -5.64320111
              24.44133165                5.49266322               83.09272561                0.45895346               -1.54489326               -0.56246032                2.08546304               -0.42992452               -9.02906960               -0.01619775
              25.42829526                2.26672498               82.26909699                0.44599312               -0.93633805                0.00477402                0.20811228               -0.40448219               -6.44874376               -0.35187789
              26.42260489               -0.97609519               81.45119060                0.44011440               -0.13859676                0.56576352               -1.72898267               -0.37280159               -5.91093190               -0.20705506
              27.42552332               -4.23020543               80.63781182                0.43982288                0.74349224                1.14393657               -3.70764319               -0.34647926               -5.66646536               -0.12050579
              28.43747473               -7.48867409               79.82466287                0.44542943                1.62787564                1.72853438               -5.71879047               -0.33006048               -5.90898050               -0.00521187
              29.45808084              -10.74508441               79.00692912                0.45691837                2.43818039                2.30275748               -7.74002511               -0.33041295               -6.68920413                0.10651955
              30.48623834              -13.99525145               78.17922404                0.47551400                3.12100458                2.86657191               -9.76214152               -0.32572920               -8.27541679                0.14041170
              31.52050093              -17.23795311               77.33134515                0.50059585                3.66660632                3.42375736              -11.76112176               -0.31892358               -8.72177104                0.96941945
              32.55957047              -20.47508390               76.49676827                0.76053414                3.90695368                4.01816371              -13.74959794               -0.45125807               -8.17152545               -5.34605411
              25.66470047               12.87534425               84.45538603                0.50491453               -1.20547328               -1.87248119                5.20226100               -0.34357846                5.51588999               11.22416619
              26.65264573                9.68842123               83.63075862                0.00010000               -0.58844022               -0.66369237                3.26897494               -0.81955288               12.35720707              -10.46392377
              27.65293166                6.48703862               82.94240559                0.00010000                0.29919562               -1.05867420                1.71604526               -2.04288805               18.47817539              -13.65141141
              28.65862965                3.26677272               82.23958901                0.00010000                0.72052068               -0.78712812               -0.00195236               -3.00685830               18.24603056              -20.07624441
              29.66734208                0.02956244               81.54676379                0.00010000                0.98591680               -0.30778597               -1.75847005               -3.58547257               18.87633646              -27.32676866
              30.67834798               -3.21876607               80.85726528                0.00010000                1.21357694                0.27745126               -3.58894776               -3.69389495               19.00324669              -35.40101145
              31.69161361               -6.47138875               80.16797352                0.00010000                1.48587028                0.87121391               -5.46181355               -3.33775162               18.74212348              -44.42681764
              32.70806539               -9.72205683               79.47409461                0.00010000                1.89008904                1.39609901               -7.34043543               -2.58262585               17.95923972              -54.58562668
              33.72941540              -12.96658573               78.76978335                0.00010000                2.45812634                1.82620171               -9.20498027               -1.54205385               16.82411136              -66.11373883
              34.75722792              -16.20371553               78.05384390                0.00010000                3.13866401                2.21947563              -11.06213810               -0.32305871               13.33714166              -79.37325128
              35.79218868              -19.43490226               77.28049606                0.49798191                3.49607607                2.51995027              -12.88556005                0.91635710               10.43280041              -97.67637278
              28.84196346               13.85545643               84.20970167                0.49240279               -1.08557615               -1.84579880                4.72645452               -0.09331474               -0.26324072               14.17290289
              29.83110770               10.68524965               83.20296881                0.00010000               -0.99205277               -0.25021061                2.35301277               -2.09778391               15.90378285              -13.40473946
              30.82212240                7.47148974               82.51920866                0.00010000               -0.27367132               -0.87532576                0.46041826               -4.96343526               31.05788106              -26.48135412
              31.82563427                4.25098241               81.81565865                0.00010000                0.71559079               -0.91828237               -1.49676675               -6.05233098               29.44674991              -39.37773390
              32.83643422                1.01774909               81.10018385                0.00010000                1.34811728               -0.56576493               -3.52109375               -6.93182410               28.14624824              -53.77088720
              33.85259662               -2.22465641               80.37162669                0.00010000                1.87881229               -0.03548630               -5.60523309               -7.09614779               26.45889681              -69.69700938
              34.87401047               -5.47124982               79.62361105                0.00010000                2.45143438                0.51767876               -7.74180072               -6.49756847               24.06547995              -87.47922420
              35.90162531               -8.71716243               78.84835244                0.00010000                3.15227469                0.97858671               -9.91317820               -5.22239499               20.82407076             -107.44867398
              36.93705596              -11.95872742               78.03647592                0.00010000                4.03654874                1.31192168              -12.09946878               -3.42939796               16.26735997             -129.97753784
              37.98235628              -15.19356359               77.17088393                0.00010000                5.16075510                1.57959007              -14.28667780               -1.48254770                9.22622706             -155.79178942
              39.04027106              -18.42468489               76.21910656                0.47447920                5.79147818                2.09909868              -16.52087625                0.17408245                4.81936054             -183.24074028
              32.00324774               14.83842828               83.94019431                0.49141094               -0.85909883               -1.58353901                4.15539240               -0.09642631                0.11533599               13.34893310
              32.99465675               11.68341702               82.81273454                0.00010000               -0.76587717               -0.11227542                1.55483493               -2.82464195               21.45639422              -11.41897042
              33.98793019                8.46953211               82.11183908                0.00010000               -0.16665343                0.15775131               -0.69013017               -5.72648662               42.15245554              -24.87692814
              34.99132368                5.24840707               81.39891802                0.00010000                0.82071123                0.27195809               -2.92525932               -6.31748653               40.44834092              -37.97761349
              36.00434442                2.01824714               80.66506504                0.00010000                1.70501255                0.58717496               -5.20321640               -6.81442280               37.91875008              -51.79561012
              37.02542393               -1.21947579               79.90304534                0.00010000                2.49119250                1.03772874               -7.54163212               -6.85732630               34.55816052              -66.95064509
              38.05416827               -4.46103517               79.10361851                0.00010000                3.28355814                1.53456373               -9.94148740               -6.33328310               30.19958381              -83.81459995
              39.09109509               -7.70248510               78.25591804                0.00010000                4.15301667                2.00863341              -12.39043559               -5.29776839               24.67577824             -102.72164022
              40.13722860              -10.94034730               77.34718476                0.00010000                5.12196703                2.44330603              -14.86743855               -3.88780661               17.75829075             -123.94037931
              41.19353443              -14.17212373               76.36202141                0.00010000                6.03421600                2.91532672              -17.35548698               -2.14350246                9.38218848             -147.29688601
              42.25791292              -17.39292029               75.28667291                0.47488526                6.43784871                3.88992798              -19.84151876               -0.90439042                4.82259026             -171.68547693
              35.15005744               15.82378565               83.67719706                0.48991460               -0.65464102               -1.35591362                3.62726333               -0.09283940                0.10229465               13.86335693
              36.14351103               12.68300414               82.42463527                0.00010000               -0.37274074                0.04805503                0.72818960               -3.26580375               27.53574492              -11.19247988
              37.14260263                9.47464477               81.72059660                0.00010000                0.35292368                0.75329508               -1.78828927               -6.44239744               54.18722242              -23.29530971
              38.15056950                6.25642158               81.00245640                0.00010000                1.27130015                1.16701365               -4.27700988               -6.77399709               52.01909203              -35.52222476
              39.16802863                3.02949259               80.25692241                0.00010000                2.20814533                1.54762563               -6.79040416               -6.95864072               48.51145931              -48.35623203
              40.19473241               -0.20390183               79.47079388                0.00010000                3.11627415                2.00233284               -9.36109634               -6.81048452               43.67384001              -62.35079012
              41.23035411               -3.44055854               78.63067496                0.00010000                4.01248270                2.52277609              -11.99900427               -6.26139813               37.48244821              -77.94792675
              42.27498206               -6.67698976               77.72257115                0.00010000                4.92921736                3.07820177              -14.69526079               -5.34023243               29.90052404              -95.49718391
              43.32893846               -9.90986130               76.73213802                0.00010000                5.85385762                3.66056001              -17.42821579               -4.07937683               20.95325244             -115.21357774
              44.39205922              -13.13525706               75.64587803                0.00010000                6.74189523                4.34480533              -20.17089209               -2.37722022               10.83242814             -137.07163184
              45.46377636              -16.34688633               74.45344103                0.47565714                7.17171466                5.17684004              -22.90184495               -0.99784266                5.50726836             -160.92549898
              38.28295397               16.81131000               83.41709512                0.48918867               -0.44724105               -1.14732206                3.09718775               -0.09293710                0.11630980               14.11103932
              39.27848156               13.68437812               82.03916752                0.00010000                0.13554203                0.23923382               -0.10240991               -3.52766369               34.30883675              -11.03269667
              40.28566481               10.48459801               81.34504748                0.00010000                1.12571793                1.18234251               -2.85298006               -6.90563743               67.56348830              -21.58046992
              41.30099592                7.27174734               80.63466649                0.00010000                1.99151019                1.77719193               -5.55076086               -7.17764851               64.89049154              -32.24973767
              42.32549501                4.04919966               79.88991726                0.00010000                2.91347256                2.25824488               -8.26130591               -7.13439864               60.41322237              -43.55378545
              43.35926537                0.82057086               79.09301645                0.00010000                3.82666100                2.77905401              -11.02647219               -6.76666233               54.17649678              -55.97120450
              44.40202823               -2.41057965               78.22638549                0.00010000                4.71639176                3.38555509              -13.86376755               -6.09886463               46.21888996              -69.93990678
              45.45359320               -5.64092107               77.27262090                0.00010000                5.59400645                4.06496997              -16.76809741               -5.16353877               36.59731621              -85.85165583
              46.51390836               -8.86713610               76.21501479                0.00010000                6.47109298                4.79773483              -19.71810967               -3.93990091               25.45308220             -104.04224083
              47.58301506              -12.08522762               75.03893486                0.00010000                7.36531256                5.55624518              -22.68602345               -2.27167057               13.08561922             -124.76848026
              48.66121461              -15.28938349               73.73385804                0.47631569                7.81995504                6.25405597              -25.65083556               -0.96625878                6.65433049             -148.19714302
              41.40206246               17.80083921               83.15835125                0.48854817               -0.23927059               -0.95509015                2.57079300               -0.09749284                0.13388235               14.18121580
              42.39966975               14.68778882               81.65459967                0.00010000                0.75290996                0.45438011               -0.94799757               -3.71099180               42.01058305              -11.03658073
              43.41712066               11.49829162               80.98843978                0.00010000                2.13725658                1.49710334               -3.87901136               -7.20712174               82.76861721              -19.50535711
              44.44241488                8.29196541               80.30362445                0.00010000                2.96982389                2.13513377               -6.73465453               -7.43234123               79.55460833              -28.12078399
              45.47651714                5.07465748               79.57725198                0.00010000                3.83817942                2.67775904               -9.59120694               -7.15461962               74.08718105              -37.41780755
              46.51917847                1.85167925               78.78722986                0.00010000                4.66758059                3.30145942              -12.50185537               -6.52538879               66.45749229              -47.84056662
              47.56986875               -1.37284744               77.91198831                0.00010000                5.45446322                4.04310464              -15.49125528               -5.68910932               56.72629105              -59.78942656
              48.62826774               -4.59569036               76.93016508                0.00010000                6.22891262                4.87189211              -18.55875666               -4.69316676               44.95305085              -73.70587957
              49.69444700               -7.81390660               75.82105938                0.00010000                7.03027266                5.74010383              -21.68637155               -3.50025574               31.29198070              -90.10873030
              50.76887319              -11.02413216               74.56634119                0.00010000                7.91579546                6.56633656              -24.85020460               -1.97906071               16.09984513             -109.55143980
              51.85276291              -14.22180521               73.15270982                0.47708556                8.38897187                7.20172399              -28.03527567               -0.83981494                8.20778012             -132.50106622
              44.50710490               18.79220820               82.89924098                0.48746194               -0.02955812               -0.77044640                2.04133124               -0.09974772                0.16470851               14.06790150
              45.50680931               15.69346573               81.26940141                0.00010000                1.51204401                0.68478893               -1.80560011               -3.89706928               50.91211220              -11.19159066
              46.53734578               12.51454007               80.65467935                0.00010000                3.45869539                1.64651392               -4.85819773               -7.40854737              100.31328416              -16.95921628
              47.57598322                9.31445002               80.01820478                0.00010000                4.26715057                2.16448136               -7.80735303               -7.46601228               96.46221827              -22.99481614
              48.62268879                6.10275484               79.33214468                0.00010000                5.01396460                2.75124455              -10.74912099               -6.79829251               89.93368069              -29.91171252
              49.67626251                2.88660005               78.57067096                0.00010000                5.64634334                3.54355418              -13.74832123               -5.88105448               80.90509888              -37.98236307
              50.73561565               -0.32971756               77.70883910                0.00010000                6.22632579                4.46205654              -16.83599348               -4.90566309               69.40956929              -47.49003672
              51.80078903               -3.54348322               76.72088543                0.00010000                6.83646925                5.45293006              -20.01642708               -3.89591828               55.37326612              -58.88840788
              52.87234504               -6.75233402               75.58007380                0.00010000                7.52717136                6.45872540              -23.27760182               -2.79937350               38.81441816              -72.89580729
              53.95133246               -9.95390089               74.26099533                0.00010000                8.37096938                7.38272491              -26.60375176               -1.53071472               20.07594870              -90.53031096
              55.03976443              -13.14534901               72.74412990                0.47794718                8.84319694                8.03713550              -29.98954451               -0.64580206               10.27810665             -112.76770920
              47.59755245               19.78543028               82.63798854                0.48699023                0.18440395               -0.58750627                1.50151423               -0.11244153                0.23698816               13.92686364
              48.59939649               16.70148460               80.88214664                0.00010000                2.52064819                0.92691922               -2.68010103               -4.21192241               61.35669724              -11.66097432
              49.64796542               13.53122189               80.34897615                0.00010000                5.27416910                1.38609791               -5.77323272               -7.56732381              120.77423322              -13.49988052
              50.70487987               10.33525504               79.78891182                0.00010000                6.02179173                1.64594912               -8.73771221               -6.86383722              116.00423413              -16.61101610
              51.76840125                7.12968238               79.16812415                0.00010000                6.45749522                2.50498587              -11.69684405               -5.70200401              108.23245607              -21.02473188
              52.83402978                3.92255033               78.46003448                0.00010000                6.67187539                3.55031439              -14.72247155               -4.60525052               97.87355809              -26.49825157
              53.90183876                0.71639369               77.63802562                0.00010000                6.94680280                4.67173078              -17.84910665               -3.66630520               84.78061055              -33.14487527
              54.97296584               -2.48663176               76.67207919                0.00010000                7.35192201                5.81665747              -21.08469929               -2.78254525               68.55907697              -41.35261143
              56.04887720               -5.68473209               75.52744956                0.00010000                7.91540209                6.94615392              -24.42513548               -1.89032561               48.78415251              -51.90279978
              57.13127388               -8.87647766               74.16569220                0.00010000                8.69329458                7.98956022              -27.86974600               -0.96722714               25.54126814              -66.40665901
              58.22274309              -12.06106250               72.55422914                0.47857392                9.14692141                8.76505314              -31.42944876               -0.40132822               13.19100355              -87.41220910
              50.67274744               20.78045807               82.37603559                0.48529329                0.40318165               -0.39297219                0.93997349               -0.12006922               -0.29245143               12.04545000
              51.67677925               17.71200411               80.48798584                0.00010000                3.97407083                1.16779495               -3.57767905               -4.95047506               73.87870334              -10.74670143
              52.75222885               14.54226203               80.08373862                0.00010000                8.17333716               -0.26745274               -6.58741230               -6.14971345              145.04949466               -7.82820375
              53.84024600               11.34736900               79.62932772                0.00010000                8.45622826                0.83796171               -9.48213665               -4.69969412              138.14935926               -8.81834161
              54.92135342                8.15285455               79.09819043                0.00010000                7.86000953                2.13242651              -12.39027818               -3.36521309              129.01303790              -10.90553623
              55.99744619                4.95760634               78.47023247                0.00010000                7.50591111                3.46214329              -15.37903348               -2.58180498              117.64378733              -13.66198115
              57.07147164                1.76371706               77.71860732                0.00010000                7.44088620                4.75971717              -18.48084743               -1.97405097              103.40229532              -17.09163030
              58.14626391               -1.42715007               76.81016082                0.00010000                7.64563910                6.01664028              -21.70432884               -1.43302824               85.53415185              -21.42155311
              59.22438442               -4.61341095               75.70283432                0.00010000                8.10272054                7.22297260              -25.05127620               -0.89863187               62.81844897              -27.19129929
              60.30831832               -7.79410969               74.33920797                0.00010000                8.82615646                8.34824790              -28.54347591               -0.40405704               33.81125325              -35.71180307
              61.40090755              -10.97004794               72.64890149                0.47930684                9.25892300                9.32412696              -32.24058747               -0.18231240               17.66392051              -52.00643525
              53.73205900               21.77757084               82.07733676                0.74225448                0.65240356               -0.28872366                0.27502825                0.65812179                5.42194513               10.18889660
              54.73858303               18.72484050               80.11946155                0.46220209                7.87736296                1.28363851               -4.43009209               -6.40452188               91.78990843               -9.48619157
              55.88960626               15.52587284               79.88940728                0.44408837               13.08552178               -1.63891921               -7.22338837               -4.90357057              171.94890801               -4.00048236
              57.00029347               12.35201428               79.55226316                0.44026258               10.06266966                0.46452758               -9.99000401               -1.67234944              161.82492225               -4.44379474
              58.09085965                9.17233091               79.13270834                0.43896319                8.56188541                1.94763514              -12.78755379               -1.06043082              152.16432220               -5.43525415
              59.17153118                5.99179320               78.61234912                0.43969683                7.81272510                3.41868569              -15.67747052               -0.62864450              140.40068219               -6.82040023
              60.24711415                2.81158804               77.96479051                0.44333566                7.49510470                4.78709794              -18.68758112               -0.34035641              125.75619044               -8.56303514
              61.32143327               -0.36629896               77.15581479                0.44899201                7.53750122                6.08511186              -21.82241159               -0.07609788              107.29591830              -10.78987007
              62.39786418               -3.54027264               76.14022098                0.45748407                7.91982308                7.31383032              -25.08228208                0.18728822               83.49872695              -13.83489021
              63.47982973               -6.70951270               74.85357833                0.46972621                8.65545862                8.45969900              -28.49413119                0.43577504               49.94174279              -18.41438339
              64.57097335               -9.87457996               73.16287561                0.73978614                9.11436165                9.54679797              -32.20382945                0.49985336               29.99019964              -30.79941793
              23.23980053               12.29588272               85.84231285                0.75444112               -1.54106017               -1.71305423                5.82455712               -0.45745564               -6.71150179                7.17317685
              24.22438993                8.97620552               85.00129931                0.48228662               -1.65374062               -0.98424638                3.91060527               -0.67221855               -9.01352289               -5.74262736
              25.20672572                5.64493283               84.11341552                0.45698870               -1.51823235               -0.55370244                2.05071390               -0.41879974               -9.04003731                0.03082556
              26.19402528                2.29382503               83.27130543                0.44580331               -0.90448304               -0.00188761                0.23420661               -0.38009388               -6.45239027               -0.34353458
              27.18863605               -1.07358184               82.43428389                0.44026578               -0.11949928                0.55293126               -1.63628973               -0.34955851               -5.95156178               -0.19722265
              28.19163529               -4.45155526               81.60145950                0.43946061                0.73392885                1.12092387               -3.54853074               -0.34488722               -5.73783388               -0.12448739
              29.20331463               -7.83345236               80.76853443                0.44440731                1.58442741                1.68874575               -5.49594311               -0.34013821               -6.01309378               -0.02267241
              30.22332384              -11.21336422               79.93075748                0.45475829                2.36611406                2.25265304               -7.46375997               -0.33104608               -6.80917761                0.07820580
              31.25063691              -14.58741561               79.08318547                0.47110974                3.02284534                2.80428754               -9.41482944               -0.32790600               -8.39156374                0.11348872
              32.28378075              -17.95456793               78.21562621                0.49314448                3.54796150                3.34923094              -11.36567680               -0.32493559               -8.85531813                0.91719071
              33.32159614              -21.31698337               77.36119805                0.75611929                3.78153943                3.94110859              -13.32435772               -0.40814088               -8.34156599               -5.40626171
              26.55490318               13.27875218               85.50684077                0.49713479               -1.17604875               -1.83054190                5.07891091               -0.34228645                5.66255256               11.47774077
              27.54314269                9.96636305               84.66306667                0.00010000               -0.55876082               -0.64040787                3.18562469               -0.83334197               12.69853675              -10.64220524
              28.54372796                6.63939580               83.95936053                0.00010000                0.31694924               -1.04334566                1.66828151               -2.06302615               18.91446348              -14.03440920
              29.54948167                3.29380616               83.23949622                0.00010000                0.70513292               -0.75943039               -0.01761718               -3.01549232               18.56250993              -20.69433578
              30.55783062               -0.06805253               82.52915668                0.00010000                0.93200051               -0.26581637               -1.75628181               -3.57336460               19.13201096              -28.16017409
              31.56812168               -3.44034602               81.82151232                0.00010000                1.14935551                0.32127604               -3.55752053               -3.66953389               19.20261587              -36.44702599
              32.58081773               -6.81656491               81.11364613                0.00010000                1.44366589                0.90726896               -5.41029220               -3.31664588               18.89867259              -45.68776746
              33.59699500              -10.19083769               80.40094715                0.00010000                1.85709910                1.42750814               -7.27164410               -2.58125720               18.11364291              -56.06680238
              34.61795971              -13.55937273               79.67820484                0.00010000                2.41601364                1.85666229               -9.11467533               -1.56738306               16.98704501              -67.83525815
              35.64531527              -16.92107562               78.94380368                0.00010000                3.09852292                2.24978060              -10.94583949               -0.37710892               13.50703812              -81.35382678
              36.67993017              -20.27757228               78.15223075                0.49103469                3.46148941                2.58796278              -12.76503057                0.84693292               10.61331083              -99.95270022
              29.85773305               14.25927188               85.25650677                0.48616075               -1.06535863               -1.80210277                4.62108682               -0.08947566               -0.30697962               14.54737281
              30.84707946               10.96339736               84.22629722                0.00010000               -0.98554816               -0.24020792                2.30790664               -2.09636681               16.09973671              -13.62025821
              31.83802209                7.62406591               83.52375602                0.00010000               -0.29578514               -0.86171142                0.45061879               -4.95932619               31.45158084              -27.23730465
              32.84116376                4.27863643               82.80075996                0.00010000                0.66494284               -0.87247573               -1.47700411               -6.02335519               29.75114103              -40.57722208
              33.85132094                0.92110183               82.06512976                0.00010000                1.27966168               -0.48958975               -3.48369540               -6.87750379               28.35193664              -55.39632793
              34.86675699               -2.44512974               81.31575228                0.00010000                1.80762174                0.05897921               -5.56435284               -7.02191912               26.57103918              -71.73550510
              35.88747338               -5.81530699               80.54634212                0.00010000                2.38747626                0.62229777               -7.70834026               -6.42952830               24.10751407              -89.93649259
              36.91450652               -9.18481406               79.74937713                0.00010000                3.10269038                1.09038410               -9.89180325               -5.19085091               20.82494470             -110.33943616
              37.94952719              -12.55028236               78.91561252                0.00010000                3.99658011                1.43548090              -12.08835432               -3.44334082               16.26033064             -133.33990253
              38.99443812              -15.90957232               78.02818734                0.00010000                5.10004649                1.72265181              -14.27417917               -1.52121503                9.22129150             -159.64611193
              40.05152812              -19.26522411               77.05423988                0.47022465                5.70899941                2.27521974              -16.47303856                0.13414468                4.83306841             -187.62386173
              33.14486271               15.24271012               84.98137364                0.48529003               -0.84413875               -1.53310056                4.07204264               -0.09783853                0.11200706               13.71167699
              34.13642132               11.96155889               83.82816391                0.00010000               -0.77801707               -0.12020965                1.52631797               -2.79961309               21.63143525              -11.59857872
              35.12930237                8.62216157               83.10500207                0.00010000               -0.22213367                0.15444923               -0.67058210               -5.66735623               42.48849608              -25.56181531
              36.13197865                5.27635664               82.36983877                0.00010000                0.73721706                0.29014162               -2.87820347               -6.22443490               40.72907759              -39.10653581
              37.14404671                1.92215568               81.61323196                0.00010000                1.60567347                0.63276945               -5.15049937               -6.70308980               38.09623556              -53.33435678
              38.16409212               -1.43916644               80.82777968                0.00010000                2.39323833                1.10908941               -7.50442844               -6.74536521               34.62254874              -68.88846200
              39.19191148               -4.80411895               80.00425914                0.00010000                3.20306190                1.62739727               -9.93534813               -6.23703397               30.16676156              -86.15550195
              40.22815336               -8.16903001               79.13195235                0.00010000                4.09698410                2.11814024              -12.42220161               -5.23034721               24.58386055             -105.48291457
              41.27385116              -11.53066311               78.19837402                0.00010000                5.08396848                2.56881888              -14.93166357               -3.85468466               17.65580236             -127.14154907
              42.32983273              -14.88662259               77.18834367                0.00010000                6.00327422                3.05954224              -17.43125175               -2.13723147                9.31551408             -150.96282325
              43.39391664              -18.23206789               76.08828685                0.47049244                6.40839163                4.02167018              -19.89099915               -0.87606390                4.81083900             -175.81764267
              36.41807874               16.22860987               84.71322412                0.48475996               -0.64429851               -1.30822110                3.56123284               -0.10442242                0.08536621               14.25487824
              37.41163575               12.96099317               83.43187148                0.00010000               -0.41007619                0.03150365                0.71758773               -3.21492053               27.71338906              -11.38903766
              38.40987721                9.62715490               82.70285658                0.00010000                0.25226029                0.73738589               -1.75031421               -6.32732915               54.53673908              -23.94934565
              39.41668096                6.28443926               81.95990526                0.00010000                1.14525084                1.17067506               -4.21641995               -6.62284018               52.31440948              -36.58256064
              40.43278223                2.93375722               81.18921312                0.00010000                2.07216805                1.58089602               -6.73534578               -6.79411608               48.69814292              -49.79219471
              41.45812432               -0.42294795               80.37725867                0.00010000                2.99070180                2.06569306               -9.33850415               -6.65282222               43.73096604              -64.15102687
              42.49259627               -3.78275904               79.51057603                0.00010000                3.91597081                2.61181879              -12.02904839               -6.12565436               37.42480035              -80.11684779
              43.53644374               -7.14245125               78.57531014                0.00010000                4.87149035                3.18860303              -14.78623921               -5.23502689               29.77146142              -98.04952516
              44.59002607              -10.49890598               77.55739215                0.00010000                5.83272664                3.78912679              -17.57252259               -4.00644782               20.81337266             -118.17227556
              45.65309827              -13.84838148               76.44366068                0.00010000                6.74356814                4.48369514              -20.34227192               -2.33618174               10.74244729             -140.46242920
              46.72489744              -17.18479071               75.22404550                0.47103691                7.17991682                5.30881417              -23.05383270               -0.95455043                5.48629702             -164.77831904
              39.67800767               17.21654570               84.44790618                0.48340580               -0.44297860               -1.11687585                3.06160518               -0.10364926                0.10882865               14.51633180
              40.67357789               13.96218897               83.03820214                0.00010000                0.06510103                0.22228196               -0.09846858               -3.44846325               34.52278485              -11.24468329
              41.67930969               10.63690929               82.31669489                0.00010000                0.96708172                1.16397039               -2.80546449               -6.73698456               67.98107747              -22.21041872
              42.69291952                7.29977014               81.57937027                0.00010000                1.81209536                1.78310941               -5.48940595               -6.96990619               65.25600424              -33.23646777
              43.71555160                3.95377360               80.80743271                0.00010000                2.73162072                2.29661709               -8.21789175               -6.92005759               60.65969236              -44.86568143
              44.74755194                0.60214742               79.98268808                0.00010000                3.66750433                2.84938922              -11.03226456               -6.56995006               54.27712638              -57.59730299
              45.78890169               -2.75188258               79.08741463                0.00010000                4.60239126                3.48321087              -13.94241667               -5.93322411               46.18720745              -71.88574371
              46.83959976               -6.10525795               78.10431553                0.00010000                5.53753697                4.18475176              -16.92941309               -5.03364133               36.48066047              -88.13497387
              47.89965243               -9.45488058               77.01696988                0.00010000                6.46970290                4.93469732              -19.95300869               -3.84575116               25.31837250             -106.68997391
              48.96899382              -12.79694869               75.81110431                0.00010000                7.39958356                5.70495824              -22.96329588               -2.21780066               12.99849150             -127.81655020
              50.04764410              -16.12589160               74.47648696                0.47184028                7.86502791                6.40856754              -25.91609972               -0.91624081                6.63789147             -151.69263531
              42.92471922               18.20627235               84.18398247                0.48247588               -0.24163223               -0.93789763                2.56068373               -0.09331370                0.13358896               14.60762588
              43.92230290               14.96543881               82.64526386                0.00010000                0.64185625                0.43449612               -0.92448356               -3.59961258               42.29485469              -11.27497556
              44.93755635               11.65043430               81.94982836                0.00010000                1.90578145                1.48962082               -3.83093230               -6.98878933               83.31629073              -20.10223228
              45.96041853                8.32010145               81.23642802                0.00010000                2.72237280                2.16247396               -6.68461604               -7.17588086               80.04870494              -29.01440614
              46.99200380                4.97968956               80.48134012                0.00010000                3.59814823                2.74245433               -9.57344246               -6.90539674               74.44806073              -38.57384209
              48.03238149                1.63403983               79.66194248                0.00010000                4.46666754                3.39781805              -12.55046329               -6.30866075               66.65187928              -49.25034412
              49.08133715               -1.71309482               78.75645069                0.00010000                5.31937086                4.16437496              -15.63249859               -5.51420771               56.76696555              -61.46153993
              50.13876891               -5.05875622               77.74357120                0.00010000                6.17323183                5.01269295              -18.80342425               -4.56023411               44.88969480              -75.66183414
              51.20480179               -8.40021204               76.60286798                0.00010000                7.04921872                5.89631578              -22.02357145               -3.40644732               31.19412265              -92.38144713
              52.27975328              -11.73428231               75.31634785                0.00010000                7.98283342                6.73597672              -25.24339674               -1.92647098               16.03330132             -112.18581027
              53.36445846              -15.05661936               73.87095874                0.47246416                8.47051743                7.38757732              -28.42137454               -0.79018033                8.20482264             -135.55619232
              46.15780850               19.19778775               83.91974671                0.48160708               -0.03848123               -0.76656316                2.06573212               -0.09471506                0.16174212               14.49209031
              47.15742369               15.97087889               82.25151943                0.00010000                1.35313841                0.66490095               -1.77364711               -3.75234227               51.29998011              -11.44615990
              48.18487127               12.66670171               81.60624835                0.00010000                3.13614800                1.66610866               -4.81551706               -7.13905711              101.05863568              -17.50682132
              49.22014665                9.34301962               80.94017068                0.00010000                3.93170079                2.23850906               -7.77965964               -7.17591168               97.14533817              -23.76008520
              50.26350528                6.00862268               80.22446681                0.00010000                4.70082303                2.86593927              -10.76998094               -6.54181319               90.46120326              -30.86701575
              51.31416311                2.67010378               79.43264898                0.00010000                5.39541494                3.68404674              -13.85386150               -5.67434084               81.23834945              -39.12446814
              52.37141358               -0.66859508               78.53949443                0.00010000                6.06745925                4.62133356              -17.05438390               -4.74893498               69.56233908              -48.83145159
              53.43551229               -4.00500409               77.51926488                0.00010000                6.78179975                5.62676066              -20.35878393               -3.78374424               55.39695454              -60.45342068
              54.50704958               -7.33695426               76.34544238                0.00010000                7.56797153                6.64425734              -23.73035496               -2.72529136               38.77845135              -74.72144809
              55.58687172              -10.66222915               74.99289179                0.00010000                8.47325037                7.57987653              -27.12373496               -1.49140011               20.04313196              -92.66911547
              56.67651458              -13.97814006               73.44226334                0.47320943                8.96428611                8.25371301              -30.50330093               -0.60146090               10.29542445             -115.28817969
              49.37664264               20.19094109               83.65316605                0.48060098                0.16994571               -0.59362140                1.54906184               -0.09129601                0.24698609               14.33713399
              50.37834210               16.97873682               81.85564782                0.00010000                2.29959158                0.90540268               -2.63259927               -4.01958118               61.89068941              -11.94024537
              51.42263447               13.68375648               81.29132205                0.00010000                4.83186105                1.46385235               -5.74317232               -7.24535045              121.78709768              -13.95915635
              52.47497932               10.36487163               80.70142681                0.00010000                5.57244546                1.80155683               -8.74052006               -6.57806663              116.93641921              -17.19368783
              53.53408338                7.03700835               80.05073213                0.00010000                6.05665600                2.68718554              -11.76689573               -5.48336662              108.96989202              -21.72061740
              54.59611244                3.70772077               79.31194151                0.00010000                6.36914721                3.74675557              -14.89761078               -4.44613199               98.38222911              -27.31351400
              55.66146632                0.37933185               78.45812128                0.00010000                6.76703859                4.87889086              -18.15926049               -3.55451143               85.07927057              -34.09328257
              56.73145321               -2.94622100               77.45924998                0.00010000                7.30273510                6.03309584              -21.54092324               -2.70993549               68.70154736              -42.45695336
              57.80752103               -6.26732689               76.28073577                0.00010000                7.98289353                7.17004809              -25.01038704               -1.84900358               48.83598479              -53.19810584
              58.89111108               -9.58268478               74.88427956                0.00010000                8.83650138                8.21984087              -28.53227724               -0.94865115               25.55634536              -67.94873513
              59.98425105              -12.89154510               73.23733473                0.47388109                9.31399743                9.00754854              -32.08202597               -0.36514847               13.23665353              -89.28663202
              52.58039111               21.18591532               83.38577731                0.48007343                0.38255639               -0.40055846                1.02326858               -0.10492319               -0.29508697               12.39114975
              53.58421668               17.98898694               81.45250543                0.00010000                3.67191711                1.13847690               -3.52703430               -4.68060661               74.61490427              -11.02361699
              54.65382945               14.69597875               81.01787932                0.00010000                7.55583833               -0.04548713               -6.57012736               -5.85268698              146.42453239               -8.11770231
              55.73533344               11.37905076               80.53422893                0.00010000                7.85796791                1.08252808               -9.51896152               -4.49939905              139.36815268               -9.14171041
              56.81098881                8.06236639               79.97359506                0.00010000                7.37917620                2.38215530              -12.51564779               -3.24389246              129.98633778              -11.27822495
              57.88291697                4.74503889               79.31519340                0.00010000                7.16381545                3.71448294              -15.63389170               -2.50070945              118.35299029              -14.09122021
              58.95426512                1.42898274               78.53188709                0.00010000                7.25276761                5.01743013              -18.89708317               -1.92236120              103.87685605              -17.58682404
              60.02797232               -1.88434217               77.59052082                0.00010000                7.61340805                6.28131459              -22.29291772               -1.40478106               85.83311591              -21.99704007
              61.10653328               -5.19355330               76.44914453                0.00010000                8.20722947                7.49352937              -25.79183641               -0.88873743               63.00098710              -27.86985254
              62.19211691               -8.49783233               75.05028617                0.00010000                9.01994821                8.62108057              -29.37471246               -0.40348463               33.90351956              -36.53251282
              63.28693225              -11.79798909               73.32315732                0.47452554                9.48153380                9.59453821              -33.05470832               -0.15040951               17.75443427              -53.06775090
              55.76840093               22.18292992               83.08052659                0.73995515                0.62656004               -0.29853986                0.37437471                0.65862586                5.55963523               10.47103627
              56.77466653               19.00150636               81.07541888                0.45945087                7.35579918                1.25194194               -4.36174531               -5.95917388               92.87267873               -9.74222483
              57.91551691               15.68284673               80.81715916                0.44332836               12.19685820               -1.31320186               -7.21349346               -4.58046268              173.69746832               -4.11422544
              59.01860369               12.38652219               80.45193296                0.43995629                9.38502413                0.74714293              -10.05471925               -1.58273884              163.31945676               -4.58002908
              60.10321740                9.08465145               80.00386310                0.43860264                8.04391039                2.22850593              -12.96831010               -1.00272982              153.37639843               -5.59544143
              61.17948190                5.78201042               79.45390505                0.43972663                7.45913840                3.69715304              -16.01905035               -0.59205658              141.32476227               -7.00864549
              62.25240016                2.47968045               78.77543347                0.44255788                7.32058620                5.06977107              -19.22383727               -0.31675245              126.43531462               -8.78201194
              63.32589363               -0.82059471               77.93427826                0.44771327                7.54181376                6.37474594              -22.56412650               -0.06470686              107.80066685              -11.04607743
              64.40323644               -4.11745630               76.88537161                0.45558899                8.07917742                7.60969975              -26.00660526                0.18689287               83.89380623              -14.14090698
              65.48747717               -7.41026317               75.56419031                0.46610596                8.91599648                8.75691637              -29.53458216                0.42612504               50.21496230              -18.79259338
              66.58155637              -10.69965433               73.83652096                0.73759044                9.40791946                9.83347534              -33.23159785                0.52329597               30.23274422              -31.35090081
              24.02278605               12.70731376               86.89976763                0.75009358               -1.49660520               -1.66086102                5.65425818               -0.44638828               -6.80310962                7.26891856
              25.00782000                9.26013622               86.03987385                0.47705019               -1.61306393               -0.95569989                3.79389381               -0.66853199               -9.06579654               -5.83892728
              25.99052478                5.80138971               85.13373989                0.45441024               -1.47204618               -0.53797757                2.01220351               -0.40651368               -9.01824237                0.07189705
              26.97837908                2.32347272               84.27378112                0.44485037               -0.85525971               -0.00412474                0.26576325               -0.38828436               -6.41315825               -0.33366406
              27.97341958               -1.16978521               83.41846481                0.44021104               -0.09314830                0.52983105               -1.52477654               -0.35901517               -5.94690176               -0.19662333
              28.97651611               -4.67280081               82.56684120                0.43988511                0.72476470                1.08014399               -3.35577848               -0.33881266               -5.77064780               -0.12497024
              29.98791488               -8.17935094               81.71474401                0.44365168                1.53650658                1.63991530               -5.22997120               -0.33120600               -6.07365853               -0.04044776
              31.00724625              -11.68389964               80.85765392                0.45286205                2.28117314                2.18871041               -7.12041672               -0.33014564               -6.87914026                0.06185058
              32.03353834              -15.18302043               79.99092745                0.46660689                2.90678678                2.73024744               -9.00832267               -0.32708754               -8.47985953                0.07493527
              33.06538198              -18.67596424               79.10403162                0.48684753                3.40285563                3.26110410              -10.89417504               -0.31662580               -8.97234700                0.88377832
              34.10159545              -22.16527452               78.23028112                0.75157701                3.62134706                3.82764333              -12.76613718               -0.33049742               -8.49020838               -5.44987210
              27.46549971               13.69070515               86.55696425                0.49036652               -1.14030058               -1.77213737                4.93034801               -0.33974700                5.79714328               11.72364209
              28.45409671               10.25057922               85.69447111                0.00010000               -0.53541623               -0.61944838                3.08669205               -0.83310177               13.02537214              -10.80452995
              29.45479139                6.79600993               84.97577122                0.00010000                0.29934950               -1.01437991                1.60605178               -2.04906240               19.33096317              -14.39078876
              30.46008370                3.32343147               84.23923667                0.00010000                0.65874028               -0.71886492               -0.04129074               -2.97962810               18.83787302              -21.26373798
              31.46796619               -0.16448690               83.51163815                0.00010000                0.89135762               -0.22337708               -1.74994074               -3.51848962               19.32591373              -28.93216814
              32.47791085               -3.66199937               82.78611487                0.00010000                1.10930173                0.35834658               -3.51477349               -3.60879779               19.33364035              -37.41849610
              33.49015223               -7.16295179               82.05976768                0.00010000                1.39343407                0.93791330               -5.34383343               -3.26960695               19.00728630              -46.86579000
              34.50577953              -10.66201253               81.32866172                0.00010000                1.80737684                1.44716447               -7.18082085               -2.55793086               18.21719378              -57.46755851
              35.52629977              -14.15571795               80.58748984                0.00010000                2.37816192                1.86628909               -9.01399069               -1.57133216               17.10179390              -69.47664105
              36.55334277              -17.64335320               79.83492711                0.00010000                3.06504953                2.24692119              -10.81354926               -0.42536807               13.63477552              -83.23918764
              37.58760076              -21.12699809               79.02519545                0.48452073                3.42579867                2.60281491              -12.58141403                0.79710632               10.72559395             -102.10084914
              30.89624298               14.67187101               86.30212341                0.48008828               -1.03897928               -1.73803413                4.48760163               -0.09199429               -0.35105292               14.91841175
              31.88585318               11.24774725               85.24912694                0.00010000               -0.97758496               -0.23540190                2.24667532               -2.06042891               16.28341009              -13.82070355
              32.87669128                7.78110211               84.52822104                0.00010000               -0.32849138               -0.84073459                0.44683065               -4.87089833               31.82417389              -27.92956613
              33.87928336                4.30909542               83.78611857                0.00010000                0.58946775               -0.81502082               -1.43996636               -5.88816161               30.02008320              -41.67503950
              34.88848063                0.82574724               83.03050994                0.00010000                1.17608434               -0.40182228               -3.42756917               -6.71836411               28.50217010              -56.88998906
              35.90280504               -2.66563388               82.26033964                0.00010000                1.70276342                0.16239747               -5.50987294               -6.87015193               26.60899381              -73.62707887
              36.92253590               -6.16059267               81.46944425                0.00010000                2.30243752                0.72863323               -7.67074759               -6.30719322               24.05535359              -92.23333116
              37.94885379               -9.65495635               80.65051637                0.00010000                3.04582321                1.19680661               -9.88472234               -5.11120404               20.72661364             -113.07768082
              38.98345236              -13.14569465               79.79470883                0.00010000                3.96504813                1.53800235              -12.10889828               -3.42079557               16.16371959             -136.54313874
              40.02815476              -16.63102582               78.88540035                0.00010000                5.06874941                1.82498315              -14.30772242               -1.54672317                9.15645785             -163.33844906
              41.08482735              -20.11321822               77.88964579                0.46608641                5.66725971                2.39596627              -16.47882871                0.11288876                4.82605579             -191.82778711
              34.31190735               15.65594447               86.02163516                0.47941895               -0.82503217               -1.47601665                3.97049679               -0.09597562                0.10021603               14.08192265
              35.30365703               12.24587118               84.84326089                0.00010000               -0.79410496               -0.12810493                1.48877628               -2.72280276               21.79823277              -11.78149472
              36.29602525                8.77919524               84.09842743                0.00010000               -0.29908486                0.14314564               -0.63365802               -5.50638865               42.81686166              -26.19560676
              37.29767533                5.30713106               83.34135395                0.00010000                0.61514793                0.30717182               -2.79808106               -6.02503965               40.97559096              -40.14506469
              38.30832821                1.82747665               82.56205505                0.00010000                1.45861990                0.68503530               -5.06303216               -6.48625155               38.20629930              -54.75417971
              39.32684773               -1.65875142               81.75295677                0.00010000                2.25013112                1.19015532               -7.44458259               -6.53359991               34.58691998              -70.68956402
              40.35333083               -5.14837912               80.90491155                0.00010000                3.09048449                1.72708433               -9.93152903               -6.05311158               30.01148282              -88.35245517
              41.38865742               -8.63807640               80.00747401                0.00010000                4.03112459                2.23064515              -12.48965224               -5.09187016               24.36190643             -108.09655482
              42.43395333              -12.12495791               79.04855149                0.00010000                5.06372320                2.68959877              -15.06861692               -3.76870664               17.43737835             -130.19869079
              43.48993189              -15.60685354               78.01339638                0.00010000                6.01450081                3.18797679              -17.61119525               -2.10104026                9.17701192             -154.48849391
              44.55424334              -19.07907876               76.88885293                0.46632242                6.43114570                4.12826999              -20.05541887               -0.82725701                4.76536054             -179.81861199
              37.71447004               16.64235068               85.74842172                0.47819799               -0.63236826               -1.25330920                3.48719478               -0.08498955                0.08427246               14.67239509
              38.70814635               13.24518515               84.43898702                0.00010000               -0.45832025                0.01104471                0.70139518               -3.09470728               27.89878272              -11.60209299
              39.70530363                9.78396503               83.68559032                0.00010000                0.11774009                0.71113046               -1.68716539               -6.09266612               54.88584312              -24.56737391
              40.71050115                6.31523886               82.91812800                0.00010000                0.96672231                1.16820872               -4.11154366               -6.34071094               52.57696458              -37.57121835
              41.72463808                2.83944795               82.12221550                0.00010000                1.87438320                1.61411844               -6.63552147               -6.50133964               48.81038229              -51.12849395
              42.74798882               -0.64183077               81.28402380                0.00010000                2.80802860                2.13462060               -9.28911182               -6.37603493               43.67380502              -65.83253649
              43.78079865               -4.12605099               80.39009399                0.00010000                3.78031768                2.71049696              -12.06642703               -5.88492840               37.22432926              -82.15694336
              44.82359517               -7.61034344               79.42684637                0.00010000                4.80283603                3.30973978              -14.93032291               -5.04289707               29.49123405             -100.47169640
              45.87685537              -11.09190267               78.38068757                0.00010000                5.83298177                3.92732458              -17.81948629               -3.86945673               20.54159970             -121.00490179
              46.94025481              -14.56726628               77.23903259                0.00010000                6.79386465                4.63038691              -20.65810826               -2.26071141               10.57226136             -143.73528868
              48.01273266              -18.03065282               75.99236438                0.46718260                7.24778546                5.44646658              -23.37003471               -0.89046419                5.42831701             -168.52366879
              41.10453862               17.63087828               85.47832723                0.47839340               -0.43900767               -1.05997429                3.02209598               -0.09354971                0.09960332               14.95138428
              42.10014854               14.24609208               84.03719815                0.00010000               -0.02101954                0.18934336               -0.10199304               -3.29429109               34.74793488              -11.47057231
              43.10411823               10.79341785               83.28893819                0.00010000                0.76148244                1.13642470               -2.72763481               -6.43090786               68.40806097              -22.82097256
              44.11537819                7.33049523               82.52487837                0.00010000                1.56264110                1.78190139               -5.37682643               -6.61413850               65.58951617              -34.17281963
              45.13537105                3.85975902               81.72555943                0.00010000                2.47238914                2.33492955               -8.12407877               -6.56142146               60.82646904              -46.10117562
              46.16482597                0.38394099               80.87237116                0.00010000                3.43869452                2.92711182              -11.01001816               -6.24057634               54.25183738              -59.12803490
              47.20414494               -3.09416918               79.94753716                0.00010000                4.44125948                3.59464748              -14.03419425               -5.65209536               45.99666960              -73.72544167
              48.25365116               -6.57188160               78.93403264                0.00010000                5.46710456                4.32335253              -17.15809494               -4.80965341               36.19560095              -90.30921307
              49.31348703              -10.04641141               77.81595461                0.00010000                6.49083249                5.09473109              -20.31355823               -3.68333823               25.03713520             -109.23213076
              50.38346781              -13.51424580               76.57966894                0.00010000                7.48600553                5.88152187              -23.41616150               -2.12721839               12.82290020             -130.76632757
              51.46320714              -16.97014943               75.21553605                0.46740608                7.97393293                6.59736914              -26.38375922               -0.84511709                6.57995196             -155.09809136
              44.48217146               18.62115119               85.20956493                0.47703288               -0.24504940               -0.90059266                2.56102320               -0.10513293                0.13442414               15.05295895
              45.47972096               15.24897202               83.63611000                0.00010000                0.50554313                0.40332496               -0.91452825               -3.41494654               42.58906031              -11.52315534
              46.49228232               11.80669352               82.91182113                0.00010000                1.60781272                1.47460521               -3.74921354               -6.61730614               83.87346401              -20.69530578
              47.51187722                8.35087689               82.16993213                0.00010000                2.38407832                2.18771454               -6.57996434               -6.76268209               80.50988833              -29.87983555
              48.53996389                4.88614654               81.38578314                0.00010000                3.26141395                2.81317454               -9.50346221               -6.50509599               74.72226691              -39.67860644
              49.57710550                1.41671146               80.53622059                0.00010000                4.18077261                3.50853349              -12.57302274               -5.95643358               66.70774922              -50.59032762
              50.62357934               -2.05415804               79.59933833                0.00010000                5.12694191                4.30759970              -15.79444980               -5.22431262               56.63197057              -63.05201052
              51.67964433               -5.52387639               78.55409659                0.00010000                6.09867311                5.18255967              -19.12964361               -4.33605006               44.63979967              -77.53115520
              52.74555280               -8.99000805               77.38058795                0.00010000                7.09020615                6.08903201              -22.50734646               -3.24796661               30.93419606              -94.56765116
              53.82144846              -12.44963585               76.06147326                0.00010000                8.10423915                6.95154445              -25.83937562               -1.83955337               15.86935312             -114.73564913
              54.90763758              -15.89870544               74.58428233                0.46816399                8.61891261                7.63304204              -29.04277187               -0.72082560                8.15573802             -138.52700418
              47.84679431               19.61286643               84.94055562                0.47633218               -0.04870232               -0.75044158                2.09654172               -0.10292626                0.15436050               14.93994614
              48.84630728               16.25415858               83.23392847                0.00010000                1.15364650                0.63608354               -1.74461210               -3.53115771               51.69698532              -11.72157237
              49.86986724               12.82290996               82.55836901                0.00010000                2.71821200                1.68571356               -4.73876495               -6.71314984              101.81106278              -18.06298601
              50.90067152                9.37424952               81.86261159                0.00010000                3.47836554                2.32230744               -7.69653250               -6.72832451               97.78907594              -24.51796545
              51.93943455                5.91602251               81.11674506                0.00010000                4.26651779                2.99976140              -10.73985660               -6.14086755               90.89025931              -31.79466489
              52.98600188                2.45411166               80.29359373                0.00010000                5.04059978                3.85120868              -13.93822480               -5.34299922               81.41533014              -40.22139291
              54.04024654               -1.00801719               79.36775142                0.00010000                5.83891443                4.81467073              -17.30340791               -4.49028536               69.51738037              -50.11531179
              55.10278017               -4.46823041               78.31370976                0.00010000                6.70203025                5.84248124              -20.79844434               -3.59378119               55.21102441              -61.95387425
              56.17428715               -7.92463077               77.10546670                0.00010000                7.62969837                6.88058446              -24.35121013               -2.59849951               38.56081702              -76.47871028
              57.25537414              -11.37521491               75.71852063                0.00010000                8.63213350                7.83945523              -27.87301193               -1.42522259               19.90161706              -94.73444095
              58.34692982              -14.81748859               74.13406388                0.46849764                9.15556825                8.55081624              -31.28259498               -0.54095626               10.26069412             -117.72372109
              51.19752864               20.60614236               84.66896978                0.47582834                0.15256405               -0.59729490                1.61955538               -0.11510917                0.24685490               14.77080963
              52.19905428               17.26169369               82.82949466                0.00010000                2.01998675                0.88010651               -2.59399128               -3.75332641               62.43266271              -12.24109670
              53.23792838               13.84040779               82.23411270                0.00010000                4.25719451                1.55804569               -5.67695826               -6.76209489              122.80117385              -14.43790054
              54.28419817               10.39732303               81.61410142                0.00010000                4.96780085                1.98895623               -8.68855319               -6.15221182              117.81539372              -17.78410548
              55.33728439                6.94614177               80.93278624                0.00010000                5.50435198                2.90682914              -11.78880198               -5.14531171              109.58836362              -22.40720448
              56.39428521                3.49373564               80.16208227                0.00010000                5.94156546                3.98533681              -15.05827191               -4.18971556               98.70688870              -28.10433483
              57.45611570                0.04213538               79.27484041                0.00010000                6.50485409                5.13427875              -18.51191685               -3.36638049               85.14778389              -35.00600351
              58.52438229               -3.40702677               78.24126072                0.00010000                7.22258032                6.30556273              -22.11219325               -2.58215541               68.60132204              -43.51829469
              59.60056731               -6.85239636               77.02724182                0.00010000                8.07097639                7.45934680              -25.78710241               -1.77341565               48.67813871              -54.44466865
              60.68580182              -10.29284674               75.59504665                0.00010000                9.03992537                8.52721066              -29.45157767               -0.91454831               25.44633826              -69.43193987
              61.78136582              -13.72768912               73.91258862                0.46941942                9.55639950                9.34497012              -33.02909198               -0.31803067               13.22150775              -91.07790404
              54.53338947               21.60092053               84.39650096                0.47486569                0.35858598               -0.43246743                1.12640323               -0.11905903               -0.31536560               12.74789884
              55.53697533               18.27176071               82.41744516                0.00010000                3.28032639                1.12376998               -3.47270946               -4.32499565               75.35536769              -11.30233390
              56.59899600               14.85407087               81.95233607                0.00010000                6.74589901                0.23104290               -6.51659334               -5.43094445              147.78811210               -8.43029511
              57.67189331               11.41402865               81.43894849                0.00010000                7.05598567                1.38413053               -9.50035886               -4.20656385              140.50927677               -9.47605935
              58.74011571                7.97415909               80.84787748                0.00010000                6.71603272                2.68721215              -12.59510454               -3.05395554              130.80553225              -11.65116704
              59.80621396                4.53381840               80.15755464                0.00010000                6.67828158                4.02306749              -15.88098390               -2.36599376              118.83438760              -14.51092644
              60.87368134                1.09466838               79.34066565                0.00010000                6.97274161                5.33598308              -19.36847599               -1.83030121              104.07259989              -18.06522700
              61.94566880               -2.34211916               78.36430247                0.00010000                7.54787331                6.61456917              -23.01590449               -1.34930238               85.84040988              -22.55078928
              63.02463881               -5.77544384               77.18699759                0.00010000                8.33535662                7.84257035              -26.74968457               -0.86453027               62.93105045              -28.52247422
              64.11237593               -9.20467070               75.75171372                0.00010000                9.28075741                8.98369466              -30.49303037               -0.39837705               33.84462376              -37.31925611
              65.21025396              -12.63058919               73.98780732                0.46980379                9.78780284                9.96819210              -34.19306826               -0.11179295               17.77013436              -54.06691632
              57.85346712               22.59749301               84.08482425                0.73692324                0.59369164               -0.34275186                0.50725220                0.67537223                5.71910872               10.74818642
              58.85940403               19.28416909               82.03222665                0.45676910                6.67872164                1.24083845               -4.28592428               -5.38034800               93.95905957               -9.97907543
              59.98704155               15.84502865               81.74513741                0.44287376               11.02873203               -0.90422219               -7.16098236               -4.15361715              175.39576351               -4.24666369
              61.07997867               12.42500564               81.35116877                0.43984235                8.46869914                1.09769989              -10.05895628               -1.44859545              164.69380054               -4.72504747
              62.15641553                8.99988601               80.87334214                0.43870486                7.32386868                2.57269193              -13.10174277               -0.91045073              154.37522904               -5.75987108
              63.22645605                5.57419699               80.29196811                0.43948445                6.95158512                4.03785903              -16.35744143               -0.52734053              141.95379915               -7.19538665
              64.29544723                2.14885504               79.58031377                0.44209000                7.05262117                5.41866526              -19.82735060               -0.27002952              126.76470495               -8.99430178
              65.36750847               -1.27473539               78.70453226                0.44641721                7.51905059                6.73837713              -23.46067358               -0.03603208              107.94376182              -11.29074455
              66.44582825               -4.69554495               77.62008888                0.45328939                8.27355810                7.98988864              -27.17700207                0.19707060               83.97150112              -14.43012341
              67.53297963               -8.11317285               76.26288668                0.46247759                9.25693468                9.14978503              -30.89832972                0.42135420               50.28823346              -19.14607068
              68.63096694              -11.52832527               74.49824366                0.73512365                9.79873074               10.22639143              -34.62158339                0.55605558               30.36489013              -31.84820942
              24.82352590               13.12686786               87.95539802                0.74602711               -1.44241657               -1.59986177                5.45545634               -0.43290010               -6.88557658                7.34958667
              25.80910173                9.55023244               87.07717718                0.47224960               -1.55361537               -0.92130835                3.65531886               -0.65384546               -9.09072494               -5.92584429
              26.79245359                5.96230810               86.15365959                0.45243112               -1.40322711               -0.52092243                1.96373189               -0.38678174               -8.94786077                0.10699676
              27.78103719                2.35624066               85.27662070                0.44385896               -0.79078271               -0.00467112                0.30380939               -0.37495405               -6.32649081               -0.32456557
              28.77663794               -1.26386099               84.40378836                0.43969288               -0.05470279                0.51199686               -1.40023425               -0.35885845               -5.88261120               -0.19828887
              29.77994314               -4.89260201               83.53434393                0.43944780                0.71954015                1.03876262               -3.13539977               -0.35020047               -5.73851721               -0.13172629
              30.79102874               -8.52430866               82.66393500                0.44338262                1.48072307                1.57277130               -4.90828497               -0.33825463               -6.07703032               -0.05344919
              31.80955760              -12.15414282               81.78834915                0.45078528                2.18166411                2.10915062               -6.70820526               -0.33073928               -6.91063652                0.03679326
              32.83466202              -15.77904168               80.90301902                0.46308293                2.77112711                2.63547511               -8.52004695               -0.32020936               -8.52838112                0.04413202
              33.86498014              -19.39868336               79.99774271                0.48051385                3.23154762                3.14552499              -10.30322259               -0.30588570               -9.02689347                0.84515296
              34.89929298              -23.01580947               79.10587531                0.74732391                3.43128360                3.68555313              -12.08661878               -0.25137124               -8.56338583               -5.47533634
              28.39583231               14.11086924               87.60544773                0.48367451               -1.09891568               -1.69493255                4.75255027               -0.32603650                5.92028764               11.95458733
              29.38484316               10.54101936               86.72480051                0.00010000               -0.51253237               -0.60194691                2.97086630               -0.81110271               13.32953007              -10.94956081
              30.38558167                6.95709888               85.99148157                0.00010000                0.27645218               -0.97448633                1.53063742               -1.98825325               19.70748978              -14.70457082
              31.39037220                3.35619395               85.23867040                0.00010000                0.59445109               -0.66111529               -0.07552511               -2.88002898               19.08941380              -21.76459995
              32.39747069               -0.25874103               84.49415786                0.00010000                0.81463818               -0.16269281               -1.75049776               -3.39514946               19.50417787              -29.61615822
              33.40666496               -3.88221438               83.75121685                0.00010000                1.04729561                0.40443958               -3.47742856               -3.48902446               19.43168763              -38.29982396
              34.41841660               -7.50858095               83.00676946                0.00010000                1.34758765                0.95955921               -5.25766215               -3.17309778               19.04573109              -47.95395019
              35.43361672              -11.13305131               82.25733074                0.00010000                1.76567998                1.44814296               -7.07496191               -2.49446849               18.24932954              -58.78120469
              36.45373020              -14.75268693               81.49792503                0.00010000                2.33442303                1.84174486               -8.87728078               -1.54606083               17.15404939              -71.03121354
              37.48030518              -18.36722811               80.72753270                0.00010000                3.00875887                2.19363934              -10.64337280               -0.43084152               13.72131595              -85.04419717
              38.51390538              -21.97895394               79.90060247                0.47829087                3.36001999                2.51860669              -12.34057802                0.84068521               10.83036456             -104.15546663
              31.95670493               15.09296920               87.34625880                0.47471906               -1.00548903               -1.64094850                4.33031793               -0.08840783               -0.39684231               15.28797040
              32.94665004               11.53819350               86.27123072                0.00010000               -0.95954968               -0.24752198                2.16464345               -1.97001412               16.46372422              -14.00647986
              33.93751394                7.94281838               85.53269263                0.00010000               -0.36867619               -0.81093621                0.45514246               -4.66051332               32.19360122              -28.53477946
              34.93927652                4.34301835               84.77196063                0.00010000                0.48146713               -0.73740140               -1.37527728               -5.62212895               30.25531224              -42.63386256
              35.94714328                0.73288515               83.99657837                0.00010000                1.03630254               -0.29462209               -3.33912218               -6.42161904               28.58373121              -58.20474010
              36.96000257               -2.88451322               83.20555482                0.00010000                1.56302180                0.27862506               -5.42862950               -6.58467798               26.54884013              -75.32671385
              37.97840372               -6.50511747               82.39292717                0.00010000                2.18858230                0.83815744               -7.62333662               -6.07297255               23.88440116              -94.34486627
              39.00377421              -10.12517996               81.55168268                0.00010000                2.97569436                1.28801038               -9.88444082               -4.94772430               20.49455137             -115.63773001
              40.03791760              -13.74220678               80.67343456                0.00010000                3.94280522                1.60356317              -12.16182236               -3.33422279               15.93815390             -139.58412181
              41.08263032              -17.35481057               79.74203289                0.00010000                5.08203709                1.86016975              -14.39352154               -1.52321008                8.99819640             -166.88035708
              42.13955834              -20.96543734               78.72466330                0.46209043                5.69280269                2.38976104              -16.54611812                0.15759222                4.77213170             -195.91252778
              35.50361556               16.07805027               87.06078358                0.47396411               -0.80218565               -1.38017493                3.84846915               -0.10170252                0.08428487               14.47244370
              36.49559370               12.53606892               85.85793943                0.00010000               -0.80345054               -0.15897240                1.43849565               -2.56886739               21.97167597              -11.96665632
              37.48754655                8.94088015               85.09232891                0.00010000               -0.38654278                0.12391444               -0.56819255               -5.18419164               43.16019306              -26.76219296
              38.48786285                5.34144592               84.31387715                0.00010000                0.45116642                0.32360576               -2.66548082               -5.65975315               41.19792625              -41.06190970
              39.49656988                1.73536653               83.51197132                0.00010000                1.25555902                0.73989107               -4.91850079               -6.10685007               38.24138129              -56.01510413
              40.51297403               -1.87664188               82.67888803                0.00010000                2.05270070                1.27500702               -7.34098258               -6.17324856               34.42734750              -72.31103987
              41.53762389               -5.49181780               81.80562856                0.00010000                2.93887565                1.82969782               -9.91251898               -5.73963306               29.69433504              -90.36623177
              42.57175154               -9.10729110               80.88215930                0.00010000                3.95262323                2.33680715              -12.58318970               -4.84486221               23.96169102             -110.53770612
              43.61667636              -12.72061567               79.89700168                0.00010000                5.06599932                2.78998210              -15.27701606               -3.59896816               17.05555980             -133.09943397
              44.67307153              -16.33002471               78.83611976                0.00010000                6.08171994                3.27253796              -17.90320611               -2.01533422                8.93555667             -157.87680485
              45.73831075              -19.93115872               77.68717847                0.46252824                6.52392272                4.17450647              -20.35387149               -0.75130793                4.67425216             -183.70184765
              39.03863358               17.06536571               86.78296801                0.47319385               -0.61907731               -1.18100445                3.41024014               -0.10304797                0.06978504               15.11582652
              40.03244281               13.53501406               85.44589939                0.00010000               -0.50902389               -0.02071862                0.67187548               -2.88685607               28.09991527              -11.83119286
              41.02845310                9.94529666               84.66911327                0.00010000               -0.04238658                0.66894361               -1.58253097               -5.66397226               55.27109010              -25.13878030
              42.03159507                6.34949047               83.87767439                0.00010000                0.73204887                1.15318507               -3.93645301               -5.86939671               52.82525689              -38.46264406
              43.04309408                2.74768297               83.05650269                0.00010000                1.60634253                1.64079560               -6.46081820               -6.02426145               48.84519887              -52.33172857
              44.06372192               -0.85901308               82.19147643                0.00010000                2.55830992                2.20159026               -9.18402050               -5.92847818               43.47797568              -67.35988702
              45.09426028               -4.46852352               81.26924749                0.00010000                3.59764570                2.80910214              -12.08825625               -5.49405179               36.83880453              -84.03592522
              46.13567484               -8.07844381               80.27670368                0.00010000                4.72057849                3.42993349              -15.11434042               -4.72704220               29.00671841             -102.73793172
              47.18867185              -11.68640714               79.20100242                0.00010000                5.85959222                4.05960485              -18.16882909               -3.64167574               20.08588797             -123.69645180
              48.25286668              -15.28935981               78.03049852                0.00010000                6.90641756                4.76544049              -21.13305497               -2.13706016               10.28774833             -146.88842434
              49.32680020              -18.88194721               76.75664481                0.46281440                7.39335149                5.56936688              -23.88031948               -0.79883165                5.31734868             -172.17666415
              42.56225790               18.05443018               86.50834810                0.47213653               -0.43322784               -1.01312829                2.98064080               -0.09336415                0.09480718               15.42466733
              43.55792562               14.53565455               85.03616228                0.00010000               -0.12336061                0.16156604               -0.10964913               -3.03930302               35.00979765              -11.72824748
              44.55979069               10.95425903               84.26214220                0.00010000                0.50814919                1.09003504               -2.60097430               -5.91972639               68.88866432              -23.40409057
              45.56808861                7.36450962               83.47183374                0.00010000                1.23987518                1.76405216               -5.18190227               -6.05086824               65.91762256              -35.04046140
              46.58458819                3.76818244               82.64495113                0.00010000                2.12611731                2.36244124               -7.94401451               -6.00265511               60.91485481              -47.23511714
              47.61061095                0.16738993               81.76248772                0.00010000                3.12927009                3.00118892              -10.92562719               -5.72794229               54.07815873              -60.53552901
              48.64717359               -3.43563575               80.80673074                0.00010000                4.22416841                3.70871102              -14.11252971               -5.21210368               45.60489611              -75.43219584
              49.69509432               -7.03869243               79.76115363                0.00010000                5.37926207                4.46936903              -17.44027397               -4.45736823               35.68800413              -92.35218125
              50.75475884              -10.63942357               78.61069871                0.00010000                6.53880334                5.26650004              -20.80279959               -3.42931325               24.55641335             -111.65405550
              51.82587039              -14.23471590               77.34278108                0.00010000                7.63750388                6.07564120              -24.06731912               -1.98842648               12.52433778             -133.61385779
              52.90750891              -17.81977138               75.94881177                0.46333207                8.16385257                6.81299656              -27.09651168               -0.74780418                6.46425029             -158.42345608
              46.07431756               19.04510314               86.23520294                0.47228137               -0.24896634               -0.86241794                2.57141021               -0.09117082                0.12812566               15.52805235
              47.07182790               15.53824538               84.62697330                0.00010000                0.34429675                0.37041183               -0.91495096               -3.11906985               42.93027413              -11.79326543
              48.08120350               11.96709737               83.87484409                0.00010000                1.24131962                1.44456954               -3.61214693               -6.04275775               84.49874458              -21.28105690
              49.09665429                8.38477151               83.10482873                0.00010000                1.94785882                2.19906977               -6.38595153               -6.13510322               80.96950314              -30.70616989
              50.12016067                4.79493180               82.29127088                0.00010000                2.81634933                2.87719202               -9.34137453               -5.90103377               74.91457973              -40.71552101
              51.15298128                1.20101070               81.41048203                0.00010000                3.79699443                3.62121617              -12.53194041               -5.42143467               66.60417206              -51.84105095
              52.19610056               -2.39434930               80.44056169                0.00010000                4.86670065                4.46161810              -15.94851683               -4.77977836               56.27921510              -64.54128961
              53.25031529               -5.98905643               79.36097833                0.00010000                6.00042440                5.37233662              -19.52392627               -3.99023313               44.14894255              -79.29686116
              54.31610905               -9.58107714               78.15272105                0.00010000                7.15653367                6.31206165              -23.14445504               -3.00471724               30.45889001              -96.65546384
              55.39344596              -13.16784699               76.79956034                0.00010000                8.29230107                7.21122668              -26.66850444               -1.70868221               15.57334367             -117.19667050
              56.48195507              -16.74568727               75.29010331                0.46405680                8.85091077                7.94253028              -29.95367356               -0.62737670                8.04389584             -141.41938112
              49.57415001               20.03718182               85.96167755                0.47095312               -0.06000120               -0.73455965                2.13682916               -0.10128296                0.16092702               15.40747867
              50.57355000               16.54306278               84.21662719                0.00010000                0.91296925                0.60764115               -1.72078501               -3.20034383               52.14374314              -12.00958845
              51.59240940               12.98315042               83.51147305                0.00010000                2.20010557                1.69670215               -4.60388748               -6.08620404              102.62833749              -18.63025470
              52.61755211                9.40849102               82.78624003                0.00010000                2.89594647                2.40405538               -7.52049629               -6.07323835               98.42875939              -25.26417181
              53.65032833                5.82572629               82.00966967                0.00010000                3.69556205                3.14000246              -10.61614161               -5.54838183               91.22717924              -32.68623420
              54.69146335                2.23981425               81.15388449                0.00010000                4.56584189                4.03312303              -13.96163243               -4.84574603               81.41494741              -41.26178642
              55.74164516               -1.34640339               80.19342627                0.00010000                5.52770748                5.03234207              -17.55348119               -4.09584826               69.23120499              -51.32936339
              56.80201750               -4.93124570               79.10329599                0.00010000                6.59049392                6.09384111              -21.32279497               -3.30079952               54.75911171              -63.37860091
              57.87345504               -8.51318234               77.85841818                0.00010000                7.71446875                7.16629943              -25.15027891               -2.40284236               38.10645953              -78.15925556
              58.95630688              -12.09049137               76.43543155                0.00010000                8.85934571                8.16651592              -28.88816018               -1.32466814               19.61578359              -96.72202647
              60.05064196              -15.66092077               74.81661144                0.46460475                9.43350799                8.94203293              -32.39068949               -0.46083085               10.15664929             -120.07485301
              53.06052998               21.03041195               85.68555716                0.47059497                0.13224472               -0.60814984                1.70685362               -0.09910562                0.25009037               15.22358155
              54.06185243               17.55039820               83.80376799                0.00010000                1.67606014                0.85727451               -2.55523628               -3.37208114               63.01885760              -12.55543337
              55.09405118               14.00103141               83.17778288                0.00010000                3.53806152                1.65988648               -5.55027884               -6.09333055              123.87341728              -14.94181436
              56.13261366               10.43285262               82.52765575                0.00010000                4.19093125                2.19856036               -8.54221428               -5.54370525              118.67847747              -18.38324836
              57.17786981                6.85773185               81.81495610                0.00010000                4.77911890                3.15304339              -11.71807147               -4.65072372              110.09310708              -23.08233858
              58.22819603                3.28167316               81.01077607                0.00010000                5.36868703                4.25601368              -15.16332026               -3.80405562               98.82342844              -28.86587454
              59.28524355               -0.29370246               80.08788295                0.00010000                6.14411057                5.43041201              -18.87714451               -3.07643274               84.93799633              -35.87687162
              60.35107824               -3.86717961               79.01700611                0.00010000                7.10271616                6.63081051              -22.78699042               -2.38088083               68.19673718              -44.53050549
              61.42729787               -7.43775115               77.76499372                0.00010000                8.18063966                7.81662457              -26.76828221               -1.65245276               48.25083948              -55.63741304
              62.51469104              -11.00451667               76.29524801                0.00010000                9.31496988                8.92169398              -30.66905170               -0.86013452               25.17282499              -70.85213744
              63.61359727              -14.56684662               74.57675290                0.46490920                9.89062291                9.79691637              -34.34052521               -0.25770638               13.12670801              -92.78065999
              56.53219540               22.02501882               85.40830538                0.46989617                0.32935206               -0.45824432                1.25271352               -0.10863846               -0.31724822               13.12599236
              57.53548892               18.56020827               83.38305124                0.00010000                2.79464848                1.09818373               -3.41370918               -3.84942678               76.13927352              -11.60412614
              58.58808837               15.01634815               82.88754746                0.00010000                5.72443269                0.56396894               -6.39945131               -4.86535833              149.19468928               -8.76789560
              59.64997757               11.45246222               82.34422175                0.00010000                6.02024717                1.73640285               -9.38500691               -3.79498379              141.61015099               -9.82493258
              60.70849331                7.88878715               81.72169297                0.00010000                5.84194857                3.03964330              -12.58241394               -2.77374357              131.47161605              -12.02512310
              61.76681654                4.32493452               80.99757372                0.00010000                6.02379884                4.38012905              -16.07809408               -2.15960400              119.05662561              -14.92011685
              62.82896929                0.76220485               80.14451758                0.00010000                6.58160205                5.71003246              -19.86499681               -1.68387213              103.93200863              -18.52469307
              63.89844858               -2.79862949               79.13020273                0.00010000                7.43868791                7.01552181              -23.86294040               -1.25695955               85.48410822              -23.08028929
              64.97774304               -6.35684985               77.91415084                0.00010000                8.48755341                8.27548998              -27.94043477               -0.82069167               62.53940231              -29.14677085
              66.06819965               -9.91205749               76.44042557                0.00010000                9.62023416                9.44930746              -31.94382032               -0.38682863               33.59022912              -38.06925985
              67.17014773              -13.46498245               74.63929595                0.46548087               10.19480763               10.46777111              -35.73036501               -0.06534785               17.68891710              -54.99615579
              59.98797831               23.02124706               85.09067163                0.73445516                0.55562564               -0.37717626                0.67356919                0.68977275                5.87920596               11.06359261
              60.99353457               19.57236187               82.98970040                0.45424529                5.82558760                1.21536010               -4.21100482               -4.64224865               95.09804462              -10.25822815
              62.10449006               16.01231079               82.67393952                0.44217607                9.53702036               -0.40373592               -7.03462599               -3.59889014              177.12176282               -4.39267563
              63.18427497               12.46758068               82.25075383                0.43959619                7.27162875                1.51184524               -9.95859314               -1.25956344              165.97778037               -4.88519291
              64.24992264                8.91852471               81.74182824                0.43881197                6.36556422                2.97375582              -13.13907243               -0.77231379              155.15326767               -5.93175177
              65.31158626                5.36927574               81.12675622                0.43945692                6.26037399                4.43412223              -16.64881476               -0.42435423              142.24303226               -7.38280195
              66.37513012                1.82049819               80.37888646                0.44143318                6.67037451                5.82933446              -20.46767295               -0.19116288              126.67114278               -9.20068367
              67.44499375               -1.72686918               79.46506479                0.44521059                7.45909584                7.17603149              -24.50264646                0.01753926              107.63653054              -11.52341928
              68.52431203               -5.27224135               78.34183157                0.45121890                8.50466594                8.46084923              -28.61144158                0.22383186               83.64619373              -14.70076393
              69.61508707               -8.81553052               76.94622372                0.45915083                9.69140971                9.65269694              -32.63446711                0.42624958               50.10446798              -19.47116424
              70.71814023              -12.35749119               75.14408929                0.73286792               10.30531610               10.74912525              -36.45277184                0.60318254               30.35498905              -32.28020366
              25.64151619               13.55420607               89.00887675                0.74225722               -1.37722601               -1.52699582                5.22249107               -0.41496895               -6.95962366                7.41713762
              26.62774393                9.84637267               88.11298022                0.46739608               -1.46960731               -0.88382093                3.49431474               -0.62506496               -9.09127329               -6.00380619
              27.61212405                6.12788569               87.17301453                0.45024803               -1.30117221               -0.50002167                1.90534498               -0.37980847               -8.82875432                0.13683535
              28.60172049                2.39288200               86.27985731                0.44311884               -0.70399617               -0.00824663                0.34489542               -0.37126526               -6.18106109               -0.31898929
              29.59804412               -1.35448999               85.39046013                0.43929900               -0.00606801                0.48899123               -1.25448424               -0.35723992               -5.75651255               -0.19976776
              30.60159913               -5.10918116               84.50413321                0.43925394                0.71624655                0.99744216               -2.88295241               -0.34655434               -5.63739385               -0.13803478
              31.61236905               -8.86608884               83.61657831                0.44261187                1.41751876                1.50658820               -4.53852671               -0.33889860               -6.01251246               -0.06497668
              32.62994950              -12.62112695               82.72348982                0.44936956                2.06040513                2.01567851               -6.22522217               -0.32694401               -6.88518586                0.00877856
              33.65357716              -16.37194981               81.82052651                0.45964002                2.60191561                2.51920473               -7.92568179               -0.31554721               -8.51844841                0.01745139
              34.68198782              -20.11864116               80.89796717                0.47452283                3.02426844                3.01138347               -9.60933332               -0.30390430               -9.04640894                0.79336176
              35.71406253              -23.86423557               79.98854874                0.74332206                3.20747098                3.53401505              -11.32026647               -0.15884232               -8.62893097               -5.48061863
              29.34519990               14.53893611               88.65201525                0.47704212               -1.05464275               -1.59557492                4.54731970               -0.29785994                6.03489985               12.17589149
              30.33465347               10.83753446               87.75388844                0.00010000               -0.50643013               -0.59469688                2.83816758               -0.75503667               13.61344492              -11.08331598
              31.33507130                7.12288547               87.00638397                0.00010000                0.22711021               -0.91632530                1.44471937               -1.85127928               20.04072865              -14.96239399
              32.33919568                3.39279954               86.23772616                0.00010000                0.52160045               -0.58352888               -0.11517442               -2.68510912               19.27674320              -22.17114913
              33.34550331               -0.34960008               85.47662820                0.00010000                0.73686650               -0.08355112               -1.75652381               -3.17446676               19.61710834              -30.17876830
              34.35393301               -4.09920674               84.71656630                0.00010000                0.97248272                0.46709112               -3.45106511               -3.27944745               19.48913724              -39.04613728
              35.36495296               -7.85102295               83.95461444                0.00010000                1.28387730                0.98698694               -5.18342598               -3.00182066               19.04212085              -48.91930173
              36.37961055              -11.60097016               83.18716249                0.00010000                1.71129157                1.42937175               -6.94937519               -2.37234450               18.21441478              -59.98924649
              37.39917879              -15.34675777               82.40994422                0.00010000                2.27405478                1.77480410               -8.70622852               -1.46345439               17.13256216              -72.49990814
              38.42509165              -19.08852733               81.62205966                0.00010000                2.94448555                2.07105691              -10.44058014               -0.36177637               13.74713271              -86.78025114
              39.45806850              -22.82889542               80.77838389                0.47268133                3.29768549                2.30953928              -12.09004764                1.01052318               10.89272202             -106.11904800
              33.03836229               15.52229457               88.38872977                0.46937219               -0.96684530               -1.51259902                4.15513056               -0.07751135               -0.44963692               15.66228128
              34.02869384               11.83447874               87.29241981                0.00010000               -0.92644503               -0.28325357                2.07135470               -1.79218175               16.65177755              -14.18982841
              35.01983339                8.10955918               86.53732389                0.00010000               -0.40949890               -0.76773627                0.48361727               -4.25236045               32.57810239              -29.02023748
              36.02050386                4.38121142               85.75861302                0.00010000                0.33638380               -0.63102129               -1.27001022               -5.14622156               30.46509637              -43.39817805
              37.02656107                0.64383899               84.96372750                0.00010000                0.84645973               -0.15748320               -3.20281634               -5.92045601               28.59399467              -59.27650879
              38.03743305               -3.09983934               84.15176705                0.00010000                1.37674989                0.41564577               -5.30436193               -6.11918221               26.37030359              -76.76158622
              39.05409606               -6.84634910               83.31697752                0.00010000                2.04021867                0.94994366               -7.54832848               -5.68534351               23.56019101              -96.21026537
              40.07823743              -10.59253951               82.45282755                0.00010000                2.88845858                1.35593222               -9.88511584               -4.65985357               20.09228174             -117.98311447
              41.11186524              -14.33645373               81.55147238                0.00010000                3.93262549                1.61216590              -12.24638316               -3.13776219               15.54881288             -142.45796689
              42.15688994              -18.07722003               80.59752992                0.00010000                5.15719625                1.78360347              -14.53988148               -1.41082343                8.72829586             -170.29272317
              43.21500916              -21.81804478               79.55872343                0.45822623                5.81192229                2.18990977              -16.68849416                0.29464806                4.67299948             -199.89696920
              36.71928135               16.50868413               88.09860454                0.46897555               -0.77361210               -1.25959401                3.70856144               -0.09943887                0.07004261               14.87545386
              37.71154522               12.83186939               86.87203081                0.00010000               -0.79949727               -0.20701444                1.37353564               -2.29239085               22.18080539              -12.16030746
              38.70329140                9.10753075               86.08706358                0.00010000               -0.47768904                0.09084712               -0.45716288               -4.62866200               43.55938442              -27.23510319
              39.70199144                5.38017911               85.28804433                0.00010000                0.24267757                0.34089767               -2.45451903               -5.05837375               41.41728309              -41.81049325
              40.70814495                1.64725026               84.46368504                0.00010000                0.98730008                0.79972914               -4.68663636               -5.49469974               38.20260597              -57.06058713
              41.72173745               -2.09089383               83.60613712                0.00010000                1.79006562                1.36055697               -7.16384094               -5.59519299               34.12507415              -73.69657747
              42.74394626               -5.83202408               82.70666117                0.00010000                2.73903359                1.92387080               -9.85436468               -5.23531328               29.17954610              -92.14613465
              43.77651812               -9.57385152               81.75581021                0.00010000                3.85788984                2.42215549              -12.68756938               -4.43765956               23.33566797             -112.76902941
              44.82110406              -13.31451445               80.74301117                0.00010000                5.09740554                2.84624963              -15.55593831               -3.30453414               16.46251112             -135.82626679
              45.87846623              -17.05285526               79.65533226                0.00010000                6.22534555                3.27619711              -18.32281724               -1.85526603                8.55798994             -161.13537218
              46.94561097              -20.78509722               78.48177550                0.45878625                6.71447437                4.11126846              -20.81881098               -0.63530133                4.52078412             -187.50600319
              40.39000299               17.49710269               87.81662652                0.46822263               -0.60035879               -1.07737123                3.31536082               -0.10017189                0.05265579               15.57172931
              41.38399940               13.83033845               86.45242453                0.00010000               -0.55262794               -0.07080892                0.62919163               -2.53606970               28.35837585              -12.07134421
              42.37895043               10.11137613               85.65393970                0.00010000               -0.21912638                0.60372374               -1.41493899               -4.96902105               55.75166437              -25.64379986
              43.37961688                6.38802938               84.83939894                0.00010000                0.43947873                1.11762744               -3.65591459               -5.13061470               53.09266181              -39.21946565
              44.38774001                2.65983357               83.99299913                0.00010000                1.25933277                1.65191134               -6.17073209               -5.28941815               48.81189519              -53.35480473
              45.40480353               -1.07262820               83.10034339                0.00010000                2.23037421                2.25593225               -8.98390949               -5.24165812               43.12869274              -68.68356304
              46.43234749               -4.80787168               82.14832887                0.00010000                3.35855369                2.89483883              -12.06241879               -4.89187567               36.23227587              -85.70892259
              47.47197461               -8.54409640               81.12455956                0.00010000                4.62154009                3.53258211              -15.31967639               -4.23659517               28.26789553             -104.81431039
              48.52477829              -12.27952874               80.01731099                0.00010000                5.91963913                4.16516461              -18.62074607               -3.28579471               19.39451267             -126.22982626
              49.59036739              -16.01169608               78.81637149                0.00010000                7.10043796                4.86352401              -21.79020125               -1.94576969                9.85392189             -149.92715105
              50.66678705              -19.73581941               77.51475799                0.45916097                7.64196645                5.65100849              -24.63145848               -0.67134356                5.13717990             -175.76825717
              44.05080640               18.48713671               87.53794004                0.46765793               -0.42560024               -0.93599489                2.93573294               -0.10883651                0.09290925               15.92011448
              45.04655040               14.83045321               86.03500516                0.00010000               -0.22931745                0.11516796               -0.13083210               -2.64227951               35.34428805              -12.00453463
              46.04622005               11.11960522               85.23691870                0.00010000                0.21856564                1.01827027               -2.39767279               -5.12351039               69.49255787              -23.94747456
              47.05092171                7.40253166               84.42124032                0.00010000                0.83970596                1.71589122               -4.86323020               -5.20465637               66.28433878              -35.81162067
              48.06301417                3.68028848               83.56667914                0.00010000                1.68439125                2.36420037               -7.63002188               -5.17223316               60.94127482              -48.23124489
              49.08460953               -0.04577518               82.65385861                0.00010000                2.72813928                3.05609401              -10.73316773               -4.96605958               53.74559533              -61.78078923
              50.11757695               -3.77412730               81.66528656                0.00010000                3.94168702                3.80961606              -14.14070616               -4.55524251               44.97811284              -76.96969486
              51.16344327               -7.50319988               80.58522716                0.00010000                5.27054465                4.60702134              -17.75572482               -3.92973194               34.90841204              -94.23556479
              52.22298785              -11.23121116               79.39989862                0.00010000                6.61991161                5.43459749              -21.42385301               -3.05073039               23.82418406             -113.94077960
              53.29584151              -14.95558478               78.09832256                0.00010000                7.87214536                6.27381765              -24.94837781               -1.78501009               12.06728642             -136.36275927
              54.38043075              -18.67207705               76.67360582                0.45951031                8.45892481                7.04633403              -28.11601352               -0.61710103                6.27355078             -161.69586596
              47.70119325               19.47838279               87.26099313                0.46741111               -0.25079503               -0.82374610                2.57421322               -0.10874012                0.10748462               16.03283545
              48.69868530               15.83264181               85.61781098                0.00010000                0.16042667                0.33594507               -0.91476031               -2.69025038               43.35335436              -12.09232375
              49.70440178               12.13174153               84.83957819                0.00010000                0.80775955                1.38804214               -3.39116932               -5.18467545               85.27063071              -21.85142867
              50.71484049                8.42234720               84.04221310                0.00010000                1.41002019                2.18037050               -6.05635799               -5.22477897               81.47870715              -31.47545345
              51.73260218                4.70711758               83.19895564                0.00010000                2.25288197                2.91620633               -9.03475620               -5.02670078               75.04656777              -41.65981108
              52.75989813                0.98849368               82.28558178                0.00010000                3.30325765                3.71785355              -12.37717041               -4.64311184               66.33388333              -52.97472797
              53.79866734               -2.73167936               81.28036800                0.00010000                4.52828463                4.61007938              -16.05547002               -4.12837333               55.67666059              -65.90262852
              54.85046382               -6.45195598               80.16361807                0.00010000                5.87406255                5.56848331              -19.96619810               -3.48151040               43.36834838              -80.93743737
              55.91614859              -10.17083679               78.91769885                0.00010000                7.25346299                6.55613010              -23.94181365               -2.64854129               29.71625972              -98.63285162
              56.99553308              -13.88621973               77.52810317                0.00010000                8.56404916                7.51208362              -27.77073197               -1.52004503               15.10969974             -119.57049885
              58.08742957              -17.59489273               75.98520886                0.46018996                9.18964919                8.32209049              -31.22922917               -0.50368604                7.85182308             -144.25228094
              51.34011357               20.47066178               86.98329220                0.46639674               -0.07269220               -0.71983144                2.19560401               -0.10319018                0.16932616               15.90238422
              52.33938665               16.83717212               85.19951277                0.00010000                0.63537865                0.57595832               -1.70635428               -2.73876533               52.68395539              -12.32473466
              53.35282114               13.14736607               84.46629126                0.00010000                1.58317178                1.68777806               -4.37757659               -5.19629299              103.59711340              -19.20549580
              54.37105008                9.44613907               83.71220167                0.00010000                2.17562659                2.46645703               -7.20253752               -5.14997165               99.11933355              -25.99006616
              55.39633368                5.73861261               82.90442223                0.00010000                2.97470739                3.26770612              -10.34327929               -4.70665756               91.49573985              -33.52781714
              56.43054423                2.02858189               82.01436108                0.00010000                3.95627338                4.21176194              -13.87164994               -4.13047620               81.23061479              -42.22872421
              57.47545914               -1.68192572               81.01668180                0.00010000                5.12131321                5.25929995              -17.76437604               -3.52169246               68.67109783              -52.45639322
              58.53297050               -5.39183021               79.88725386                0.00010000                6.44108157                6.37061805              -21.91287043               -2.87101990               53.99097194              -64.71313010
              59.60428077               -9.10008855               78.60246112                0.00010000                7.82630248                7.49797558              -26.13839585               -2.11596415               37.36181814              -79.75429469
              60.68949655              -12.80534311               77.14075742                0.00010000                9.17111281                8.56681149              -30.21642408               -1.17903072               19.14902164              -98.63114060
              61.78770303              -16.50563524               75.48625009                0.46077143                9.82064851                9.44529534              -33.91370043               -0.35618156                9.96508660             -122.35039967
              54.96610878               21.46398616               86.70310685                0.46601210                0.10969259               -0.61679393                1.80681057               -0.11055862                0.24933838               15.71456508
              55.96720571               17.84416097               84.77838993                0.00010000                1.27000923                0.82868316               -2.51521061               -2.86784999               63.69703802              -12.90336893
              56.99150897               14.16549709               84.12310712                0.00010000                2.66944008                1.75951292               -5.32874738               -5.17932541              125.09374572              -15.47095481
              58.02059451               10.47167634               83.44325714                0.00010000                3.22586224                2.41464202               -8.25020176               -4.70623339              119.58103200              -18.99027396
              59.05602621                6.77247170               82.69842481                0.00010000                3.86162096                3.40859373              -11.49708880               -3.95425166              110.50713444              -23.74096886
              60.09782693                3.07272892               81.85881586                0.00010000                4.63096884                4.54270122              -15.15901646               -3.24937085               98.72212086              -29.59028564
              61.14864559               -0.62649336               80.89729752                0.00010000                5.66896657                5.75483617              -19.21464274               -2.65195858               84.41245784              -36.69689406
              62.21120626               -4.32454362               79.78552091                0.00010000                6.93483064                7.00232971              -23.54799482               -2.08183585               67.43200945              -45.48546537
              63.28734220               -8.02087728               78.49187617                0.00010000                8.31464450                8.24357254              -27.96852573               -1.47083224               47.49546818              -56.77081197
              64.37749915              -11.71488350               76.98166562                0.00010000                9.67740016                9.41557508              -32.23801720               -0.77853463               24.69612330              -72.20685955
              65.48089020              -15.40598682               75.22577812                0.46104609               10.33910540               10.38932683              -36.11073656               -0.18090710               12.93230324              -94.39354662
              58.57755278               22.45832591               86.42155523                0.46526548                0.29659366               -0.49769034                1.40500791               -0.11376661               -0.32798728               13.53227493
              59.58051872               18.85374578               84.34917098                0.00010000                2.20832410                1.07726198               -3.35480120               -3.24391259               77.01480182              -11.92964824
              60.62171927               15.18255632               83.82434704                0.00010000                4.47160456                0.94469601               -6.18181538               -4.11997340              150.73949845               -9.13578546
              61.66995081               11.49443191               83.25124835                0.00010000                4.72384010                2.12806453               -9.11936049               -3.23603970              142.72443936              -10.19048630
              62.71619607                7.80678449               82.59622920                0.00010000                4.72855316                3.42543715              -12.41809186               -2.37718541              132.00280552              -12.40020675
              63.76452187                4.11943591               81.83599276                0.00010000                5.17482192                4.77235173              -16.17046394               -1.85909684              119.00179479              -15.31674136
              64.81969251                0.43317101               80.94336572                0.00010000                6.05979114                6.12984747              -20.34656972               -1.46517999              103.40715895              -18.96203112
              65.88571770               -3.25178362               79.88704366                0.00010000                7.27557545                7.48078641              -24.81850590               -1.11502012               84.69692582              -23.58226539
              66.96520401               -6.93521710               78.62818889                0.00010000                8.66588506                8.79777891              -29.38226704               -0.74985025               61.75676212              -29.74020946
              68.05903540              -10.61703161               77.11283731                0.00010000               10.05437590               10.03455313              -33.78564945               -0.36597409               33.09397240              -38.78042629
              69.16629153              -14.29784870               75.27320002                0.46153830               10.72561342               11.12353934              -37.76724254               -0.00944143               17.48719558              -55.84880827
              62.17299371               23.45403236               86.09829564                0.73247628                0.51033320               -0.42935483                0.86748887                0.71147765                6.05637573               11.39267446
              63.17809704               19.86570621               83.94800655                0.45180002                4.77148311                1.19604333               -4.12310504               -3.72423539               96.34419895              -10.54842639
              64.26842337               16.18439101               83.60444489                0.44155085                7.67742586                0.18346891               -6.79760678               -2.90301864              178.96362301               -4.56652734
              65.33164556               12.51423763               83.15199691                0.43960602                5.75275652                1.98057238               -9.69582483               -1.00105416              167.22335668               -5.06528984
              66.38347850                8.84098044               82.61056069                0.43892254                5.13064573                3.41959567              -13.01775432               -0.57484090              155.71747865               -6.11595274
              67.43425847                5.16817595               81.95899181                0.43921517                5.35415106                4.87400381              -16.83639514               -0.27018309              142.15929487               -7.57382490
              68.49056152                1.49610359               81.17096031                0.44100177                6.15177500                6.29325813              -21.10421373               -0.06829060              126.08854117               -9.40261203
              69.55729397               -2.17492789               80.21447933                0.44438021                7.35158328                7.68557287              -25.67569487                0.10636281              106.79239213              -11.74419745
              70.63759319               -5.84492170               79.04786005                0.44905544                8.77586495                9.02954037              -30.33106133                0.27568956               82.82968112              -14.95155716
              71.73281127               -9.51419244               77.61019734                0.45597105               10.23711927               10.28391672              -34.80624295                0.44787020               49.60254360              -19.76462175
              72.84233557              -13.18351604               75.76918822                0.73099503               10.95243021               11.43326668              -38.83122865                0.67204405               30.16847161              -32.63523139
              26.47612649               13.98893361               90.05984784                0.73909869               -1.29879941               -1.43995609                4.95109878               -0.39362737               -7.01489001                7.46582581
              27.46313850               10.14833989               89.14706348                0.46303819               -1.35625352               -0.84264400                3.31016468               -0.57090050               -9.05776264               -6.06728042
              28.44900142                6.29830592               88.19176649                0.44836237               -1.15840627               -0.47642848                1.84051591               -0.35512748               -8.65729806                0.15702510
              29.43997037                2.43412316               87.28351861                0.44269152               -0.58848154               -0.01079111                0.39238870               -0.35567474               -5.97765007               -0.31560403
              30.43723179               -1.44019250               86.37869868                0.43968892                0.05533506                0.46087284               -1.08292287               -0.34350969               -5.56211550               -0.20407319
              31.44107707               -5.32022889               85.47668488                0.43939003                0.70950466                0.94579238               -2.58135468               -0.33595763               -5.46639647               -0.14332516
              32.45142188               -9.20168044               84.57316447                0.44221617                1.34143046                1.43142581               -4.11088089               -0.33009014               -5.87812647               -0.07726936
              33.46790568              -13.08131259               83.66384470                0.44758818                1.91969104                1.91386079               -5.66949783               -0.32542766               -6.78753165               -0.01110970
              34.48981570              -16.95752808               82.74450538                0.45627171                2.40620239                2.38971176               -7.24700071               -0.31756876               -8.44922352               -0.01334448
              35.51602973              -20.83100110               81.80555604                0.46884742                2.78677507                2.86052223               -8.82348353               -0.30035853               -9.01883807                0.74265844
              36.54555121              -24.70509213               80.87946998                0.73972190                2.95214757                3.35825471              -10.43523038               -0.05308795               -8.65097103               -5.46005247
              30.31278394               14.97453405               89.69639412                0.47077594               -1.00406038               -1.46540376                4.31293731               -0.25177938                6.13301568               12.38101472
              31.30274334               11.13991345               88.78156387                0.00010000               -0.51127154               -0.60426637                2.68543261               -0.65197187               13.86592757              -11.19710272
              32.30255851                7.29354164               88.02037595                0.00010000                0.14597484               -0.82859559                1.34752681               -1.60084252               20.31850219              -15.14679888
              33.30566283                3.43401525               87.23636691                0.00010000                0.42071044               -0.46932679               -0.16698303               -2.34604757               19.38693081              -22.44855888
              34.31097272               -0.43558377               86.45902739                0.00010000                0.63993178                0.02453148               -1.76272420               -2.80744284               19.62494915              -30.57342699
              35.31846147               -4.31077097               85.68219554                0.00010000                0.88450555                0.54565675               -3.41897376               -2.93504332               19.43401837              -39.61030826
              36.32866283               -8.18736618               84.90310094                0.00010000                1.20568775                1.01554666               -5.10646572               -2.71389348               18.95633838              -49.71269834
              37.34257522              -12.06217398               84.11834323                0.00010000                1.64107211                1.39113064               -6.81974166               -2.15227391               18.11672051              -61.06223179
              38.36148427              -15.93363096               83.32380046                0.00010000                2.21164722                1.65475079               -8.52591498               -1.29230517               17.04026389              -73.87700187
              39.38680817              -19.80239588               82.51872109                0.00010000                2.88135420                1.85317342              -10.21961993               -0.19815807               13.71336520              -88.45005596
              40.41911136              -23.67150958               81.65880152                0.46728543                3.23031874                1.91619002              -11.81413545                1.34263463               10.90291916             -108.01165716
              34.14033211               15.95962554               89.42936141                0.46425213               -0.92406350               -1.34357306                3.95899765               -0.06810064               -0.51137182               16.04873618
              35.13109147               12.13625456               88.31265782                0.00010000               -0.87246694               -0.35277020                1.97090869               -1.49420476               16.85704790              -14.37855002
              36.12288277                8.28173401               87.54236498                0.00010000               -0.44583235               -0.69896819                0.54505317               -3.56778676               33.00071045              -29.34189487
              37.12217483                4.42473663               86.74656043                0.00010000                0.14931900               -0.47825541               -1.10438249               -4.37558301               30.65895036              -43.89393157
              38.12586915                0.56029813               85.93252205                0.00010000                0.59918980                0.02334642               -2.99807093               -5.12479442               28.52935385              -60.01254267
              39.13415862               -3.30931576               85.09946759                0.00010000                1.13389380                0.58105991               -5.11830922               -5.38148645               26.06350611              -77.84190370
              40.14854703               -7.18136951               84.24196060                0.00010000                1.84831798                1.06371735               -7.43101832               -5.06476680               23.05930508              -97.74366042
              41.17112498              -11.05348997               83.35398037                0.00010000                2.78222360                1.38851410               -9.87466375               -4.17619419               19.48328863             -120.06528426
              42.20419150              -14.92443307               82.42850690                0.00010000                3.94101026                1.53256786              -12.36103091               -2.77636967               14.95938112             -145.14803976
              43.24994519              -18.79393763               81.45123526                0.00010000                5.32199055                1.54110741              -14.76006625               -1.18382187                8.31783153             -173.59206836
              44.31063131              -22.66676833               80.39089342                0.45489374                6.06861214                1.70981203              -16.93714761                0.55335992                4.51512260             -203.83876936
              37.95816388               16.94766259               89.13495481                0.46392059               -0.74131108               -1.10803739                3.55173624               -0.09252636                0.05153244               15.30400300
              38.95075077               13.13285805               87.88541015                0.00010000               -0.77215838               -0.28208739                1.30063837               -1.84473236               22.45238143              -12.37665756
              39.94272071                9.27956228               87.08318565                0.00010000               -0.55818584                0.04157683               -0.27934047               -3.73893458               44.07217616              -27.57705576
              40.93958705                5.42445014               86.26478677                0.00010000               -0.00957501                0.35842692               -2.13163878               -4.12325314               41.66997230              -42.32523931
              41.94252921                1.56488316               85.41823859                0.00010000                0.64561656                0.86473234               -4.32886522               -4.55407637               38.10541565              -57.81212644
              42.95249938               -2.29914977               84.53561121                0.00010000                1.45062506                1.44549604               -6.87492813               -4.70837880               33.67395822              -74.76588616
              43.97154171               -6.16609184               83.60854126                0.00010000                2.48077564                2.00210723               -9.72412106               -4.45556690               28.44070687              -93.62419845
              45.00211490              -10.03440370               82.62840791                0.00010000                3.74314112                2.46715020              -12.78199643               -3.79810618               22.44149581             -114.74032195
              46.04640454              -13.90297961               81.58588291                0.00010000                5.16760498                2.82709726              -15.90261226               -2.83056800               15.60978057             -138.35775680
              47.10546700              -17.77157373               80.46966342                0.00010000                6.47177080                3.15222511              -18.89130065               -1.58904039                8.01015661             -164.27983214
              48.17583995              -21.63731334               79.27080225                0.45539879                7.03729557                3.88128320              -21.49497184               -0.46698690                4.28948198             -191.28692196
              41.76809067               17.93746479               88.84927523                0.46347704               -0.57935291               -0.95983667                3.21427598               -0.09409936                0.03858994               16.06811037
              42.76229714               14.13061282               87.45848322                0.00010000               -0.57893449               -0.13403198                0.57576255               -1.99086441               28.71800155              -12.34698433
              43.75651198               10.28256555               86.64081449                0.00010000               -0.39541324                0.50543828               -1.15607634               -3.90108394               56.40750714              -26.05225157
              44.75438888                6.43190516               85.80455609                0.00010000                0.09377754                1.05064540               -3.22612248               -4.02724364               53.43453118              -39.78958063
              45.75838753                2.57759278               84.93308804                0.00010000                0.82885831                1.63589363               -5.71452040               -4.20224066               48.73883439              -54.13351022
              46.77096605               -1.28040583               84.01179824                0.00010000                1.81510419                2.28427549               -8.63858278               -4.22520481               42.62840098              -69.73734831
              47.79468962               -5.14132737               83.02799911                0.00010000                3.05422915                2.95115272              -11.94672020               -3.99577739               35.38275646              -87.11627262
              48.83205063               -9.00414697               81.97031015                0.00010000                4.50302762                3.59707307              -15.52017409               -3.50140756               27.23343956             -106.65708133
              49.88475017              -12.86789112               80.82858750                0.00010000                6.02237441                4.21762929              -19.17390922               -2.75017849               18.41876705             -128.58565270
              50.95249812              -16.73089313               79.59469449                0.00010000                7.40103138                4.89354843              -22.66010542               -1.66048097                9.23497178             -152.86543281
              52.03277080              -20.58914267               78.26401564                0.45559238                8.02726814                5.65868888              -25.68869283               -0.49628088                4.87000500             -179.35490955
              45.56998585               18.92846586               88.56706276                0.46266928               -0.41531209               -0.85285518                2.88625778               -0.09180090                0.08857711               16.44519418
              46.56583272               15.13017741               87.03354564                0.00010000               -0.32895799                0.06392404               -0.16195744               -2.03910201               35.80834476              -12.31136863
              47.56340669               11.28967104               86.21418874                0.00010000               -0.09088879                0.90653417               -2.08568413               -3.95061736               70.32070559              -24.42939865
              48.56401495                7.44546305               85.37456914                0.00010000                0.36943567                1.61979687               -4.36958972               -3.98039522               66.75755257              -36.44714115
              49.57079540                3.59760103               84.49235069                0.00010000                1.14502424                2.31998491               -7.12337998               -3.97957519               60.94502293              -49.04023354
              50.58691543               -0.25346426               83.54782437                0.00010000                2.22859518                3.07097545              -10.37499312               -3.86946355               53.26485770              -62.81153815
              51.61536730               -4.10706878               82.52391662                0.00010000                3.58675339                3.87651316              -14.07095352               -3.60450535               44.10030827              -78.29003513
              52.65865050               -7.96246224               81.40603913                0.00010000                5.13899115                4.71575484              -18.07631863               -3.16287280               33.81956655              -95.92321851
              53.71814713              -11.81862702               80.18222165                0.00010000                6.74292110                5.57972255              -22.17848382               -2.50207738               22.79410347             -116.07593159
              54.79350892              -15.67370276               78.84381352                0.00010000                8.21331415                6.46006486              -26.09997964               -1.49403572               11.41727724             -139.02489366
              55.88241341              -19.52413957               77.38649150                0.45613320                8.89044851                7.28827480              -29.52648939               -0.44321278                5.99053754             -164.96341554
              49.36283156               19.92040769               88.28668720                0.46292539               -0.25216369               -0.76750372                2.57457847               -0.09616108                0.11062331               16.56998747
              50.36030992               16.13189130               86.60867809                0.00010000               -0.03087830                0.29058644               -0.92059393               -2.06570654               43.92803343              -12.42249264
              51.36221399               12.30069623               85.80702070                0.00010000                0.32705302                1.29202642               -3.04861366               -3.96670563               86.29182718              -22.39342228
              52.36685098                8.46430110               84.98370157                0.00010000                0.77546732                2.10913014               -5.53535381               -3.94554448               82.11549852              -32.16127363
              53.37772334                4.62399248               84.11057576                0.00010000                1.56978043                2.90498732               -8.51969418               -3.79995605               75.16445809              -42.47694116
              54.39824659                0.78101367               83.16293862                0.00010000                2.69370747                3.77349727              -12.04663039               -3.54444648               65.91330431              -53.95364253
              55.43159749               -3.06379710               82.11945229                0.00010000                4.10524094                4.73040009              -16.06479657               -3.20192509               54.81265347              -67.10043800
              56.48035141               -6.90983187               80.96165437                0.00010000                5.71758292                5.75255446              -20.42834853               -2.75462251               42.26384361              -82.42525092
              57.54594915              -10.75629667               79.67388478                0.00010000                7.38892683                6.80907317              -24.90527320               -2.14096232               28.66182329             -100.48647761
              58.62812995              -14.60169183               78.24414570                0.00010000                8.94155017                7.85130650              -29.19626585               -1.25455441               14.44474975             -121.86468178
              59.72478015              -18.44337717               76.66551872                0.45639935                9.66502041                8.78207686              -32.97013518               -0.34128653                7.56225331             -147.06024281
              53.14509541               20.91311578               88.00558963                0.46231641               -0.08653574               -0.69837318                2.25724448               -0.10671367                0.16370798               16.42534664
              54.14423005               17.13598914               86.18250010                0.00010000                0.32836801                0.53906582               -1.69022469               -2.10606138               53.37587620              -12.66787658
              55.15166277               13.31551157               85.42392151                0.00010000                0.87888815                1.64301491               -4.02196847               -3.97492934              104.83361126              -19.78260714
              56.16180781                9.48764565               84.64218928                0.00010000                1.32104691                2.48496770               -6.68318630               -3.88725795               99.94172216              -26.68146118
              57.17808371                5.65570078               83.80280409                0.00010000                2.10041356                3.35565113               -9.85418219               -3.54547688               91.74534492              -34.29899222
              58.20381608                1.82200569               82.87645149                0.00010000                3.20453217                4.36110528              -13.60375628               -3.13212088               80.88042286              -43.09852578
              59.24217435               -2.01246078               81.83813875                0.00010000                4.61207673                5.47364216              -17.88457507               -2.71133357               67.82600213              -53.47297596
              60.29605762               -5.84741115               80.66503858                0.00010000                6.25067441                6.65765746              -22.54174470               -2.25982010               52.87211980              -65.93843039
              61.36718784               -9.68244556               79.33565026                0.00010000                7.97203587                7.87007521              -27.32562789               -1.70760512               36.28160654              -81.25353671
              62.45549834              -13.51667663               77.83110307                0.00010000                9.58852583                9.04790441              -31.91611319               -0.97354295               18.46699449             -100.46414062
              63.55895835              -17.34849803               76.13833743                0.45694619               10.34600178               10.08548474              -35.96504089               -0.22023067                9.66817431             -124.56826028
              56.91495058               21.90644022               87.72169337                0.46169619                0.08423268               -0.63201244                1.91798964               -0.11132383                0.25968021               16.21522014
              57.91579291               18.14267261               85.75346378                0.00010000                0.80541529                0.80047752               -2.46829526               -2.20603040               64.53155608              -13.26587057
              58.93105889               14.33355653               85.07120794                0.00010000                1.65618515                1.83915529               -4.97163016               -3.97669828              126.57389087              -16.02857363
              59.94891661               10.51400046               84.36265171                0.00010000                2.06974398                2.61335376               -7.75062907               -3.58373199              120.60562293              -19.60065245
              60.97245377                6.69110550               83.58501432                0.00010000                2.74245608                3.64731779              -11.05675448               -3.00216837              110.87822958              -24.37481501
              62.00376573                2.86823578               82.70759574                0.00010000                3.71669415                4.82090283              -14.97966479               -2.47649630               98.41784957              -30.26606098
              63.04678765               -0.95432426               81.70359009                0.00010000                5.06870246                6.08811124              -19.47300808               -2.05136479               83.55530248              -37.45354305
              64.10513978               -4.77667872               80.54604621                0.00010000                6.71374386                7.40889682              -24.37018252               -1.65323006               66.26700503              -46.37229164
              65.18106253               -8.59889517               79.20562321                0.00010000                8.47858871                8.74038243              -29.40205688               -1.20791095               46.36147707              -57.83815757
              66.27471156              -12.42073374               77.65048767                0.00010000               10.14779012               10.02394471              -34.22347095               -0.66013377               23.97863822              -73.49473835
              67.38401833              -16.24166748               75.85453816                0.45726572               10.93067730               11.15646580              -38.46238815               -0.08297984               12.61858506              -95.91900346
              60.67040415               22.90047554               87.43640554                0.46072742                0.25889820               -0.54102457                1.57404726               -0.11101459               -0.33495585               13.96510072
              61.67299314               19.15199869               85.31595521                0.00010000                1.51984022                1.05247893               -3.28408380               -2.48522386               78.04523224              -12.28182410
              62.70080096               15.35229468               84.76391115                0.00010000                2.97955331                1.36140118               -5.82088812               -3.16863402              152.53588760               -9.53673421
              63.73258420               11.53991273               84.16183454                0.00010000                3.15020280                2.53886557               -8.63902057               -2.49689242              143.93265488              -10.57462615
              64.76380501                7.72864714               83.47333114                0.00010000                3.35658577                3.82185866              -12.03131271               -1.83327257              132.44075101              -12.77556121
              65.79971592                3.91842374               82.67416444                0.00010000                4.11282717                5.17826741              -16.09164215               -1.43694444              118.67532579              -15.69762215
              66.84606156                0.10930144               81.73758618                0.00010000                5.39240033                6.57905175              -20.76240566               -1.15155890              102.47027566              -19.37279085
              67.90756392               -3.69923321               80.63383261                0.00010000                7.05115398                8.00271352              -25.85992030               -0.90686439               83.42566208              -24.05244947
              68.98708464               -7.50763791               79.32650550                0.00010000                8.87520233                9.41401792              -31.09371998               -0.64197072               60.52041667              -30.29986586
              70.08506797              -11.31619774               77.76471258                0.00010000               10.60407912               10.75953639              -36.08965781               -0.33162971               32.31062443              -39.45104273
              71.19916622              -15.12536871               75.88395110                0.45766246               11.40982491               11.97476277              -40.43346862                0.05838122               17.14115081              -56.61890083
              64.40968399               23.89561973               87.10802141                0.73041743                0.45853030               -0.48558029                1.08611549                0.73822951                6.24995939               11.75596301
              65.41426929               20.16372219               84.90723829                0.44948151                3.50440881                1.17235050               -4.02095056               -2.61414318               97.77082426              -10.87210991
              66.47977217               16.36078455               84.53798738                0.44081584                5.41785054                0.84898786               -6.39995140               -2.05010033              181.04605531               -4.77317380
              67.52262630               12.56477777               84.05683733                0.43943259                3.87525678                2.48650390               -9.20273179               -0.65788374              168.50547389               -5.27393320
              68.55727730                8.76754267               83.48147316                0.43891329                3.58731170                3.88955386              -12.66356033               -0.30160315              156.09708867               -6.31863282
              69.59437254                4.97180113               82.79002831                0.43895201                4.20680628                5.33773847              -16.85186155               -0.04863280              141.68996562               -7.77270578
              70.64141343                1.17725678               81.95680219                0.44048249                5.47846551                6.79553329              -21.68605032                0.11390792              124.96799726               -9.60253536
              71.70394185               -2.61662445               80.95155089                0.44334204                7.18871064                8.26087565              -26.95899586                0.24421331              105.33562932              -11.95406663
              72.78518764               -6.41061481               79.73521035                0.44728202                9.09339593                9.70231021              -32.35842678                0.36437225               81.43704069              -15.18201792
              73.88580977              -10.20554302               78.25009886                0.45299387               10.91701326               11.06547207              -37.49098276                0.49630899               48.71982249              -20.02373608
              75.00352791              -14.00217222               76.36746472                0.72907137               11.77181386               12.31964919              -41.89377471                0.77324822               29.76867398              -32.90090635
              27.32678712               14.43043002               91.10789873                0.73538262               -1.21170851               -1.33871859                4.65296839               -0.36701092               -7.05415994                7.51130187
              28.31467003               10.45602629               90.17918352                0.45855977               -1.21320789               -0.80282206                3.10920604               -0.49912139               -8.99270990               -6.12370371
              29.30252296                6.47380726               89.20982484                0.44669318               -0.97173668               -0.44562558                1.77000311               -0.34611548               -8.42235421                0.16909174
              30.29523530                2.48087331               88.28770508                0.44208889               -0.44437113               -0.00867753                0.44992167               -0.34705042               -5.69909557               -0.32076037
              31.29363554               -1.51922887               87.36880167                0.43965343                0.12850553                0.43368845               -0.88491609               -0.34330247               -5.28264430               -0.20564288
              32.29780541               -5.52306899               86.45250611                0.43925416                0.70055847                0.88733770               -2.23954372               -0.34047309               -5.20990056               -0.15224335
              33.30764671               -9.52750716               85.53436069                0.44169551                1.25262765                1.34341162               -3.62672443               -0.33532713               -5.66247820               -0.08333287
              34.32285796              -13.53034620               84.61009986                0.44591533                1.76173226                1.79957361               -5.04760712               -0.32623662               -6.61722833               -0.03141017
              35.34288135              -17.53080686               83.67558650                0.45296412                2.18942458                2.25075417               -6.49625736               -0.31610946               -8.31233612               -0.03860937
              36.36664645              -21.53011811               82.72149750                0.46380343                2.51669358                2.69104334               -7.93311829               -0.29349698               -8.93021750                0.69495095
              37.39321522              -25.53209969               81.77984413                0.73654845                2.65687692                3.15476867               -9.41685575                0.07692399               -8.62131427               -5.41125425
              31.29752073               15.41704283               90.73827400                0.46540499               -0.95305384               -1.28607031                4.05410865               -0.16672943                6.21634944               12.58009898
              32.28799019               11.44799807               89.80759709                0.00010000               -0.54412190               -0.64824178                2.51656868               -0.47653123               14.08914424              -11.29137022
              33.28663829                7.46935101               89.03333451                0.00010000                0.01463329               -0.69478340                1.23526248               -1.18947549               20.52152887              -15.22744908
              34.28828286                3.48078653               88.23438650                0.00010000                0.27676818               -0.29801846               -0.23569262               -1.79762468               19.40433812              -22.54391748
              35.29217366               -0.51489199               87.44137371                0.00010000                0.51284809                0.18029000               -1.77963671               -2.21883457               19.53327287              -30.74041012
              36.29853982               -4.51419561               86.64818682                0.00010000                0.78791910                0.64879511               -3.38525850               -2.38609192               19.28053339              -39.93457092
              37.30793204               -8.51407305               85.85248512                0.00010000                1.13528113                1.04222677               -5.02597825               -2.25160879               18.77397090              -50.28533820
              38.32124544              -12.51235046               85.05076765                0.00010000                1.58370838                1.32181589               -6.68809108               -1.78636672               17.93424254              -61.95773116
              39.33960621              -16.50829932               84.23942593                0.00010000                2.15562251                1.46549396               -8.34860297               -0.99702974               16.87987796              -75.13786756
              40.36435789              -20.50320767               83.41766726                0.00010000                2.81799172                1.50571934               -9.98213051                0.09804549               13.60858815              -90.06110774
              41.39596604              -24.50055200               82.54210118                0.46232520                3.16081476                1.26393920              -11.49684840                1.90457081               10.84112099             -109.84858323
              35.26154205               16.40470861               90.46790972                0.45987899               -0.87108178               -1.10962277                3.72944678               -0.07068603               -0.58304412               16.43236649
              36.25283123               12.44306145               89.33183798                0.00010000               -0.77985317               -0.47436155                1.85503086               -1.02125982               17.09690828              -14.55628419
              37.24594499                8.45991159               88.54822495                0.00010000               -0.46527167               -0.59054415                0.65578205               -2.47142539               33.50132699              -29.44017635
              38.24352580                4.47491294               87.73652537                0.00010000               -0.08519993               -0.25539370               -0.85509185               -3.17397906               30.86289603              -44.01801707
              39.24424099                0.48437693               86.90376608                0.00010000                0.28694150                0.26668600               -2.69670474               -3.88754323               28.40101871              -60.29817488
              40.24926463               -3.51009308               86.04940086                0.00010000                0.82641982                0.78267012               -4.84234253               -4.23327177               25.62446020              -78.44916647
              41.26076938               -7.50666263               85.16835715                0.00010000                1.60461363                1.17632412               -7.24752492               -4.08925694               22.36896177              -98.84706861
              42.28135690              -11.50390988               84.25533428                0.00010000                2.65142898                1.36813597               -9.83682872               -3.40367091               18.64224053             -121.80392136
              43.31379796              -15.50149698               83.30425176                0.00010000                3.97515704                1.32745648              -12.50078890               -2.18279375               14.12723443             -147.61914464
              44.36086004              -19.50000372               82.30232859                0.00010000                5.60986649                1.06482692              -15.06840313               -0.79658954                7.72813167             -176.80002930
              45.42599529              -23.50682090               81.21998048                0.45172188                6.51352514                0.82970611              -17.32530405                0.97612692                4.28071945             -207.82088436
              39.21940132               17.39485038               90.16963927                0.45924821               -0.70393082               -0.91758305                3.37810890               -0.09311545                0.03338240               15.75917915
              40.21236201               13.43851084               88.89804357                0.00010000               -0.70215099               -0.38990946                1.21665374               -1.16606539               22.82592835              -12.62223980
              41.20535830                9.45754012               88.08147677                0.00010000               -0.60120347               -0.02917961               -0.00818994               -2.38747331               44.77583426              -27.73769743
              42.20033795                5.47567866               87.24541156                0.00010000               -0.29647429                0.37712253               -1.65703673               -2.72951221               42.01419604              -42.52330242
              43.19942882                1.49044173               86.37710773                0.00010000                0.22879979                0.93371688               -3.79875475               -3.15936537               37.98570551              -58.16780091
              44.20491394               -2.49854221               85.46863855                0.00010000                1.02674411                1.52523814               -6.42683266               -3.38962199               33.08923482              -75.41442041
              45.21996370               -6.49054656               84.51217874                0.00010000                2.15462205                2.05450679               -9.47930300               -3.28621051               27.47035080              -94.70601910
              46.24800638              -10.48498774               83.50017029                0.00010000                3.60402345                2.45203172              -12.83688081               -2.82527604               21.24903699             -116.38644211
              47.29204417              -14.48175019               82.42495892                0.00010000                5.28718206                2.69582244              -16.31018840               -2.09760278               14.45261040             -140.66760692
              48.35375002              -18.48191113               81.27750624                0.00010000                6.85393894                2.84244370              -19.63363474               -1.17145213                7.25457156             -167.33427176
              49.42912295              -22.48395788               80.05187606                0.45198213                7.53729243                3.41070230              -22.44262190               -0.22719609                3.96093748             -195.13589498
              43.17235881               18.38635695               89.88091204                0.45956056               -0.55386371               -0.81108783                3.09544627               -0.09882558                0.01018668               16.59575055
              44.16682018               14.43526327               88.46393978                0.00010000               -0.56655565               -0.22399358                0.51652031               -1.18998278               29.23211958              -12.65767631
              45.16102770               10.45932800               87.63081817                0.00010000               -0.53931155                0.36354581               -0.77287162               -2.32777604               57.35084559              -26.32634902
              46.15603394                6.48245539               86.77487649                0.00010000               -0.28765769                0.93823505               -2.59666194               -2.43519363               53.93360747              -40.10523275
              47.15527455                2.50305127               85.87870872                0.00010000                0.32132697                1.57771851               -5.03333694               -2.64065639               48.68402033              -54.58538759
              48.16246048               -1.47958832               84.92757173                0.00010000                1.31080824                2.26979441               -8.08792835               -2.75984691               42.00943012              -70.43557888
              49.18149071               -5.46557249               83.90939446                0.00010000                2.67972612                2.95826900              -11.68782843               -2.69381362               34.29533266              -88.18129394
              50.21605501               -9.45486925               82.81415608                0.00010000                4.36392925                3.59896416              -15.67985833               -2.42424268               25.88198664             -108.20972663
              51.26876930              -13.44758053               81.63383280                0.00010000                6.17918394                4.18615605              -19.82253006               -1.96171195               17.12022808             -130.74096195
              52.33963869              -17.44315484               80.36316938                0.00010000                7.83877810                4.81886348              -23.77945021               -1.24295726                8.39809958             -155.72804068
              53.42554486              -21.43860686               79.00098413                0.45253192                8.59061725                5.55547163              -27.13833085               -0.25707145                4.49877274             -183.02528885
              47.11961218               19.37862862               89.59566520                0.45871786               -0.40208717               -0.75506380                2.83046777               -0.10650921                0.08534093               17.00003330
              48.11559131               15.43403097               88.03176601                0.00010000               -0.40007600               -0.00128873               -0.20063049               -1.18626442               36.46744282              -12.65489480
              49.11161066               11.46481104               87.19520502                0.00010000               -0.38402491                0.74061562               -1.62732722               -2.27002304               71.50327150              -24.82048359
              50.10791081                7.49444336               86.33384853                0.00010000               -0.14756290                1.45231003               -3.64358107               -2.26267391               67.43891145              -36.89556797
              51.10865940                3.52199610               85.42421154                0.00010000                0.52149751                2.20370458               -6.35743658               -2.31049636               60.99974022              -49.59809566
              52.11834076               -0.45314632               84.44635875                0.00010000                1.63544765                3.01910133               -9.78370373               -2.32750451               52.68263362              -63.56047379
              53.14136835               -4.43138118               83.38386749                0.00010000                3.15944060                3.88311206              -13.84445015               -2.25740977               42.98916689              -79.33141297
              54.18152957               -8.41300846               82.22370079                0.00010000                4.98635860                4.77044016              -18.36411233               -2.06963464               32.41061449              -97.36881667
              55.24109553              -12.39802707               80.95632895                0.00010000                6.91938144                5.67927916              -23.06472378               -1.72004894               21.43558450             -118.04001227
              56.31991720              -16.38553386               79.57632296                0.00010000                8.68950076                6.61759632              -27.57134292               -1.08329631               10.54574799             -141.62088517
              57.41488554              -20.37284844               78.08307603                0.45305813                9.49683410                7.53316699              -31.43928615               -0.21227107                5.59965156             -168.30096278
              51.05942393               20.37125567               89.31248470                0.45873476               -0.25114644               -0.72330337                2.57358403               -0.10408794                0.10518339               17.13393328
              52.05691247               16.43523749               87.59939910                0.00010000               -0.21045424                0.24989654               -0.93023625               -1.20671903               44.72165821              -12.78733039
              53.05521485               12.47414031               86.77860592                0.00010000               -0.16585317                1.13578244               -2.54388077               -2.27711850               87.71257461              -22.88702880
              54.05359540                8.51150159               85.93150602                0.00010000                0.07197256                1.95581722               -4.76078277               -2.19619064               82.99038624              -32.72764743
              55.05665430                4.54712536               85.02856176                0.00010000                0.78461381                2.80990500               -7.72478784               -2.11944607               75.35183608              -43.12105139
              56.06928768                0.58079370               84.04464918                0.00010000                1.97751799                3.75502852              -11.46884737               -2.02791692               65.39830531              -54.72817622
              57.09620466               -3.38791025               82.95907207                0.00010000                3.60102597                4.79290728              -15.91511696               -1.91152045               53.71348355              -68.08782299
              58.14130820               -7.35946045               81.75505110                0.00010000                5.53445308                5.90088973              -20.87259276               -1.73564453               40.83191850              -83.72369478
              59.20689372              -11.33399495               80.41959338                0.00010000                7.57429675                7.05646762              -26.03739098               -1.42947928               27.27030201             -102.19900036
              60.29279413              -15.31080292               78.94417785                0.00010000                9.45174390                8.22829901              -31.00534182               -0.88582505               13.55267972             -124.09119844
              61.39592860              -19.28794352               77.32580615                0.45315369               10.31344631                9.34142782              -35.30763843               -0.12844700                7.16067112             -149.89452299
              54.98956678               21.36416255               89.02843709                0.45792730               -0.09944986               -0.68905066                2.31877141               -0.09648353                0.17160321               16.97336840
              55.98857229               17.43902890               87.16570827                0.00010000                0.01187026                0.50754785               -1.67148648               -1.26130336               54.30174075              -13.04049865
              56.98980419               13.48752669               86.38585189                0.00010000                0.12148336                1.53978366               -3.49288201               -2.34425944              106.48309588              -20.35138633
              57.99100195                9.53355970               85.57853794                0.00010000                0.35870873                2.42582191               -5.89707222               -2.20136521              101.01217950              -27.31681822
              58.99697836                5.57819420               84.70733859                0.00010000                1.09080371                3.36614972               -9.07451207               -1.98064886               92.06265819              -34.97133078
              60.01281803                1.62195425               83.74228596                0.00010000                2.32068651                4.44505212              -13.08425120               -1.76983860               80.42347543              -43.83878358
              61.04339209               -2.33552304               82.65899029                0.00010000                4.00416769                5.64492993              -17.85168019               -1.59242055               66.72483120              -54.34690014
              62.09290138               -6.29499067               81.43641896                0.00010000                6.02281593                6.93384834              -23.17259902               -1.40848168               51.40084683              -67.02779825
              63.16384841              -10.25689772               80.05594856                0.00010000                8.16239416                8.27496428              -28.71851626               -1.13703214               34.84141256              -82.64181026
              64.25614926              -14.22096788               78.50243516                0.00010000               10.13746917                9.62075721              -34.05567709               -0.68796721               17.54408140             -102.22333526
              65.36659780              -18.18601989               76.76694927                0.45361712               11.04485322               10.89814785              -38.68963117               -0.04358487                9.25116944             -126.75329095
              58.90776157               22.35747466               88.74146664                0.45755756                0.05606960               -0.64313351                2.03855116               -0.09924497                0.27487702               16.75193022
              59.90832226               18.44538845               86.72902403                0.00010000                0.30186425                0.76529411               -2.41632034               -1.35966040               65.60076841              -13.66457287
              60.91379885               14.50493599               86.02367452                0.00010000                0.52891611                1.87577534               -4.43106059               -2.43084618              128.46419180              -16.60728701
              61.91890059               10.56001803               85.28824456                0.00010000                0.74239610                2.75970291               -6.97588277               -2.11528342              121.86559274              -20.20642458
              62.92864677                6.61444835               84.47728972                0.00010000                1.43537814                3.83101116              -10.32095406               -1.73102262              111.29093928              -24.97106389
              63.94760815                2.66969475               83.55922257                0.00010000                2.63271954                5.05483233              -14.55051827               -1.42523419               97.96625463              -30.87650520
              64.98130116               -1.27501165               82.50783736                0.00010000                4.34525481                6.40130666              -19.58984313               -1.22202355               82.39080640              -38.12861910
              66.03451324               -5.22078348               81.29811726                0.00010000                6.44145642                7.83266933              -25.21828069               -1.05368861               64.69453954              -47.17468182
              67.11013029               -9.16849566               79.90383504                0.00010000                8.68218583                9.30480796              -31.07904060               -0.83601646               44.81925552              -58.82844523
              68.20815696              -13.11838777               78.29719620                0.00010000               10.75153076               10.76521130              -36.69991849               -0.49159364               22.99145495              -74.71204304
              69.32516091              -17.06998056               76.45653036                0.45415219               11.70039474               12.14333047              -41.54900052                0.04270703               12.16883891              -97.35959723
              62.81175431               23.35129988               88.45303617                0.45695617                0.21634418               -0.57773945                1.75194840               -0.10663231               -0.34683819               14.42022304
              63.81391775               19.45433478               86.28348930                0.00010000                0.74016883                1.01547016               -3.19488010               -1.55161993               79.30810567              -12.65915945
              64.82655769               15.52504219               85.70792928                0.00010000                1.26330847                1.79195424               -5.26605048               -1.98172178              154.72962825               -9.96892098
              65.83918392               11.58875376               85.07846794                0.00010000                1.30617533                2.93676803               -7.87437216               -1.54295476              145.34309807              -10.97812944
              66.85268119                7.65481443               84.35560294                0.00010000                1.72947127                4.19376988              -11.34466359               -1.10601729              132.86219462              -13.14911703
              67.87377335                3.72305090               83.51415991                0.00010000                2.83743283                5.56496697              -15.76652581               -0.85953643              118.12181997              -16.05761414
              68.90942985               -0.20749691               82.52811760                0.00010000                4.57691382                7.03162592              -21.05100689               -0.71452258              101.13208099              -19.75014769
              69.96531162               -4.13833728               81.36984526                0.00010000                6.76512651                8.56688492              -26.95442612               -0.61097493               81.64826455              -24.48413128
              71.04473238               -8.07080156               80.00631449                0.00010000                9.12453314               10.12619541              -33.08939142               -0.48353217               58.78680070              -30.82064617
              72.14780229              -12.00566366               78.39104415                0.00010000               11.29525637               11.64740231              -38.93650893               -0.27776691               31.20247632              -40.07759808
              73.27063751              -15.94315328               76.46453065                0.45424443               12.28352216               13.07095746              -43.88923617                0.14185900               16.62932555              -57.29829679
              66.69955912               24.34591987               88.12001795                0.72814961                0.39884286               -0.53800098                1.31251885                0.75827924                6.44876433               12.13636042
              67.70354755               20.46569785               85.86758754                0.44754110                2.00931563                1.13630708               -3.88280696               -1.29426006               99.44929053              -11.21710509
              68.73974543               16.54077507               85.47644586                0.44032764                2.73608546                1.57328770               -5.78812574               -1.02844831              183.51951561               -5.02227462
              69.75826926               12.61875339               84.96794227                0.43916370                1.62419292                2.99996264               -8.40552834               -0.21403228              169.92611110               -5.52155759
              70.77222929                8.69832375               84.35728948                0.43871600                1.72297450                4.35093234              -11.99643652                0.06684490              156.35351496               -6.54800438
              71.79272875                4.78099409               83.62195458                0.43919025                2.80847991                5.79431892              -16.61910702                0.26039627              140.85839852               -7.98499247
              72.82839889                0.86562087               82.73723930                0.44034866                4.64348244                7.31177721              -22.15260991                0.37491083              123.29552069               -9.80390393
              73.88559840               -3.04944578               81.67529941                0.44217853                6.96935678                8.88915004              -28.32289673                0.44904639              103.21774254              -12.15479190
              74.96778603               -6.96597176               80.40069151                0.44552220                9.46774725               10.48298011              -34.71377718                0.50566733               79.39822841              -15.39217175
              76.07495334              -10.88543973               78.86037769                0.45024379               11.75956517               12.02239299              -40.77768415                0.58562315               47.39757727              -20.24575038
              77.20297733              -14.80856141               76.93131273                0.72729375               12.80239867               13.45918688              -45.80985062                0.92181410               29.11865721              -33.06272510
              28.19247372               14.87840912               92.15290721                0.73254283               -1.11155355               -1.22840753                4.32589953               -0.33794163               -7.08165464                7.53758609
              29.18135818               10.76903867               91.20924760                0.45479002               -1.02204749               -0.76070937                2.88913308               -0.37628103               -8.89418528               -6.17218219
              30.17203277                6.65466844               90.22716655                0.44512303               -0.71732741               -0.40758838                1.69450528               -0.31798792               -8.11393563                0.17137206
              31.16701164                2.53434511               89.29251704                0.44127493               -0.26274484               -0.00285017                0.51572988               -0.33601920               -5.33136287               -0.32960386
              32.16677787               -1.58944945               88.36100036                0.43901399                0.21541993                0.40930622               -0.66554291               -0.34301644               -4.90358512               -0.20946487
              33.17132004               -5.71463518               87.43189401                0.43904073                0.69003494                0.82780479               -1.86531384               -0.34325618               -4.85332940               -0.15387786
              34.18057857               -9.83959596               86.50062998                0.44091771                1.15076386                1.25265532               -3.09475875               -0.33377519               -5.35256679               -0.09427158
              35.19433531              -13.96327638               85.56289256                0.44464693                1.57963857                1.67133561               -4.35947012               -0.32076231               -6.36267827               -0.04380119
              36.21217134              -18.08597913               84.61458023                0.45032834                1.94162144                2.09255439               -5.65311576               -0.30717294               -8.09637103               -0.06145648
              37.23316774              -22.20944160               83.64689367                0.45916714                2.21301494                2.49924770               -6.92989562               -0.27891505               -8.76456646                0.64478778
              38.25643164              -26.33783130               82.69113287                0.73324228                2.32639014                2.92137128               -8.27338522                0.22445954               -8.51311196               -5.32798275
              32.29846475               15.86612504               91.77747630                0.46008575               -0.89990342               -1.07507587                3.76860729               -0.05229719                6.27803452               12.75388394
              33.28946571               11.76143158               90.83189524                0.00010000               -0.61325383               -0.71781398                2.33380001               -0.20881303               14.26875640              -11.37055936
              34.28619967                7.65059255               90.04508120                0.00010000               -0.18776637               -0.49401104                1.10265542               -0.54629099               20.63144111              -15.16263292
              35.28571039                3.53431661               89.23165306                0.00010000                0.08190920               -0.04969394               -0.31577254               -0.95344809               19.32532928              -22.39069613
              36.28783786               -0.58535639               88.42343465                0.00010000                0.36251710                0.40250317               -1.81544683               -1.32187903               19.36501039              -30.59975336
              37.29296073               -4.70635713               87.61449037                0.00010000                0.68617818                0.79421845               -3.36398409               -1.54881479               19.04834273              -39.93698921
              38.30156142               -8.82706941               86.80258137                0.00010000                1.06792722                1.07957275               -4.96025039               -1.53958093               18.50677627              -50.56351977
              39.31431927              -12.94656302               85.98458141                0.00010000                1.53104036                1.21526726               -6.54644796               -1.21221547               17.65515632              -62.62584691
              40.33218223              -17.06505358               85.15682840                0.00010000                2.09927029                1.18150844               -8.15013499               -0.51577859               16.61761036              -76.25923581
              41.35630468              -21.18444913               84.31907848                0.00010000                2.74418546                0.98322008               -9.71770419                0.60236800               13.42630692              -91.62655537
              42.38706594              -25.30861759               83.42886455                0.45744062                3.07612568                0.24352007              -11.13334593                2.80866807               10.71689810             -111.67824004
              36.40081470               16.85690760               91.50395035                0.45543295               -0.81002898               -0.81405927                3.47667647               -0.04461251               -0.65339361               16.82498902
              37.39271441               12.75468239               90.34975843                0.00010000               -0.62963912               -0.65600637                1.72605435               -0.30766342               17.40866974              -14.74292985
              38.38822192                8.64478822               89.55548062                0.00010000               -0.44113996               -0.41887255                0.83229723               -0.83307082               34.14211584              -29.23170208
              39.38389161                4.53335123               88.72945859                0.00010000               -0.36039416                0.06581855               -0.49847062               -1.38289876               31.12113230              -43.64566964
              40.38101404                0.41860062               87.87858795                0.00010000               -0.09174271                0.59704437               -2.26780039               -2.04617878               28.23954373              -59.97973488
              41.38205676               -3.69875081               87.00262074                0.00010000                0.44894034                1.03740447               -4.44182097               -2.51763891               25.07207357              -78.43092846
              42.38999284               -7.81800450               86.09701010                0.00010000                1.30092104                1.29099375               -6.96113335               -2.61823226               21.49037411              -99.37563080
              43.40807518              -11.93897104               85.15724379                0.00010000                2.48745159                1.28043419               -9.74532879               -2.21741349               17.55045036             -123.10317403
              44.43974188              -16.06234896               84.17849112                0.00010000                4.03519644                0.95703994              -12.65538499               -1.24338040               13.01509044             -149.82850000
              45.48877911              -20.18977720               83.14986720                0.00010000                6.06000264                0.26745853              -15.47618623               -0.16376666                6.91322585             -179.95216120
              46.56094193              -24.33296090               82.04438734                0.44914005                7.21628195               -0.62086555              -17.89299094                1.64428664                3.94404660             -211.98698846
              40.50202291               17.84984386               91.20251699                0.45547070               -0.65910828               -0.67768643                3.18397358               -0.08202951                0.00273261               16.23635334
              41.49543183               13.74831145               89.90974322                0.00010000               -0.55767479               -0.54727714                1.11973225               -0.16548819               23.35420993              -12.89231547
              42.49086942                9.64221510               89.08302185                0.00010000               -0.55959085               -0.12389470                0.38370052               -0.41541003               45.78143420              -27.65523533
              43.48424001                5.53563298               88.23164603                0.00010000               -0.59265452                0.40061520               -0.98882491               -0.71758676               42.53645199              -42.30053332
              44.47901633                1.42658450               87.34226350                0.00010000               -0.25134711                1.00903055               -3.04605748               -1.14416820               37.91400622              -58.00420074
              45.47921307               -2.68560905               86.40707456                0.00010000                0.52003351                1.59566009               -5.76425568               -1.47109410               32.42267482              -75.51364336
              46.48941700               -6.80124953               85.41895520                0.00010000                1.75511935                2.06812563               -9.06603525               -1.56631091               26.29562625              -95.27711083
              47.51431546              -10.92095434               84.37167030                0.00010000                3.43518953                2.35495133              -12.80934054               -1.37432065               19.75448504             -117.62164983
              48.55812079              -15.04591278               83.25967915                0.00010000                5.46629163                2.41342878              -16.76214475               -0.98730319               12.95918822             -142.72229736
              49.62364129              -19.17909996               82.07699072                0.00010000                7.40991391                2.27532702              -20.57455507               -0.52962252                6.25708999             -170.33741377
              50.70631907              -23.32103490               80.82194981                0.44925779                8.26777751                2.60562458              -23.73621307                0.11524674                3.51594487             -199.19041982
              44.60223892               18.84335387               90.91118416                0.45510330               -0.52055190               -0.64749951                2.95661650               -0.08829612               -0.00249901               17.14842034
              45.59703340               14.74373685               89.46881363                0.00010000               -0.48233657               -0.33456283                0.45232804               -0.04168095               29.97793240              -13.00810391
              46.59259219               10.64231032               88.62535706                0.00010000               -0.59314622                0.16292597               -0.23186602               -0.09265654               58.72340128              -26.41745820
              47.58517048                6.54136354               87.75262286                0.00010000               -0.66097461                0.76445893               -1.71595919               -0.19912237               54.71126316              -40.08356232
              48.57937270                2.43878123               86.83242131                0.00010000               -0.23507844                1.46007900               -4.06581528               -0.44687467               48.74983517              -54.60960721
              49.58046891               -1.66683761               85.85003968                0.00010000                0.73196112                2.19289317               -7.26575316               -0.68620690               41.35453452              -70.67355658
              50.59401192               -5.77664199               84.79424254                0.00010000                2.23915552                2.89374412              -11.22180090               -0.83213961               33.02493962              -88.80834587
              51.62525202               -9.89187201               83.65671299                0.00010000                4.20647538                3.51103757              -15.75008305               -0.86762560               24.23282041             -109.40145120
              52.67814143              -14.01408038               82.43213690                0.00010000                6.40283778                4.03624687              -20.55199721               -0.81413988               15.48576500             -132.66783977
              53.75330878              -18.14427066               81.11910549                0.00010000                8.44876610                4.59855131              -25.18861412               -0.63662583                7.32052901             -158.55306348
              54.84711675              -22.28084841               79.72124902                0.44945858                9.38079747                5.30270300              -29.09192300                0.07128749                4.00956350             -186.91258396
              48.69949103               19.83689387               90.62367211                0.45488234               -0.38492727               -0.65197062                2.77164957               -0.08399185                0.07793530               17.57892084
              49.69564176               15.74162019               89.02953303                0.00010000               -0.40507161               -0.07672106               -0.24766785                0.00841089               37.40928991              -13.03792213
              50.69138960               11.64547362               88.18164220                0.00010000               -0.59275493                0.49992302               -0.98412630                0.05341692               73.21482879              -25.08467500
              51.68378666                7.55092216               87.30169752                0.00010000               -0.65548096                1.18476033               -2.62836670                0.09224242               68.47120253              -37.09257317
              52.67827998                3.45578608               86.36520196                0.00010000               -0.14372553                1.98315859               -5.26523955               -0.02145679               61.23032769              -49.82590413
              53.68091215               -0.64175118               85.35215029                0.00010000                0.97643102                2.86802773               -8.88783731               -0.19636240               52.10473119              -63.94408480
              54.69780860               -4.74337465               84.24702762                0.00010000                2.67445931                3.79828129              -13.39330026               -0.37645451               41.72255262              -80.01608523
              55.73440134               -8.85073359               83.03875689                0.00010000                4.82140212                4.74240335              -18.56957187               -0.52983770               30.72194101              -98.51274385
              56.79423664              -12.96518785               81.72092718                0.00010000                7.16377325                5.70920451              -24.07338363               -0.61541668               19.75226783             -119.80757234
              57.87767680              -17.08712893               80.29238666                0.00010000                9.33318327                6.73213312              -29.41887195               -0.50655009                9.43964630             -144.17970792
              58.98090031              -21.21498084               78.75770578                0.44966921               10.32235076                7.78537661              -33.99822015                0.09581968                5.09130637             -171.81501835
              52.79110643               20.83031446               90.33815888                0.45438451               -0.24845622               -0.66463282                2.56503981               -0.08649910                0.12385126               17.71930161
              53.78862187               16.74220243               88.59007337                0.00010000               -0.33739313                0.19670208               -0.93889345               -0.03986851               45.83525371              -13.18632657
              54.78435857               12.65230878               87.75614309                0.00010000               -0.59594993                0.89708099               -1.83665286               -0.00191337               89.71293541              -23.30546487
              55.77670287                8.56505874               86.88848592                0.00010000               -0.63708307                1.68242969               -3.67216310                0.14568310               84.25924424              -33.12762340
              56.77161690                4.47844440               85.95608000                0.00010000               -0.05002373                2.58800628               -6.58004300                0.13865351               75.74576468              -43.53359627
              57.77570239                0.39052294               84.93356167                0.00010000                1.19241673                3.62039034              -10.56976101                0.03004859               64.90879108              -55.23454471
              58.79546524               -3.70067637               83.80114995                0.00010000                3.03830362                4.76052843              -15.53693364               -0.14087584               52.47179414              -68.80300260
              59.83646846               -7.79702394               82.54420251                0.00010000                5.33815994                5.98501559              -21.25004540               -0.32524869               39.12674681              -84.78247158
              60.90222844              -11.89989629               81.15313696                0.00010000                7.82511522                7.28322149              -27.33394762               -0.44204064               25.55606166             -103.74383537
              61.99297077              -16.00962800               79.62403887                0.00010000               10.12542635                8.64836222              -33.26666569               -0.37710688               12.42624424             -126.26196816
              63.10473696              -20.12514088               77.95936595                0.44993725               11.17661952               10.03463959              -38.40887180                0.15137257                6.63997038             -152.82123686
              56.87398511               21.82360121               90.05196506                0.45434790               -0.11350448               -0.67173547                2.37878940               -0.09335081                0.17313816               17.54569138
              57.87285006               17.74555424               88.14907037                0.00010000               -0.27450457                0.46988504               -1.64881748               -0.16037172               55.55489421              -13.44719730
              58.86849502               13.66341524               87.35406387                0.00010000               -0.61426790                1.35123091               -2.74538550               -0.21099269              108.73724876              -20.89185908
              59.86056471                9.58457075               86.52424784                0.00010000               -0.64530840                2.24416109               -4.78131320                0.00206857              102.48666987              -27.86634855
              60.85558885                5.50754621               85.62131385                0.00010000                0.00345893                3.24877340               -7.93216658                0.08817557               92.58863842              -35.50621382
              61.86063389                1.43065663               84.61476647                0.00010000                1.34745592                4.41543892              -12.23727846                0.05652520               79.98467862              -44.40512434
              62.88253797               -2.64816408               83.48110515                0.00010000                3.32412017                5.73262072              -17.59495708               -0.07230288               65.46575139              -55.03257137
              63.92711629               -6.73103328               82.20158660                0.00010000                5.77309603                7.17126433              -23.75662786               -0.23974502               49.63623076              -67.94091430
              64.99799989              -10.81952342               80.76127994                0.00010000                8.41314803                8.70331447              -30.31547811               -0.34940714               33.05901278              -83.89203477
              66.09537925              -14.91416169               79.14998953                0.00010000               10.84768128               10.30222010              -36.71058532               -0.29450322               16.37457476             -103.90338014
              67.21495352              -19.01428805               77.36454481                0.45045628               11.95742654               11.93500424              -42.26715364                0.18685540                8.70727920             -128.92982379
              60.94533336               22.81687975               89.76246439                0.45386145                0.02670414               -0.66362578                2.15080587               -0.09916063                0.28880260               17.29586455
              61.94560040               18.75160013               87.70513737                0.00010000               -0.21055813                0.73488726               -2.34604345               -0.30671364               66.99808860              -14.08011298
              62.94112220               14.67933340               86.98258672                0.00010000               -0.64935635                1.83648385               -3.66007928               -0.48691504              130.94769457              -17.19892871
              63.93261327               10.60994196               86.22313406                0.00010000               -0.69138262                2.80408353               -5.86121589               -0.23528706              123.51235067              -20.79395851
              64.92729454                6.54341987               85.37859524                0.00010000               -0.00350444                3.90594110               -9.21611450               -0.06710799              111.88252055              -25.51046558
              65.93254318                2.47883172               84.41658538                0.00010000                1.42072700                5.19414091              -13.79445846               -0.02200232               97.48871531              -31.39644796
              66.95570908               -1.58602395               83.31179323                0.00010000                3.52448588                6.65303156              -19.49347501               -0.09752557               81.01291409              -38.69383286
              68.00303290               -5.65359865               82.04168060                0.00010000                6.13298103                8.24676473              -26.04331566               -0.22950068               62.76871593              -47.86524901
              69.07836870               -9.72583000               80.58404240                0.00010000                8.94062179                9.93080536              -32.99908277               -0.31815399               42.88168483              -59.71947710
              70.18184534              -13.80358360               78.91648930                0.00010000               11.51790467               11.66152502              -39.74574013               -0.25443489               21.72563976              -75.84449901
              71.30872680              -17.88644079               77.02355815                0.45075382               12.68814599               13.40855158              -45.55493000                0.20559203               11.57414015              -98.70843690
              65.00256114               23.81032869               89.47144450                0.45358062                0.17010039               -0.62481767                1.91818518               -0.09833486               -0.36026107               14.87425099
              66.00426214               19.76025198               87.25205761                0.00010000               -0.10731268                0.97917379               -3.06881716               -0.44784922               80.88808401              -13.03893898
              67.00041488               15.70014492               86.65859014                0.00010000               -0.62448200                2.19862525               -4.46952667               -0.54570027              157.48901856              -10.42984327
              67.99177250               11.64065242               86.00434710                0.00010000               -0.75289746                3.27279931               -6.75936721               -0.33941294              147.10008722              -11.40069097
              68.98535693                7.58566503               85.24643786                0.00010000               -0.10674219                4.48948213              -10.28385507               -0.15361168              133.39436428              -13.51613318
              69.98963766                3.53453944               84.35883392                0.00010000                1.38304502                5.88401070              -15.11786310               -0.08604846              117.44987227              -16.38762476
              71.01301783               -0.51510345               83.31656604                0.00010000                3.63473351                7.44796291              -21.14121878               -0.11837465               99.47127906              -20.08218130
              72.06233233               -4.56609798               82.09474409                0.00010000                6.43019595                9.14850275              -28.05456317               -0.19961375               79.40202174              -24.86471189
              73.14162175               -8.62090731               80.66471767                0.00010000                9.42845078               10.93088606              -35.37179531               -0.25639877               56.55272021              -31.29101556
              74.25090134              -12.68093119               78.98598240                0.00010000               12.15789959               12.72292544              -42.40860702               -0.19574727               29.75035023              -40.64946634
              75.38477974              -16.74611702               77.00616638                0.45123426               13.38784022               14.47249575              -48.32218191                0.24662574               15.93711596              -57.86964382
              69.04352009               24.80438340               89.13427179                0.72659849                0.33071052               -0.59452984                1.53671194                0.77591585                6.65648997               12.50783579
              70.04682719               20.77118361               86.82958216                0.44553345                0.31438315                1.09316236               -3.69645306                0.20263052              101.45256231              -11.55410751
              71.04980775               16.72330591               86.42222487                0.43996458               -0.32611441                2.31609875               -4.91060826                0.15000382              186.55286257               -5.32916340
              72.04030490               12.67539795               85.88872677                0.43897263               -0.97362295                3.47455274               -7.23546093                0.34842036              171.62110889               -5.82111541
              73.03033529                8.63320951               85.24154442                0.43883043               -0.43571050                4.75444797              -10.94112908                0.55353482              156.59495028               -6.81386867
              74.03159069                4.59651194               84.45764617                0.43903803                1.18218633                6.19724922              -16.06172098                0.68159348              139.74815758               -8.21701798
              75.05397902                0.56293531               83.51374999                0.43968908                3.66268973                7.80387560              -22.43530102                0.73909142              121.12118554              -10.01043670
              76.10484449               -3.47062860               82.38509295                0.44168231                6.70474578                9.54693827              -29.72454350                0.74383658              100.44495402              -12.34800938
              77.18807393               -7.50721228               81.04093480                0.44404385                9.91478065               11.36950283              -37.40698150                0.72039340               76.67799540              -15.58130608
              78.30314010              -11.54912509               79.43454518                0.44802762               12.79785212               13.18060967              -44.75943041                0.73494590               45.59048496              -20.42597093
              79.44403097              -15.59699088               77.45126771                0.72564786               14.08908742               14.91261396              -50.77855354                1.13854411               28.18424859              -33.10056236
              29.07247324               15.33204356               93.19441672                0.72987406               -0.99462584               -1.09661920                3.96037504               -0.29858907               -7.08160701                7.53858667
              30.06252698               11.08728737               92.23696618                0.45089088               -0.77492172               -0.72113201                2.64647800               -0.20856461               -8.74761769               -6.19856188
              31.05697481                6.84140540               91.24371495                0.44332128               -0.38763739               -0.36211190                1.61377979               -0.31045984               -7.72530725                0.15901347
              32.05477423                2.59600919               90.29801968                0.44066364               -0.03939713                0.00218662                0.58801612               -0.31843173               -4.87074067               -0.34225650
              33.05618686               -1.64828676               89.35549081                0.43900104                0.31674809                0.38121111               -0.42498450               -0.32245417               -4.42271480               -0.21727941
              34.06110920               -5.89133927               88.41519984                0.43915926                0.67049771                0.76771522               -1.45220448               -0.32535500               -4.39784551               -0.14954583
              35.06959682              -10.13329538               87.47246552                0.43998474                1.02724745                1.15718233               -2.51363333               -0.32506137               -4.95027890               -0.10465214
              36.08165414              -14.37459992               86.52291046                0.44347745                1.36779997                1.53812883               -3.60612581               -0.31710699               -6.02116244               -0.04542911
              37.09695282              -18.61653232               85.56252418                0.44800119                1.65741724                1.91374034               -4.71973208               -0.29874985               -7.79055605               -0.07977942
              38.11480249              -22.86159197               84.58289958                0.45451626                1.87608907                2.28796650               -5.83254038               -0.27497962               -8.52617542                0.58830805
              39.13447460              -27.11412271               83.61437643                0.73035242                1.96721085                2.67514310               -7.03401901                0.37265420               -8.34944904               -5.20465213
              33.31424354               16.32107737               92.81364614                0.45557123               -0.84831246               -0.79379287                3.45209750                0.11910650                6.31299197               12.90582549
              34.30576042               12.08007605               91.85427309                0.00010000               -0.73671223               -0.84662451                2.13547216                0.18271434               14.38975484              -11.42222731
              35.29950930                7.83778428               91.05538761                0.00010000               -0.46622098               -0.20342453                0.95484441                0.40336733               20.65016330              -14.90162093
              36.29643600                3.59603106               90.22807105                0.00010000               -0.14363719                0.29986925               -0.41079520                0.29039735               19.13691228              -21.91074028
              37.29663655               -0.64447465               89.40506478                0.00010000                0.19619793                0.71200739               -1.85387081               -0.00051599               19.06637557              -30.05494693
              38.30035996               -4.88366212               88.58090714                0.00010000                0.56699882                1.00217163               -3.35401796               -0.30370737               18.68366540              -39.51393317
              39.30797653               -9.12172356               87.75328012                0.00010000                0.98707959                1.13731556               -4.88834357               -0.45997618               18.13073663              -50.45404129
              40.32010155              -13.35921863               86.91983869                0.00010000                1.47424064                1.07688357               -6.41066588               -0.32203101               17.28390313              -63.00013606
              41.33746134              -17.59739492               86.07642323                0.00010000                2.03731684                0.78072978               -7.91780414                0.25149395               16.24179186              -77.21940894
              42.36084788              -21.83871230               85.22331317                0.00010000                2.66352671                0.23163937               -9.42397312                1.42247462               13.15496609              -93.17538802
              43.39073188              -26.08737127               84.31943426                0.45350028                2.98839919               -1.27616150              -10.75923614                4.20217025               10.53649631             -113.58466946
              37.55685801               17.31616770               92.53744325                0.45193905               -0.73836522               -0.43668650                3.20195992               -0.04328392               -0.74016712               17.22045854
              38.54947436               13.07035488               91.36635907                0.00010000               -0.38854325               -0.92333542                1.58721413                0.71750707               17.81654294              -14.93671300
              39.54908714                8.83733691               90.56487089                0.00010000               -0.33166229               -0.16126495                1.09035677                1.56132886               34.99370043              -28.61780974
              40.54284111                4.60200657               89.72655596                0.00010000               -0.66087121                0.52363370               -0.00843343                1.20029092               31.49546048              -42.62413664
              41.53586972                0.36595339               88.85841008                0.00010000               -0.52785779                1.04995080               -1.68225285                0.61707230               28.10606745              -58.87396154
              42.53228395               -3.87129584               87.96056444                0.00010000                0.00420441                1.37140522               -3.87799199               -0.00933384               24.46077713              -77.59717793
              43.53595381               -8.11054907               87.02913448                0.00010000                0.93004666                1.42011663               -6.53080266               -0.42312273               20.45796965              -99.15962615
              44.55088489              -12.35306225               86.06042770                0.00010000                2.27612788                1.11643498               -9.55388182               -0.40490335               16.21014664             -123.83805564
              45.58147637              -16.60091773               85.05114406                0.00010000                4.11717234                0.37765006              -12.79941412                0.22746179               11.59734542             -151.73520358
              46.63322833              -20.85695918               83.99280487                0.00010000                6.71797884               -0.95926961              -15.98853051                0.85225330                5.83470862             -183.11071541
              47.71583594              -25.13964594               82.86212066                0.44631948                8.26076073               -2.86283402              -18.68044143                2.67091429                3.47966381             -216.54062541
              41.80500351               18.31234364               92.23331874                0.45132389               -0.60621588               -0.39987358                2.97100617               -0.06383551               -0.02874807               16.73564266
              42.79894135               14.06160934               90.92043822                0.00010000               -0.29596672               -0.75217494                1.01493185                1.24734548               24.10626587              -13.20148400
              43.79908418                9.83455898               90.08915078                0.00010000               -0.35580075               -0.24892089                0.92033820                2.37468710               47.23093920              -27.25517891
              44.79182534                5.60650373               89.22563506                0.00010000               -0.84018814                0.43630400               -0.08977260                2.11596170               43.36372561              -41.53398376
              45.78228041                1.37652436               88.31618659                0.00010000               -0.75748015                1.09836363               -2.02385670                1.71234815               38.01231602              -57.17596833
              46.77667573               -2.85623402               87.35335344                0.00010000               -0.04999637                1.65803272               -4.83033444                1.28001962               31.78945965              -74.91377962
              47.78128049               -7.09332123               86.33085804                0.00010000                1.28482028                2.03686230               -8.41941110                0.93532331               25.00866644              -95.20000298
              48.80237214              -11.33688994               85.24398348                0.00010000                3.23135112                2.15386964              -12.63958763                0.77057372               18.00765772             -118.34247366
              49.84590751              -15.58984192               84.08971603                0.00010000                5.71245083                1.93661839              -17.22423737                0.68039840               11.13038818             -144.47976065
              50.91662116              -19.85789770               82.86601514                0.00010000                8.18080796                1.36735641              -21.73293434                0.44613867                4.99548723             -173.34752234
              52.00952367              -24.14462795               81.57715180                0.44653482                9.29025114                1.35157160              -25.46772898                0.60763002                2.93833731             -203.65709481
              46.05704989               19.30817023               91.94004437                0.45105410               -0.48439710               -0.45556639                2.82352135               -0.06360792               -0.00617483               17.75068382
              47.05220592               15.05531138               90.47298634                0.00010000               -0.26816996               -0.47982784                0.37334042                1.55269650               31.04604108              -13.41674366
              48.05168649               10.83235849               89.62618085                0.00010000               -0.45054818               -0.11137343                0.49680019                3.00399224               60.71518469              -26.26752338
              49.04319496                6.61073265               88.74055730                0.00010000               -0.94160332                0.51125538               -0.54185919                2.87559644               55.93716105              -39.62821965
              50.03285443                2.38792066               87.79739242                0.00010000               -0.77325110                1.26474808               -2.76009090                2.58324643               49.10495920              -54.09014454
              51.02772994               -1.83813519               86.78225667                0.00010000                0.12308824                2.03420033               -6.10911034                2.21007556               40.82888946              -70.32951231
              52.03531619               -6.06981182               85.68495844                0.00010000                1.75435600                2.73554648              -10.47778502                1.80413271               31.71433657              -88.88400680
              53.06281706              -10.30998486               84.49915442                0.00010000                4.03879510                3.30685356              -15.66662729                1.36615770               22.38224796             -110.14549337
              54.11609210              -14.56218536               83.22279286                0.00010000                6.70600428                3.73316708              -21.33278319                0.84882003               13.55464842             -134.33199122
              55.19693714              -18.82961205               81.85939710                0.00010000                9.26784818                4.19181483              -26.92762844                0.24406126                6.00339523             -161.39468032
              56.30144906              -23.11261450               80.41914567                0.44663014               10.45119157                4.86811060              -31.69025639                0.52724342                3.39723103             -191.20775039
              50.30944905               20.30323231               91.65109819                0.45118108               -0.36420326               -0.54107329                2.70004110               -0.07084810                0.06466692               18.19710999
              51.30580702               16.05201278               90.02681266                0.00010000               -0.28531551               -0.16688803               -0.29308842                1.62633091               38.73893886              -13.47590488
              52.30374274               11.83233151               89.17552249                0.00010000               -0.60159628                0.16254252               -0.12637965                3.20452844               75.66908633              -25.17585574
              53.29377510                7.61672884               88.28128120                0.00010000               -1.04647812                0.78330756               -1.28070179                3.25681155               70.05014104              -36.96252317
              54.28281318                3.40181933               87.31890675                0.00010000               -0.75826848                1.62104433               -3.79480319                3.06802801               61.83529939              -49.63136027
              55.27860973               -0.81555001               86.26860201                0.00010000                0.31998155                2.58109115               -7.62431777                2.71169952               51.73139005              -63.86294599
              56.28921281               -5.03861030               85.11600149                0.00010000                2.17295520                3.58819960              -12.64663848                2.22403260               40.48103435              -80.24817299
              57.32206883               -9.27075286               83.85230935                0.00010000                4.66491455                4.60226336              -18.63063001                1.62353914               28.88641939              -99.27780345
              58.38251110              -13.51517858               82.47486127                0.00010000                7.49313461                5.64804722              -25.18292541                0.93889837               17.81359853             -121.34198215
              59.47193152              -17.77406140               80.98794552                0.00010000               10.17811651                6.79834528              -31.70297231                0.30328601                8.11814798             -146.73526452
              60.58607343              -22.04726574               79.40311162                0.44706022               11.41419111                8.07036108              -37.38594426                0.51080425                4.46921912             -175.64652132
              54.55807199               21.29734876               91.36378550                0.45047644               -0.24386469               -0.62307193                2.56223271               -0.06902146                0.14973217               18.32076942
              55.55563334               17.05197362               89.58062123                0.00010000               -0.35054888                0.15040835               -0.95329311                1.50124530               47.37759904              -13.62439020
              56.55106101               12.83560934               88.74187286                0.00010000               -0.83949819                0.54571784               -0.89217295                3.00270725               92.52051666              -23.61100570
              57.53884338                8.62639881               87.85806276                0.00010000               -1.22835863                1.24278775               -2.22657927                3.22212431               86.12750698              -33.30318052
              58.52649384                4.42034154               86.89696090                0.00010000               -0.82249125                2.18676797               -5.03400815                3.12535763               76.55993210              -43.64251419
              59.52239355                0.21348664               85.83325396                0.00010000                0.42529321                3.31890346               -9.28674259                2.78605986               64.66485910              -55.39200054
              60.53499970               -3.99804783               84.64833339                0.00010000                2.47312865                4.58962750              -14.85970311                2.26239729               51.29088360              -69.16407259
              61.57185612               -8.21793959               83.33005019                0.00010000                5.15894496                5.97329109              -21.50005157                1.61028954               37.30355229              -85.52982956
              62.63817860              -12.44922442               81.87291443                0.00010000                8.16169522                7.47673654              -28.77857825                0.92045386               23.60658284             -105.07556984
              63.73509003              -16.69364515               80.27884454                0.00010000               10.99476149                9.12877420              -36.05351448                0.32307494               11.09455094             -128.37888894
              64.85807383              -20.95120728               78.55762872                0.44756209               12.29838013               10.92285896              -42.48189854                0.52175614                6.00833839             -155.91291581
              58.79881892               22.29077087               91.07601288                0.45070060               -0.12475653               -0.67181296                2.41459097               -0.06900843                0.18098157               18.11425727
              59.79757135               18.05502095               89.13273192                0.00010000               -0.47236082                0.44126653               -1.60594043                1.25016810               57.24697821              -13.87269228
              60.78937170               13.84324587               88.33094418                0.00010000               -1.20429873                1.04109043               -1.74512578                2.51293473              111.81158357              -21.37609489
              61.77348538                9.64158459               87.48291168                0.00010000               -1.55695991                1.88203930               -3.29185870                2.83022638              104.57001005              -28.28990135
              62.75823250                5.44555469               86.54869526                0.00010000               -1.03825385                2.93867388               -6.37497685                2.77977485               93.53997458              -35.85173392
              63.75272030                1.25082806               85.49754039                0.00010000                0.38272423                4.21058464              -10.99882376                2.47092405               79.79117592              -44.73595929
              64.76588699               -2.94681775               84.30709115                0.00010000                2.63654530                5.68493137              -17.04171158                1.96747098               64.26087434              -55.46329012
              65.80545121               -7.15128704               82.96128641                0.00010000                5.53693752                7.33468233              -24.23098969                1.34780851               47.74202954              -68.61354187
              66.87662574              -11.36564385               81.44963900                0.00010000                8.74623400                9.14507391              -32.09933125                0.72889114               31.02824934              -84.95250677
              67.98037589              -15.59148592               79.76822345                0.00010000               11.75035427               11.11872631              -39.95649301                0.24496286               14.99061314             -105.47646060
              69.11163282              -19.82880856               77.92160620                0.44770833               13.12569367               13.27182095              -46.91305571                0.48934360                8.04552927             -131.10510782
              63.02819166               23.28391250               90.78448276                0.45075964               -0.00299563               -0.68966812                2.23400161               -0.08615793                0.30829557               17.81363782
              64.02816170               19.06079895               88.68210316                0.00010000               -0.67178001                0.70451343               -2.23983048                0.97405437               68.81744885              -14.49104068
              65.01475606               14.85643115               87.95047294                0.00010000               -1.75113093                1.67806595               -2.62194390                1.89587548              134.22629829              -17.78939478
              65.99313908               10.66403959               87.17102024                0.00010000               -2.09550970                2.67813194               -4.36109096                2.12682180              125.74114962              -21.34260779
              66.97284587                6.47911502               86.29296743                0.00010000               -1.44773109                3.79939446               -7.68851001                2.07539462              112.86441074              -25.96299186
              67.96418446                2.29769833               85.28333340                0.00010000                0.18091779                5.17047722              -12.64494567                1.82290432               97.20858224              -31.78639517
              68.97646422               -1.88434920               84.11796786                0.00010000                2.67269662                6.78602272              -19.10748300                1.40570022               79.63010216              -39.10278604
              70.01763839               -6.07124595               82.77725095                0.00010000                5.82455373                8.61215856              -26.77789029                0.88877455               60.64891166              -48.39527149
              71.09295530              -10.26632294               81.24385338                0.00010000                9.27578026               10.60647868              -35.14022464                0.39490281               40.63799682              -60.46518528
              72.20315400              -14.47127062               79.50228140                0.00010000               12.47753499               12.73885243              -43.43181369                0.07683863               20.21007780              -76.85179058
              73.34250600              -18.68577086               77.54543176                0.44782128               13.93519950               15.02764262              -50.69048903                0.41892850               10.84097994              -99.93014593
              67.24332287               24.27697751               90.49139988                0.45014422                0.12109245               -0.67452411                2.05566995               -0.09280290               -0.36524513               15.31595450
              68.24453380               20.06911122               88.22211296                0.00010000               -0.96371519                0.93838327               -2.89493739                0.81568457               82.87100677              -13.41677210
              69.22404857               15.87680719               87.61853875                0.00010000               -2.55979281                2.52456001               -3.39252031                1.14690139              161.00287797              -10.91782492
              70.19333794               11.69514723               86.94328060                0.00010000               -2.89834552                3.47660782               -5.24773086                1.14840916              149.38784046              -11.83846593
              71.16608166                7.52154258               86.14992584                0.00010000               -2.03476629                4.63591165               -8.79481716                1.07267001              134.23604345              -13.86638745
              72.15264261                3.35423760               85.21180265                0.00010000               -0.15681948                6.06654480              -14.07825202                0.93310036              116.86841795              -16.67056284
              73.16294527               -0.81109729               84.10529323                0.00010000                2.62789091                7.76967218              -20.95491534                0.68150629               97.67975956              -20.34662208
              74.20520043               -4.97904387               82.80875399                0.00010000                6.08016020                9.70711216              -29.09068163                0.36286442               76.82762205              -25.16911631
              75.28454847               -9.15351427               81.29887859                0.00010000                9.80800757               11.81453964              -37.91673094                0.06367092               53.88887877              -31.68485470
              76.40136058              -13.33670887               79.54287201                0.00010000               13.22317013               14.00929590              -46.57420647               -0.07326507               27.97106465              -41.13869755
              77.54901187              -17.52825571               77.49808701                0.44829444               14.76512907               16.24977690              -53.93670588                0.38087790               15.06387983              -58.29265003
              71.44206818               25.27042202               90.15075218                0.72530664                0.25775337               -0.65554853                1.74025382                0.78899020                6.87321827               12.89282441
              72.44464572               21.07956661               87.79365848                0.44419547               -1.52050542                1.04553962               -3.45715652                1.83620829              103.88126411              -11.90478772
              73.41165807               16.90692235               87.37823369                0.43920563               -3.66369180                3.01151618               -3.72567358                1.46120734              190.34482475               -5.70985552
              74.37137188               12.73357175               86.82323305                0.43891792               -3.82245905                3.84245171               -5.64642019                1.04893934              173.76058403               -6.18764138
              75.33520889                8.57183326               86.13846690                0.43883087               -2.79427716                5.02906802               -9.44570809                1.18559746              156.99661022               -7.12623164
              76.31548634                4.41902923               85.30072016                0.43895905               -0.59165353                6.47916221              -15.11576782                1.24492147              138.53951433               -8.47420527
              77.32337582                0.27104424               84.28853328                0.43944168                2.59131650                8.21415305              -22.46015511                1.23640905              118.60472300              -10.22417677
              78.36731267               -3.87710370               83.08080854                0.44062130                6.42589443               10.19401691              -31.09951085                1.15740419               97.12204300              -12.53299719
              79.45189371               -8.03003215               81.65255188                0.44266749               10.45587348               12.34821281              -40.42149389                1.03547379               73.30787294              -15.74516489
              80.57643014              -12.19108470               79.96518908                0.44577328               14.06617649               14.56241631              -49.51605736                0.96979632               43.28181020              -20.55380588
              81.73321724              -16.36077532               77.91574165                0.72392961               15.67871045               16.74803864              -57.01619292                1.45147460               26.93855924              -32.98166262
              29.96574267               15.79072201               94.23211471                0.72740755               -0.86350644               -0.95069841                3.56578259               -0.25403601               -7.06002527                7.52134085
              30.95710760               11.41045361               93.26217716                0.44816891               -0.46347714               -0.68594739                2.38689303                0.03024262               -8.56096641               -6.20861067
              31.95647312                7.03450338               92.25944215                0.44267467                0.03566811               -0.30991878                1.52022682               -0.25963395               -7.25988450                0.12754692
              32.95782096                2.66739723               91.30427736                0.44005617                0.23351494                0.01682877                0.66267238               -0.27726720               -4.32217292               -0.36526371
              33.96114342               -1.69294297               90.35250067                0.43903510                0.42837259                0.35683835               -0.16549900               -0.30331183               -3.84114594               -0.21348754
              34.96638842               -6.04904071               89.40284992                0.43872535                0.63594758                0.70403088               -1.00759952               -0.31573259               -3.84826071               -0.14481337
              35.97386237              -10.40331819               88.45035731                0.44018023                0.87324929                1.04989980               -1.88751611               -0.31181348               -4.46135932               -0.09863448
              36.98385340              -14.75804144               87.49077004                0.44197008                1.12543609                1.39584446               -2.79671189               -0.30264800               -5.59010136               -0.05360082
              37.99637110              -19.11537280               86.52018559                0.44506878                1.34692913                1.73111591               -3.73687538               -0.30581054               -7.40417233               -0.08364323
              39.01079198              -23.47850262               85.53024287                0.45080781                1.50589366                2.06404536               -4.66494163               -0.27326174               -8.21867728                0.54052004
              40.02648897              -27.85204000               84.55045249                0.72752141                1.56969845                2.39847971               -5.68931668                0.55273450               -8.11579954               -5.05256747
              34.34347070               16.78121502               93.84651825                0.45134865               -0.79513571               -0.45389150                3.11189302                0.35976456                6.32432531               13.03011782
              35.33551934               12.40359414               92.87460468                0.00010000               -0.90328623               -1.03353060                1.92489477                0.73495990               14.44617445              -11.45389115
              36.32540497                8.03140419               92.06417809                0.00010000               -0.83739364                0.20827360                0.79505910                1.76986486               20.52292659              -14.39377524
              37.31877147                3.66756552               91.22343716                0.00010000               -0.45378478                0.79536300               -0.51468702                2.08309481               18.79607897              -21.01638095
              38.31632928               -0.68937459               90.38635724                0.00010000               -0.01763840                1.14712756               -1.89236121                1.92087782               18.61207299              -29.00119177
              39.31841870               -5.04200040               89.54741001                0.00010000                0.44576616                1.29500226               -3.34174335                1.53574360               18.17260028              -38.55475318
              40.32524460               -9.39281920               88.70481450                0.00010000                0.92177629                1.22716214               -4.79798522                1.16720065               17.60902500              -49.84828438
              41.33685423              -13.74408299               87.85636809                0.00010000                1.41494913                0.90822542               -6.25923706                1.05863418               16.79043940              -62.98979309
              42.35354358              -18.09806164               86.99847232                0.00010000                1.97693706                0.25134851               -7.67921109                1.45806739               15.77890544              -77.98575498
              43.37639297              -22.45786217               86.13059902                0.00010000                2.60050542               -0.80954271               -9.11434129                2.68555705               12.77450526              -94.73721500
              44.40555369              -26.82805521               85.21367983                0.44966233                2.91607250               -3.47254736              -10.33550300                6.25142925               10.22904679             -115.64904284
              38.72817972               17.78164418               93.56798955                0.44790894               -0.65620914                0.03702843                2.90923614                0.00079710               -0.82974604               17.62616940
              39.72161763               13.38978300               92.38150272                0.00010000               -0.01403413               -1.29698206                1.43802067                2.16152181               18.37264373              -15.14932300
              40.72789904                9.03866885               91.57728776                0.00010000               -0.06779941                0.21986864                1.44501547                4.92039409               36.16175697              -27.49097665
              41.72026164                4.68330449               90.72928992                0.00010000               -0.93860664                1.16932204                0.63421359                4.85189911               32.07862630              -40.78307621
              42.70912691                0.32999958               89.84494290                0.00010000               -0.98568737                1.67286914               -0.91365266                4.43849123               28.10047480              -56.78969566
              43.70054789               -4.02314067               88.92506090                0.00010000               -0.49189651                1.82117714               -3.11250851                3.65687899               23.89846898              -75.73659260
              44.69928898               -8.37877495               87.96639404                0.00010000                0.48603195                1.58728230               -5.90184266                2.84897133               19.37522151              -98.00416086
              45.71026853              -12.73987693               86.96616616                0.00010000                2.00113231                0.87762322               -9.20260042                2.35927575               14.68777570             -123.84155330
              46.73931162              -17.11034583               85.92250283                0.00010000                4.21140774               -0.45475735              -12.87806865                2.51683754                9.87271825             -153.27897231
              47.79449669              -21.49469348               84.83009659                0.00010000                7.62960010               -2.73902335              -16.59258169                2.42885891                4.45446596             -186.34876041
              48.89190362              -25.92149095               83.67077851                0.44364897                9.74069357               -6.15733040              -19.74234482                4.18319298                2.86590754             -221.74860782
              43.12720899               18.78195559               93.26193711                0.44782085               -0.54838868               -0.05280395                2.75506277               -0.02752123               -0.05805086               17.28636596
              44.12172510               14.37765450               91.93004186                0.00010000                0.15411870               -1.03777309                0.90076118                3.20230438               25.16935126              -13.57157612
              45.13029136               10.03580156               91.10142861                0.00010000                0.13768111               -0.40403529                1.61942565                6.23616754               49.30184136              -26.45339909
              46.12447872                5.69095196               90.22985058                0.00010000               -0.93735485                0.49242556                1.06081846                6.03608612               44.67161905              -40.09338889
              47.11154427                1.34408279               89.30178636                0.00010000               -1.20739573                1.21292989               -0.70433501                5.70583948               38.47848880              -55.52675991
              48.10033081               -3.00557686               88.31046787                0.00010000               -0.62919883                1.72321220               -3.57889523                5.18882184               31.40755778              -73.45005517
              49.09896029               -7.36107355               87.25056698                0.00010000                0.76399067                1.96546886               -7.46926677                4.55791291               23.81667671              -94.31635925
              50.11561062              -11.72653053               86.11887855                0.00010000                2.98682976                1.83845877              -12.24440461                3.93553955               16.16108052             -118.42801685
              51.15869688              -16.10715679               84.91519440                0.00010000                6.02523204                1.22401908              -17.63480207                3.17839922                9.03555490             -145.88879739
              52.23611526              -20.51264264               83.64233204                0.00010000                9.20578052                0.02994142              -23.11422504                1.92410765                3.47479623             -176.44493510
              53.34281249              -24.95120181               82.31259523                0.44412355               10.66972312               -0.47361458              -27.74585792                1.32711246                2.21736375             -208.83653701
              47.53623148               19.78058810               92.96765458                0.44793697               -0.44137369               -0.24303246                2.68455558               -0.04873331               -0.02593894               18.37400057
              48.53181774               15.36902754               91.47628043                0.00010000                0.15467226               -0.65936438                0.28539604                3.71355903               32.54264608              -13.88194814
              49.53932492               11.03058815               90.63529306                0.00010000                0.04421962               -0.47685340                1.42807935                7.20684459               63.55566429              -25.81333689
              50.53270213                6.69315301               89.74178567                0.00010000               -0.97762024                0.16071395                0.93971696                7.02982682               57.83845333              -38.63751465
              51.51977252                2.35425818               88.77721949                0.00010000               -1.16107307                0.97538000               -1.09641560                6.71457312               50.01270985              -52.90485902
              52.50948067               -1.98867642               87.72785747                0.00010000               -0.41858098                1.77847351               -4.57783856                6.21953257               40.72904181              -69.27114909
              53.51140090               -6.33946557               86.58468684                0.00010000                1.27909457                2.46802457               -9.38804848                5.51651609               30.65588486              -88.27878502
              54.53506256              -10.70310775               85.34338044                0.00010000                3.87954075                2.96725494              -15.34846755                4.56297187               20.56457830             -110.33607169
              55.58899172              -15.08586545               84.00548124                0.00010000                7.09806496                3.25038648              -22.11102568                3.25943316               11.46512875             -135.68785984
              56.67702386              -19.49409465               82.58055292                0.00010000               10.32862546                3.56804909              -29.02847878                1.52881775                4.49651071             -164.32123941
              57.79556422              -23.93096324               81.08744389                0.44432752               11.85403602                4.24037514              -35.10946478                1.17014056                2.67651149             -196.17084173
              51.94935544               20.77709494               92.67767294                0.44780246               -0.33592027               -0.43864704                2.61014231               -0.05286684                0.07538903               18.81298865
              52.94599623               16.36446721               91.02367126                0.00010000                0.04736763               -0.26160909               -0.33691680                3.77191459               40.58045835              -13.95930545
              53.95030279               12.02626450               90.17911460                0.00010000               -0.22955016               -0.29605829                0.95793340                7.38507387               79.10926382              -25.04141862
              54.94140523                7.69416624               89.27608348                0.00010000               -1.13188150                0.21058232                0.40470385                7.43943652               72.43068965              -36.42442869
              55.92766516                3.36359039               88.28930590                0.00010000               -1.14800098                1.07737139               -1.93685717                7.18390966               63.11616904              -48.91377290
              56.91844521               -0.97000739               87.19966394                0.00010000               -0.19716089                2.12104865               -5.96260527                6.64214784               51.90895418              -63.20358266
              57.92372194               -5.31171306               85.99409485                0.00010000                1.74123634                3.22090450              -11.54431561                5.79538688               39.61410990              -79.91112311
              58.95326994               -9.66718543               84.66614429                0.00010000                4.55752519                4.32550846              -18.47340390                4.62299534               27.19610847              -99.56190050
              60.01487244              -14.04214906               83.21726867                0.00010000                7.92597363                5.48400186              -26.35157016                3.12389038               15.80695581             -122.58455339
              61.11178941              -18.44128166               81.65832722                0.00010000               11.25400223                6.83054701              -34.48147465                1.44391924                6.66037562             -149.31576577
              62.23995249              -22.86639431               80.00998690                0.44485486               12.81630790                8.45347354              -41.83063817                1.07729165                3.76256336             -179.96601926
              56.36042960               21.77181516               92.38940354                0.44801847               -0.23431237               -0.59529248                2.54055842               -0.06141881                0.15680466               18.88877209
              57.35808648               17.36379536               90.57100751                0.00010000               -0.15511156                0.10756268               -0.95846396                3.48569594               49.45546475              -14.08160298
              58.35732737               13.02466698               89.73829963                0.00010000               -0.69607550                0.05143872                0.29674473                6.89067222               96.38741271              -23.75863311
              59.34416497                8.69736465               88.84395433                0.00010000               -1.48515124                0.58245019               -0.42466325                7.19736143               88.85642450              -33.18756451
              60.32762435                4.37580560               87.85539984                0.00010000               -1.32689434                1.54573048               -3.08419058                7.02371835               78.11264954              -43.36197946
              61.31762708                0.05374455               86.74782682                0.00010000               -0.15688351                2.79326949               -7.59448397                6.43816048               65.03848220              -55.09915682
              62.32448668               -4.27504748               85.50395589                0.00010000                2.01656963                4.23243543              -13.82635264                5.49726829               50.55143572              -69.06073339
              63.35795847               -8.61659758               84.11420148                0.00010000                5.05395364                5.83402778              -21.55092071                4.25005838               35.68599428              -85.85956874
              64.42556575              -12.97618541               82.57756540                0.00010000                8.60945123                7.63182793              -30.33391647                2.79346285               21.63515363             -106.11293297
              65.53014750              -17.35748371               80.90296858                0.00010000               12.08848090                9.70769482              -39.43516862                1.28632707                9.65104516             -130.41406956
              66.66733537              -21.76189377               79.10972798                0.44501710               13.71878680               12.11005340              -47.77902959                1.01629978                5.30173798             -159.22741562
              60.76416666               22.76518909               92.10025688                0.44750259               -0.13083275               -0.70248225                2.41425668               -0.06561896                0.20303195               18.62002279
              61.76285833               18.36661846               90.11695156                0.00010000               -0.48098585                0.43014631               -1.53509132                2.99884505               59.47428233              -14.28642542
              62.75454694               14.02729327               89.31916136                0.00010000               -1.43222467                0.56419802               -0.48456610                5.93002449              115.94005134              -21.76902504
              63.73421383                9.70581525               88.45841066                0.00010000               -2.13936548                1.26781185               -1.43103233                6.39942682              107.51695674              -28.53439112
              64.71175963                5.39450500               87.49381431                0.00010000               -1.80761635                2.35619196               -4.40129221                6.23440020               95.23654562              -35.93794475
              65.69806151                1.08585800               86.39478999                0.00010000               -0.38750945                3.75485040               -9.34182870                5.62589801               80.22279301              -44.74424956
              66.70400944               -3.22706435               85.14027092                0.00010000                2.06737636                5.43828682              -16.13007508                4.67720123               63.50197813              -55.53886643
              67.73940903               -7.55050487               83.71696681                0.00010000                5.38091936                7.38129562              -24.51690611                3.48594943               46.05296257              -68.94078428
              68.81162783              -11.88951250               82.11929331                0.00010000                9.19076371                9.59060589              -34.02486381                2.19547795               28.97065072              -85.72569455
              69.92322431              -16.24712776               80.35085967                0.00010000               12.87353895               12.11078708              -43.85579115                0.98201388               13.48928250             -106.86648051
              71.06909861              -20.62419324               78.42628370                0.44529564               14.58742970               15.01846263              -52.87478278                0.88896724                7.30265492             -133.23840143
              65.15625848               23.75776551               91.80714442                0.44680999               -0.02992762               -0.74053654                2.27992760               -0.05355172                0.34094669               18.30172997
              66.15595920               19.37239828               89.66034076                0.00010000               -0.97636981                0.68713759               -2.09619035                2.49352528               71.14549078              -14.89937519
              67.13673108               15.03595094               88.93014785                0.00010000               -2.55087134                1.33671960               -1.30550953                4.75402348              138.51042140              -18.35260765
              68.10494177               10.72272089               88.13591224                0.00010000               -3.22307411                2.29275219               -2.47660424                5.04534415              128.79159056              -21.81838671
              69.07226960                6.42292944               87.22482504                0.00010000               -2.66136894                3.41664020               -5.73360507                4.79583932              114.54810896              -26.28124462
              70.05171439                2.12884156               86.16368646                0.00010000               -0.89380121                4.89417108              -11.06880452                4.21829659               97.50132253              -31.98265269
              71.05439357               -2.16628175               84.92964357                0.00010000                1.92056107                6.72315210              -18.36001513                3.39195073               78.63059009              -39.27785313
              72.09012562               -6.46897167               83.50612280                0.00010000                5.58523100                8.87334882              -27.32971171                2.38994139               58.66540478              -48.67800227
              73.16609819              -10.78437330               81.88123790                0.00010000                9.71714507               11.31047985              -37.44074049                1.36785918               38.30466182              -60.97488616
              74.28446852              -15.11526797               80.04785302                0.00010000               13.65737423               14.02574704              -47.80082533                0.53693406               18.53802414              -77.64176189
              75.43924568              -19.46152452               78.00974837                0.44547781               15.47771608               17.09566634              -57.17897766                0.70078229               10.00261874             -100.92837584
              69.53383007               24.75037836               91.51255790                0.44701445                0.07133299               -0.71151213                2.14200624               -0.05604527               -0.36671689               15.74288480
              70.53454340               20.38036122               89.19415886                0.00010000               -1.72626356                0.87992594               -2.66166395                2.23305328               85.33348954              -13.79399760
              71.49930480               16.05402766               88.59073973                0.00010000               -4.32005947                2.68839820               -2.02096072                3.08538316              165.45777376              -11.42086766
              72.44814221               11.75167029               87.89939248                0.00010000               -4.88745277                3.45096591               -3.34013717                2.95758729              152.42791277              -12.28023715
              73.40155575                7.46283781               87.07054152                0.00010000               -3.82517925                4.53366583               -6.87194596                2.62909577              135.68308899              -14.17885686
              74.37163863                3.18374142               86.07726888                0.00010000               -1.59470322                6.01756229              -12.61056876                2.25805459              116.73775788              -16.87431304
              75.36966168               -1.09260131               84.89746774                0.00010000                1.68303905                7.91267096              -20.41253128                1.74061046               96.12882634              -20.50190091
              76.40529941               -5.37303790               83.51293045                0.00010000                5.78098121               10.17870171              -29.95919523                1.12197654               74.23541744              -25.34880246
              77.48528131               -9.66330291               81.90638305                0.00010000               10.29074011               12.74555627              -40.64834903                0.50888684               50.99073329              -31.94792436
              78.61111421              -13.96661282               80.05449827                0.00010000               14.51730218               15.52163160              -51.45856803                0.10705018               25.94374322              -41.48298550
              79.77562735              -18.28227992               77.92743226                0.44546307               16.45131381               18.47955492              -60.93115886                0.55585679               14.03362045              -58.48106872
              73.89517186               25.74353527               91.16907686                0.72364365                0.17991045               -0.68430921                1.88221914                0.78033190                7.08938152               13.26977504
              74.89697096               21.38999680               88.76043902                0.44227853               -3.40210941                0.96355865               -3.13201478                3.55193769              106.80637479              -12.25751855
              75.82712967               17.08971890               88.34771140                0.43945090               -7.08437939                3.56912414               -2.22140791                2.86965696              195.08001602               -6.18342192
              76.75528338               12.79174021               87.77579836                0.43865315               -6.71746438                4.00699179               -3.64357106                1.90830882              176.54480052               -6.63550398
              77.69278038                8.51360276               87.05263026                0.43883874               -5.14843870                5.07649526               -7.51117707                1.99509328              157.82636806               -7.49233270
              78.65231460                4.24919280               86.15533082                0.43862649               -2.33976410                6.54513826              -13.75024454                1.98604277              137.56213581               -8.75751431
              79.64598510               -0.00802833               85.06454689                0.43932476                1.54760716                8.45729796              -22.15172676                1.90281974              116.08407318              -10.44165148
              80.68326674               -4.26539764               83.76310274                0.43978857                6.19328754               10.76402601              -32.34661203                1.72504125               93.51992922              -12.70256812
              81.76985085               -8.52946217               82.23250492                0.44102957               11.11598939               13.38407350              -43.68456991                1.48506948               69.43591622              -15.87101437
              82.90558653              -12.80483534               80.44422403                0.44348227               15.59230783               16.17774823              -55.07996538                1.32366942               40.50672991              -20.60596826
              84.08169701              -17.09193342               78.31094385                0.72281492               17.61104763               19.03464961              -64.72765226                1.89715740               25.36845176              -32.64860285
              30.87114783               16.25366330               95.26573237                0.72468111               -0.71676185               -0.78584149                3.14824799               -0.19938442               -7.02480370                7.49054692
              31.86398021               11.73826011               94.28470404                0.44509423               -0.07354599               -0.65874421                2.11312796                0.34544202               -8.34587779               -6.20546911
              32.86967691                7.23448445               93.27411949                0.44123377                0.56460203               -0.24212804                1.41445400               -0.24794497               -6.71454312                0.08206523
              33.87527226                2.75038433               92.31127313                0.43950501                0.55572362                0.03065464                0.73653751               -0.24708739               -3.67455366               -0.38565935
              34.88079139               -1.72026965               91.35218083                0.43889148                0.55075391                0.33289374                0.10170990               -0.27562606               -3.15798096               -0.20614834
              35.88628733               -6.18335573               90.39504784                0.43905248                0.58290599                0.63875693               -0.54794264               -0.28890369               -3.20292010               -0.13576422
              36.89244951              -10.64418245               89.43471520                0.43941124                0.68682539                0.94564730               -1.23525022               -0.30067085               -3.88265866               -0.07847911
              37.90002384              -15.10686804               88.46697622                0.43998603                0.84735214                1.24574270               -1.96279437               -0.30694160               -5.08813753               -0.04916031
              38.90939655              -19.57477864               87.48778667                0.44373083                1.00691035                1.53513754               -2.71990696               -0.29009494               -6.94056641               -0.08048375
              39.92016205              -24.05149388               86.48960075                0.44738595                1.11714095                1.81835523               -3.43565330               -0.24566159               -7.80850761                0.47691036
              40.93173937              -28.54162873               85.50059010                0.72550378                1.15773190                2.09505770               -4.26613181                0.72769815               -7.77085250               -4.83641633
              35.38455718               17.24580488               94.87588400                0.44781959               -0.75331176               -0.01955355                2.75505068                0.69122428                6.31391598               13.14215841
              36.37702406               12.73167267               93.89277098                0.00010000               -1.17109119               -1.31644328                1.70597755                1.49535464               14.43324847              -11.46877711
              37.36113535                8.23206317               93.07128880                0.00010000               -1.34228148                0.78912037                0.62578611                3.69381849               20.25031990              -13.57953567
              38.35017843                3.75069087               92.21777731                0.00010000               -0.81151004                1.47736501               -0.61845831                4.62411800               18.30829934              -19.61936539
              39.34490515               -0.71694072               91.36721755                0.00010000               -0.24118683                1.74999993               -1.93430625                4.68289127               18.00949306              -27.33244158
              40.34535469               -5.17696816               90.51407228                0.00010000                0.31468984                1.71350903               -3.30699943                4.23647965               17.52352471              -36.93998615
              41.35119895               -9.63472598               89.65732041                0.00010000                0.84489138                1.38988423               -4.69154729                3.62305115               16.95943330              -48.62799443
              42.36225252              -14.09441061               88.79465395                0.00010000                1.38047855                0.72321322               -6.07608297                3.19032399               16.16980415              -62.50101035
              43.37880852              -18.55942727               87.92283900                0.00010000                1.94389788               -0.42203084               -7.41797262                3.33520152               15.18149672              -78.49514801
              44.40113048              -23.03331033               87.04102635                0.00010000                2.51713411               -2.20867630               -8.74654229                4.63145182               12.28879502              -96.34863526
              45.42915120              -27.52067816               86.11272420                0.44648148                2.80207239               -6.59523825               -9.83881206                9.26576103                9.85627015             -118.02592542
              39.91323675               18.25327223               94.59562797                0.44519343               -0.56077269                0.63005197                2.60974819                0.01969276               -0.93310895               18.04765980
              40.90762902               13.71193124               93.39511948                0.00010000                0.56491621               -1.81362831                1.27919973                4.14037204               19.12906687              -15.39178904
              41.92453508                9.25026685               92.59377120                0.00010000                0.45647359                0.77112637                1.90421253                9.60886557               37.76609134              -25.73514884
              42.91675850                4.77993163               91.73924023                0.00010000               -1.12134155                2.07246655                1.42912594                9.95925142               32.99883742              -37.96135569
              43.90210824                0.31473035               90.84013702                0.00010000               -1.39781550                2.53266455                0.04352284                9.86552838               28.39214525              -53.52710464
              44.88880219               -4.14908555               89.89831427                0.00010000               -0.98776338                2.44682331               -2.12087894                8.97882349               23.59645305              -72.63188118
              45.88235298               -8.61638476               88.91109763                0.00010000               -0.01352873                1.83923836               -5.00919990                7.73430860               18.45721320              -95.68749558
              46.88853161              -13.09240377               87.87637570                0.00010000                1.63236605                0.58730259               -8.59857662                6.59396577               13.15011859             -122.93320720
              47.91500030              -17.58321926               86.79358269                0.00010000                4.27551827               -1.55845018              -12.80074384                6.05464795                7.91302864             -154.34459128
              48.97404198              -22.09566741               85.66095323                0.00010000                8.83949747               -5.19712004              -17.25281297                4.86357620                2.73741719             -189.74116136
              50.09179025              -26.67353350               84.46727376                0.44163940               11.77482704              -10.86729600              -21.12691147                6.42305800                2.04611447             -228.04514581
              44.46763300               19.25840592               94.28841999                0.44499195               -0.47961266                0.33210948                2.53127425                0.00155096               -0.09762077               17.84867909
              45.46283687               14.69540010               92.93845344                0.00010000                0.88396400               -1.39441154                0.78111073                5.84355569               26.62986518              -14.00132741
              46.48531228               10.24748569               92.12153930                0.00010000                1.10315462               -0.59305464                2.47969780               11.47497857               52.19761638              -25.16964505
              47.48489997                5.79214020               91.24685143                0.00010000               -0.70396919                0.59089149                2.44375343               11.37529929               46.69063409              -37.85732129
              48.47123290                1.33371258               90.30209988                0.00010000               -1.44268468                1.37867995                0.89183129               11.23783423               39.61903557              -52.91403820
              49.45604627               -3.12803169               89.28177553                0.00010000               -1.10147763                1.81656578               -2.00062938               10.71937250               31.66047126              -70.96294677
              50.44920334               -7.59794121               88.18147270                0.00010000                0.24600291                1.87346858               -6.15367315                9.79625398               23.12582795              -92.45989151
              51.46096633              -12.08266456               86.99909538                0.00010000                2.69808853                1.42158698              -11.51522931                8.60637784               14.55425409             -117.72990571
              52.50316512              -16.59059627               85.73701999                0.00010000                6.38749571                0.26012138              -17.88663534                6.93168614                6.87286177             -146.88206851
              53.58871625              -21.13725273               84.40373064                0.00010000               10.50897175               -1.81823084              -24.69199129                4.17174568                1.76018374             -179.72890962
              54.71334455              -25.73802408               83.02223464                0.44190660               12.46283047               -2.99447506              -30.69990752                2.39321963                1.36593462             -215.13449029
              49.03927941               20.25991442               93.99373548                0.44544460               -0.38590470               -0.03313968                2.52230937               -0.02078118               -0.03887916               18.97760924
              50.03542037               15.68404301               92.47869426                0.00010000                0.90075641               -0.86502494                0.20080223                6.58144957               34.57593831              -14.39673703
              51.05729454               11.23840576               91.65474244                0.00010000                1.13086161               -0.94945596                2.54460495               12.79549813               67.48741252              -24.99700980
              52.05803760                6.79174946               90.75935164                0.00010000               -0.51288574               -0.30342991                2.68233608               12.55979073               60.70404469              -37.02239284
              53.04703683                2.34230394               89.77546411                0.00010000               -1.15970901                0.58254726                0.87217507               12.29097612               51.86737147              -50.94238731
              54.03484342               -2.11275423               88.69069990                0.00010000               -0.70629541                1.42203411               -2.69240780               11.73671251               41.55458478              -67.36801120
              55.03291092               -6.57891539               87.49719747                0.00010000                0.92354051                2.09197021               -7.91085684               10.72967599               30.38911882              -86.85079182
              56.05331423              -11.06397203               86.19218507                0.00010000                3.76556366                2.49263216              -14.69909181                9.13747042               19.25423464             -109.84325137
              57.10822219              -15.57801683               84.78057234                0.00010000                7.57952347                2.58212307              -22.79432109                6.76210906                9.53524022             -136.66356130
              58.20490470              -20.13203202               83.27882753                0.00010000               11.64875726                2.72301779              -31.50190115                3.41491965                2.94020998             -167.40078966
              59.34119734              -24.73342300               81.71695638                0.44227718               13.62926387                3.45769304              -39.56844327                2.09394196                1.89846518             -202.13548964
              53.61896019               21.25774313               93.70330104                0.44504465               -0.29856647               -0.36870747                2.51285361               -0.02831633                0.10194138               19.38696856
              54.61597452               16.67809960               92.02007432                0.00010000                0.72778062               -0.34908775               -0.38425183                6.55898118               43.03433966              -14.47617117
              55.63351580               12.22849657               91.19468116                0.00010000                0.81115380               -0.90079187                2.23749547               12.82699510               83.79473181              -24.63571670
              56.63219760                7.78607161               90.28937527                0.00010000               -0.59798441               -0.57145595                2.35659504               12.88505019               75.92607570              -35.40345417
              57.62155611                3.34536352               89.28016960                0.00010000               -1.00988686                0.31447986                0.22754055               12.60874456               65.51261265              -47.57336771
              58.61199986               -1.09959101               88.14934990                0.00010000               -0.32707236                1.45658404               -3.94833639               11.91491992               53.20282316              -61.84177520
              59.61501466               -5.55610180               86.88511517                0.00010000                1.54086590                2.67384122              -10.06400709               10.67609659               39.74095637              -78.86234900
              60.64281718              -10.03281191               85.48284128                0.00010000                4.57263126                3.90092719              -18.01648385                8.79001329               26.20809849              -99.22304524
              61.70646729              -14.53895381               83.94782987                0.00010000                8.48018158                5.22545557              -27.50398636                6.19559623               14.12186375             -123.43196263
              62.81242081              -19.08279237               82.29831603                0.00010000               12.57690285                6.87865149              -37.79573067                3.05636185                5.25045853             -151.91718555
              63.95800534              -23.66887022               80.56649886                0.44228661               14.55845355                9.06853033              -47.61234346                1.86183748                3.04609825             -184.94836333
              58.19800014               22.25254027               93.41459666                0.44509470               -0.21535964               -0.61563444                2.48375173               -0.02140114                0.17470492               19.38635322
              59.19584654               17.67706126               91.56145195                0.00010000                0.39311487                0.09297919               -0.94569003                6.00138257               52.17156893              -14.54497547
              60.20586244               13.22038992               90.74780776                0.00010000                0.15125555               -0.62397129                1.68674678               11.82284564              101.55866979              -23.70457794
              61.19887166                8.78032034               89.84956949                0.00010000               -1.04940510               -0.35663716                1.64684739               12.25887915               92.76111702              -32.70895587
              62.18487434                4.34859354               88.83527709                0.00010000               -1.21322571                0.60035340               -0.82686329               12.05425432               80.85875824              -42.59310706
              63.17460714               -0.08362255               87.68136428                0.00010000               -0.26102920                1.98372186               -5.54952016               11.23437934               66.62319029              -54.22798521
              64.17965375               -4.52543857               86.37180634                0.00010000                1.86796786                3.64095236              -12.41997659                9.82020683               50.90869313              -68.34058046
              65.21196650               -8.98595349               84.89903178                0.00010000                5.12304117                5.53939355              -21.32264074                7.83008664               34.86851817              -85.60903735
              66.28211458              -13.47350772               83.26623610                0.00010000                9.19909229                7.75617807              -31.92560420                5.35865474               20.06202613             -106.70858358
              67.39594834              -17.99445899               81.49014116                0.00010000               13.42375992               10.45462004              -43.45847000                2.61028341                8.29606074             -132.27227786
              68.55058977              -22.55205239               79.60204813                0.44272122               15.46414296               13.76366173              -54.59459988                1.68228630                4.60251815             -162.76308205
              62.76949018               23.24543044               93.12429801                0.44444230               -0.13376668               -0.74470944                2.38461223               -0.01623662                0.25591372               19.04613524
              63.76815252               18.67995918               91.10203010                0.00010000               -0.13882765                0.42714435               -1.44400525                5.14041303               62.33149417              -14.68549449
              64.76671363               14.21601715               90.32125286                0.00010000               -0.94904773               -0.12946508                0.99185627               10.12551262              121.34555054              -22.02143535
              65.74917156                9.77893886               89.45429103                0.00010000               -2.00647713                0.31848484                0.70938694               10.83877444              111.62842041              -28.53213471
              66.72658409                5.35737059               88.46066941                0.00010000               -1.92260025                1.40846885               -2.10879991               10.61520224               98.12988155              -35.67004690
              67.71071956                0.94008343               87.31070382                0.00010000               -0.64171762                2.95944682               -7.31818018                9.70659476               81.87815706              -44.30491229
              68.71374973               -3.48328276               85.98448965                0.00010000                1.83842528                4.91677399              -14.83201064                8.24392346               63.85296715              -55.10668272
              69.74748806               -7.92202404               84.47094828                0.00010000                5.41980769                7.25919247              -24.51776021                6.34190834               45.17198281              -68.75134033
              70.82214589              -12.38383025               82.76914172                0.00010000                9.78415457               10.02986592              -35.99707218                4.17639001               27.31191838              -86.03506282
              71.94317115              -16.87369997               80.89110763                0.00010000               14.23459923               13.33572670              -48.43144184                1.98444671               12.07195997             -107.90743785
              73.10683787              -21.39359698               78.86411055                0.44274957               16.36667196               17.32827260              -60.41805979                1.41919364                6.55999546             -135.18877543
              67.32861792               24.23764608               92.83008131                0.44449026               -0.05498206               -0.77638364                2.26362314               -0.03937201                0.36569144               18.69763394
              68.32806810               19.68560414               90.64017935                0.00010000               -0.96124525                0.65869091               -1.90129892                4.25118921               74.04913423              -15.26519894
              69.30939301               15.21780062               89.92436275                0.00010000               -2.68871967                0.74045685                0.24479160                8.11713420              143.99542772              -18.84551288
              70.27429370               10.78669003               89.12148815                0.00010000               -3.66795969                1.53587489               -0.29713027                8.59425714              132.93906895              -22.16826024
              71.23603382                6.37676292               88.17829533                0.00010000               -3.24506611                2.63948124               -3.44216049                8.20796504              117.37329338              -26.38976706
              72.20939238                1.97556638               87.06195731                0.00010000               -1.46970646                4.25117814               -9.10387239                7.29429972               98.95879096              -31.88245350
              73.20663969               -2.42710309               85.75076756                0.00010000                1.49798870                6.36220645              -17.20127543                5.98872334               78.67257538              -39.09075764
              74.23935216               -6.84076964               84.23065672                0.00010000                5.53393080                8.95120902              -27.57299891                4.38490466               57.41417806              -48.56436023
              75.31731831              -11.27291040               82.49503857                0.00010000               10.30259297               12.00452323              -39.76929109                2.68373065               36.29971374              -61.08296216
              76.44540401              -15.72774446               80.54626489                0.00010000               15.07246809               15.54801923              -52.83120414                1.17192725               16.90509408              -78.03224645
              77.61876767              -20.20548694               78.40185220                0.44332697               17.33636525               19.72622091              -65.23070542                1.07467347                9.13507596             -101.49730896
              71.87278661               25.22990277               92.53424000                0.44434681                0.02351458               -0.74332369                2.13325162               -0.05129792               -0.37706532               16.07294293
              72.87302176               20.69313300               90.16887968                0.00010000               -2.24080940                0.81258886               -2.33736124                3.74970496               88.30745716              -14.10386697
              73.82797042               16.23082628               89.57811953                0.00010000               -5.54636748                2.57549821               -0.39732572                5.25146998              170.99922865              -11.91294866
              74.76209441               11.80965636               88.87647785                0.00010000               -6.30516919                3.06799373               -1.12512569                5.11946235              156.46958187              -12.70124504
              75.70186704                7.41016021               88.01248692                0.00010000               -5.08114246                4.05231000               -4.60146957                4.58103043              138.15756147              -14.41338811
              76.66047156                3.02510699               86.95959128                0.00010000               -2.60034076                5.60943436              -10.74116326                3.96106028              117.63551242              -16.94066782
              77.64986022               -1.35603863               85.69704260                0.00010000                1.02609550                7.75779972              -19.44433422                3.12694131               95.46148482              -20.47376069
              78.68099347               -5.74299986               84.20957009                0.00010000                5.64675493               10.46350043              -30.50576084                2.13499520               72.20203748              -25.31577416
              79.76279532              -10.14373978               82.48591161                0.00010000               10.90963864               13.66071084              -43.39886087                1.12163549               48.25399358              -31.97830051
              80.89918624              -14.56273959               80.51370065                0.00010000               16.05104928               17.25444336              -56.99539274                0.36945053               23.84844646              -41.56101346
              82.08381631              -18.99907256               78.27946383                0.44287697               18.46300676               21.23581872              -69.45786509                0.78565080               12.91068028              -58.26948355
              76.40113149               26.22277960               92.18839657                0.72212015                0.10071918               -0.71231626                1.92341576                0.74211934                7.27846141               13.57178254
              77.40213868               21.70185592               89.73101818                0.44114106               -5.16162158                0.87229179               -2.69091811                5.23824134              110.20822309              -12.54760868
              78.29789905               17.26931059               89.33380554                0.43882559              -10.23948279                3.84843011               -0.44372445                4.30256268              200.87444710               -6.76553837
              79.19734902               12.84804991               88.75036163                0.43843047               -9.28476270                3.83935484               -1.32663911                2.95038827              180.19488653               -7.17355381
              80.11220380                8.45780912               87.98824336                0.43845312               -7.12682972                4.76489056               -5.23511182                3.01893431              159.47534070               -7.91122535
              81.05481243                4.08775507               87.02571527                0.43883343               -3.74592171                6.26480828              -11.99869371                2.94627649              137.36595992               -9.05708605
              82.03728537               -0.27194709               85.84549874                0.43885579                0.74703930                8.40915339              -21.43985553                2.77977929              114.17397230              -10.64761795
              83.06975321               -4.63149963               84.43387630                0.43927047                6.11026873               11.15002322              -33.30312977                2.48852021               90.17758414              -12.83693234
              84.15949074               -8.99969618               82.77886048                0.44010893               11.91862971               14.40435983              -47.01579908                2.11174380               65.40357008              -15.93073619
              85.30812581              -13.38265559               80.86358977                0.44161521               17.38279477               18.00839953              -61.37457684                1.84023761               37.38830915              -20.53692125
              86.50714664              -17.78077057               78.62118861                0.72163582               19.90208283               21.83019963              -74.05280618                2.52153536               23.48427749              -32.00188466
              31.78730326               16.72022968               96.29507967                0.72268742               -0.55003288               -0.60670931                2.70350758               -0.13475443               -6.97288636                7.43787483
              32.78180293               12.07021034               95.30443972                0.44225964                0.41549554               -0.64071890                1.82240251                0.77647783               -8.09825888               -6.19054202
              33.79561317                7.44180607               94.28773123                0.44060457                1.22328077               -0.16443035                1.30057199               -0.19754609               -6.09873952                0.01477172
              34.80626855                2.84667568               93.31900811                0.43917572                0.92979569                0.05354318                0.80453124               -0.17325782               -2.94081640               -0.40987692
              35.81420909               -1.72713939               92.35453486                0.43915987                0.67635494                0.31597751                0.36262897               -0.22251774               -2.39152932               -0.19765940
              36.81979565               -6.28980486               91.39189107                0.43926379                0.50358708                0.57383046               -0.09406179               -0.24887165               -2.48336329               -0.10839238
              37.82428083              -10.85009820               90.42565231                0.43900653                0.46117638                0.83366861               -0.58949748               -0.27168636               -3.24378189               -0.05563197
              38.82901917              -15.41438011               89.45151416                0.43974561                0.53272038                1.08774354               -1.13020234               -0.27819244               -4.52251333               -0.04016467
              39.83493523              -19.98708714               88.46578745                0.44133143                0.63996175                1.33265164               -1.68430602               -0.28518622               -6.39541659               -0.07241042
              40.84181841              -24.57181561               87.46152980                0.44404737                0.70789962                1.56282541               -2.19376334               -0.25094358               -7.32561767                0.43410837
              41.84909323              -29.17303653               86.46512985                0.72301749                0.72748182                1.77791561               -2.82425609                0.89692438               -7.35768237               -4.57923355
              36.43597506               17.71416259               95.90161926                0.44403876               -0.71955392                0.49158501                2.38437265                1.12561932                6.27709548               13.22919970
              37.42877952               13.06380315               94.90872423                0.00010000               -1.52850076               -1.69727896                1.48590098                2.51259897               14.34745028              -11.47505661
              38.40540504                8.44016176               94.07669381                0.00010000               -1.98854110                1.59546541                0.44386801                6.34474508               19.83853151              -12.40854754
              39.38900870                3.84721111               93.21106799                0.00010000               -1.25904332                2.41637947               -0.71611042                8.17313235               17.65700271              -17.64516256
              40.38022418               -0.72397961               92.34767111                0.00010000               -0.51111795                2.58572717               -1.95960754                8.62045114               17.24823766              -24.96116462
              41.37878634               -5.28406655               91.48127003                0.00010000                0.18137069                2.31616544               -3.23622536                8.19693979               16.71240490              -34.57175297
              42.38385159               -9.84176152               90.61098356                0.00010000                0.79726893                1.67105241               -4.53363320                7.33274332               16.15360907              -46.67489633
              43.39473172              -14.40350268               89.73484643                0.00010000                1.34747662                0.56988043               -5.82392162                6.48837838               15.40854182              -61.40225110
              44.41080112              -18.97376062               88.85011286                0.00010000                1.87759778               -1.21657524               -7.08897791                6.26873704               14.45444130              -78.67861688
              45.43228367              -23.55618736               87.95566818                0.00010000                2.42411354               -4.02026932               -8.31499779                7.61193974               11.67943487              -98.06369980
              46.45928339              -28.15525738               87.01690358                0.44345857                2.69997215              -10.94338873               -9.29379847               13.64757944                9.34926547             -120.92862258
              41.11053452               18.73006138               95.62018451                0.44262118               -0.44787833                1.33295377                2.30374364                0.08106875               -1.04980628               18.46328312
              42.10605574               14.03626476               94.40708671                0.00010000                1.42827974               -2.48749907                1.12201943                6.80387876               20.14004533              -15.66918383
              43.13910012                9.47371537               93.61537201                0.00010000                1.39084161                1.56378322                2.45942533               15.95895844               39.93911578              -23.24756005
              44.13387257                4.89500327               92.75787244                0.00010000               -1.06021723                3.32415094                2.33907027               16.97909510               34.42699266              -34.02055683
              45.11789577                0.32457515               91.84581335                0.00010000               -1.61781119                3.72272796                1.14165474               17.51459382               29.24969598              -48.93122027
              46.10151635               -4.24348155               90.88264332                0.00010000               -1.37619779                3.34225670               -0.91784369               16.70643834               23.93162385              -68.10789307
              47.09037182               -8.81667716               89.86621005                0.00010000               -0.53652510                2.26951474               -3.80201024               15.04022279               18.12944631              -91.97983945
              48.09078584              -13.40298250               88.79419462                0.00010000                1.13114205                0.32823308               -7.61381896               13.08376092               11.95670899             -120.86312565
              49.11299466              -18.01141864               87.66648796                0.00010000                4.23840585               -2.90135967              -12.41083172               11.57396220                5.90839769             -154.78446277
              50.17555396              -22.65222100               86.48504033                0.00010000               10.35951000               -8.44538824              -17.87011929                8.66674725                0.70065255             -193.39567325
              51.32018486              -27.39190431               85.24824028                0.43959009               14.46308953              -17.41584296              -22.87369056                9.72365856                0.99199601             -235.97100816
              45.82518967               19.74082166               95.31256260                0.44252637               -0.39865717                0.75989289                2.30137277                0.07324115               -0.13176306               18.40874861
              46.82120310               15.01405317               93.94566407                0.00010000                2.03280163               -1.83964198                0.66111528                9.34447879               28.56620877              -14.49254865
              47.86584571               10.47143743               93.15102257                0.00010000                2.82638578               -0.81046441                3.46374174               18.44783189               56.12325734              -23.34896986
              48.87773082                5.91369413               92.27872565                0.00010000                0.15775816                0.75890187                3.96259349               18.56131560               49.70572245              -34.74715259
              49.86900087                1.35047495               91.31962299                0.00010000               -1.17817013                1.63827792                2.64280271               18.84801886               41.89182492              -49.24503582
              50.85416741               -3.21722142               90.27045528                0.00010000               -1.24219351                1.99352682               -0.17771479               18.52382430               33.18990808              -67.32930836
              51.84415700               -7.79637122               89.12749352                0.00010000               -0.15094970                1.82766379               -4.45355044               17.38048467               23.67543026              -89.47254235
              52.85114842              -12.39693802               87.88857396                0.00010000                2.36809312                0.96319151              -10.31948790               15.52849760               13.86228904             -116.07731893
              53.89151886              -17.03178781               86.55746169                0.00010000                6.74779316               -0.92639587              -17.80129519               12.59511490                5.09250518             -147.34426027
              54.98610428              -21.72509512               85.14849221                0.00010000               12.08021619               -4.22374174              -26.38282770                7.60518221                0.03288840             -183.28482127
              56.13312319              -26.50357424               83.69859708                0.44009680               14.70189013               -6.30164726              -34.48552080                4.00663673                0.43060446             -223.09510281
              50.56553633               20.74525924               95.01810077                0.44205490               -0.32067805                0.15757332                2.36373948                0.05416917               -0.02393900               19.58240950
              51.56232955               15.99947192               93.48029648                0.00010000                2.14397325               -1.09335344                0.11420987               10.31733223               37.22961469              -14.98907292
              52.60841580               11.45750609               92.68618516                0.00010000                3.18659059               -1.54762910                3.77184605               20.08800745               72.74229925              -23.78872004
              53.62606136                6.91018130               91.79543239                0.00010000                0.86779501               -0.89074093                4.52781769               19.82710567               64.87888954              -34.73324138
              54.62577170                2.35734071               90.79466299                0.00010000               -0.36111809                0.09175549                2.94988616               19.75747980               55.23644666              -48.12942817
              55.61883900               -2.20361101               89.67400931                0.00010000               -0.40367963                0.98570715               -0.60363422               19.29620465               44.11018481              -64.51018729
              56.61769810               -6.78012388               88.42646971                0.00010000                0.89666931                1.64011589               -6.07826580               18.03925170               31.85356152              -84.44798642
              57.63677239              -11.38371867               87.04939860                0.00010000                3.76779790                1.92224860              -13.61742333               15.68730555               19.33416920             -108.49295793
              58.69305406              -16.02994656               85.54959481                0.00010000                8.13358209                1.76678722              -23.22995792               11.86694713                8.40054987             -137.12631892
              59.79944403              -20.73669583               83.95051490                0.00010000               13.21108793                1.70780588              -34.31220068                6.20173051                1.63988662             -170.66059456
              60.95727582              -25.51793725               82.29607503                0.44025285               15.78317916                2.65604562              -45.34203109                3.44513825                1.18436352             -209.47850455
              55.31784769               21.74397313               94.72793001                0.44191810               -0.25447921               -0.33569990                2.41946758                0.05513689                0.14306926               19.93164693
              56.31530290               16.99218610               93.01598622                0.00010000                1.95243901               -0.42659248               -0.43618473               10.12444634               46.18385423              -15.04563982
              57.35689647               12.44048484               92.22386451                0.00010000                2.95677013               -1.67511818                3.60540883               19.78303183               89.95653116              -23.93259021
              58.37443830                7.89587931               91.32321538                0.00010000                1.05231551               -1.59557629                4.36794387               19.88409127               80.89613667              -33.84907652
              59.37794278                3.35231006               90.29385671                0.00010000                0.15588988               -0.69485305                2.45054988               19.69232216               69.63870179              -45.52401084
              60.37755610               -1.19750728               89.12069721                0.00010000                0.35534547                0.57209718               -1.77767724               18.94218374               56.49421636              -59.64390728
              61.38504969               -5.76356891               87.79281471                0.00010000                1.85805551                1.94451549               -8.27161879               17.31545846               41.89809268              -76.91969241
              62.41471721              -10.35849304               86.30581461                0.00010000                4.83926356                3.34166670              -17.18249106               14.56217635               26.90955527              -98.04859240
              63.48183496              -14.99645207               84.66718894                0.00010000                9.17061891                4.91388110              -28.50825290               10.50984305               13.48660932             -123.68731095
              64.59812959              -19.69093901               82.90241260                0.00010000               14.13369140                7.04874822              -41.64169217                5.34057015                4.24988682             -154.44026516
              65.76450879              -24.45045333               81.05774003                0.44026936               16.63792027               10.15850783              -55.06642814                2.96336719                2.47180175             -190.70139427
              60.07021313               22.73854524               94.43907857                0.44262451               -0.19063636               -0.66729909                2.40318418                0.03813658                0.22011410               19.80477550
              61.06830676               17.99094007               92.55209371                0.00010000                1.50850492                0.09975375               -0.92367605                9.13444724               55.59830292              -15.01347828
              62.10038323               13.42400372               91.77203456                0.00010000                2.18056071               -1.50876340                3.15226705               17.98151253              108.23409844              -23.40759005
              63.11191798                8.87826978               90.87689128                0.00010000                0.63107504               -1.63127090                3.75300458               18.61836589               98.18944587              -31.79907265
              64.11300473                4.34344365               89.83886257                0.00010000                0.08218294               -0.71121136                1.46670959               18.47814210               85.41827254              -41.22323198
              65.11356164               -0.19216907               88.63683642                0.00010000                0.59941565                0.83369999               -3.36166221               17.47855431               70.32018267              -52.61265708
              66.12499304               -4.74123357               87.25555636                0.00010000                2.36687211                2.77048416              -10.70965008               15.55291764               53.42716540              -66.78526051
              67.16089908               -9.31688534               85.68774867                0.00010000                5.53519228                5.06682114              -20.73262335               12.65220208               35.86768515              -84.52073084
              68.23569688              -13.93166894               83.93905331                0.00010000                9.96788046                7.87179204              -33.41162616                8.85181761               19.63852045             -106.59505835
              69.36025669              -18.59572087               82.03379918                0.00010000               14.99374595               11.47693807              -48.10738805                4.42334673                7.40074321             -133.72040880
              70.53557180              -23.31476710               80.01783599                0.44079192               17.53151164               16.13402485              -63.24828676                2.58457183                4.06682198             -166.36791458
              64.81382076               23.73062715               94.14794912                0.44238953               -0.12873982               -0.83845190                2.30480237                0.01355794                0.30094760               19.32730287
              65.81253337               18.99418118               92.08807146                0.00010000                0.76881270                0.46523272               -1.32239552                7.70180578               65.85244742              -15.02537962
              66.82919702               14.41030958               91.33899848                0.00010000                0.74161627               -1.09148560                2.54853778               15.20101601              128.19744063              -22.07868821
              67.82736569                9.86325389               90.47259840                0.00010000               -0.56262719               -1.05504582                2.88773520               16.28244228              117.22445183              -28.19814897
              68.81794447                5.33808583               89.45163831                0.00010000               -0.77806408               -0.00635308                0.23319625               16.10872080              102.82638470              -34.91855948
              69.81180441                0.81916672               88.24842639                0.00010000                0.14399204                1.72370485               -5.12428874               14.93056472               85.65086028              -43.23670677
              70.82082431               -3.70815922               86.84363070                0.00010000                2.31961053                4.02918590              -13.19226473               12.89146449               66.37227685              -53.93495367
              71.85819662               -8.25715662               85.22661160                0.00010000                5.84412656                6.90023288              -24.11705634               10.11910402               46.10872749              -67.77068372
              72.93770685              -12.83901623               83.39935187                0.00010000               10.57490322               10.44332575              -37.83126808                6.82718930               26.79450340              -85.57619259
              74.06969468              -17.46140024               81.38223083                0.00010000               15.82929199               14.86074748              -53.61446124                3.33717397               11.10043776             -108.28017732
              75.25429269              -22.12777283               79.21792250                0.44101855               18.45980015               20.39715572              -69.79198116                2.12277999                5.96679097             -136.63365313
              69.54337623               24.72177620               93.85241689                0.44179986               -0.07157789               -0.85525919                2.16184961                0.00628490                0.40865685               18.89492320
              70.54266045               20.00024473               91.62231478                0.00010000               -0.40226993                0.66319330               -1.64358682                6.23387279               77.53816331              -15.50814742
              71.53533083               15.40217401               90.93504368                0.00010000               -1.64349396               -0.19918382                1.89538855               11.97091594              150.78744692              -19.21147005
              72.50979057               10.85716886               90.12996963                0.00010000               -2.80322600                0.27590094                1.94178617               12.84716759              138.47355650              -22.31091965
              73.47926631                6.34331659               89.15598183                0.00010000               -2.56862953                1.32680914               -1.06697162               12.43926224              121.92740186              -26.17037920
              74.45841798                1.84230503               87.98160901                0.00010000               -1.00603193                3.10016875               -6.91799631               11.20111731              102.46053047              -31.32378119
              75.45914567               -2.66064985               86.58561806                0.00010000                1.78600922                5.56757577              -15.63551723                9.34512719               80.80026510              -38.33788546
              76.49413817               -7.17888068               84.95466282                0.00010000                5.86693110                8.72918283              -27.33895117                7.00609839               57.88940565              -47.81262717
              77.57648429              -11.72280242               83.08585208                0.00010000               11.08093005               12.61626998              -41.87628952                4.44492652               35.35090140              -60.51075989
              78.71575677              -16.29850592               80.99122894                0.00010000               16.71441391               17.31211372              -58.37425946                2.04073355               15.66294906              -77.70259628
              79.91077257              -20.90682398               78.70513426                0.44095720               19.50158059               23.03834173              -74.99592584                1.56928929                8.37937253             -101.26027577
              74.25700942               25.71352196               93.55522293                0.44227749               -0.01964010               -0.75592080                2.00198835               -0.00161113               -0.36293673               16.23642222
              75.25681301               21.00744504               91.14741164                0.00010000               -2.26591075                0.72614439               -1.90977048                5.29349705               91.75821044              -14.28942486
              76.21169120               16.40632590               90.58279322                0.00010000               -5.68232765                2.04310616                1.34619551                7.56356006              177.66569716              -12.34945097
              77.14316646               11.86877191               89.87688997                0.00010000               -6.50488236                2.16663547                1.16604479                7.66244103              161.77106021              -13.05564597
              78.08159355                7.36462201               88.97851213                0.00010000               -5.16866319                3.02743946               -2.22266476                7.00327159              142.22891944              -14.49791521
              79.03979320                2.88117010               87.86244562                0.00010000               -2.63404934                4.67490292               -8.61210114                6.12653584              120.42992664              -16.77027848
              80.02891257               -1.59680771               86.50858105                0.00010000                1.03389799                7.13784420              -18.01456536                4.92073938               96.71116753              -20.13849276
              81.06047116               -6.08257296               84.90281524                0.00010000                5.86590235               10.40659875              -30.50606818                3.47176994               71.70679861              -24.92365004
              82.14623061              -10.58669083               83.03840583                0.00010000               11.70298790               14.44138860              -45.84752603                1.95697405               46.38698263              -31.60361383
              83.29453092              -15.11515797               80.91459042                0.00010000               17.80419928               19.15769608              -62.94902299                0.74763294               22.02343464              -41.16351084
              84.50231460              -19.66700599               78.53827496                0.44138387               20.77836833               24.57016580              -79.56150336                1.08581310               11.82362874              -57.37573788
              78.95549785               26.70665779               93.20754518                0.72113912                0.02286050               -0.68641769                1.83012026                0.65982621                7.39025514               13.74292305
              79.95572646               22.01476761               90.70662066                0.43984213               -6.51113432                0.73225718               -2.12218442                6.71026140              113.97380649              -12.72726830
              80.82527516               17.44303613               90.33883691                0.43846640              -12.54915874                3.67102328                1.46169387                5.64509425              207.73310402               -7.46084883
              81.70474328               12.90050157               89.74926558                0.43861367              -10.91708049                3.17296614                1.05587422                4.19914428              184.92797563               -7.79881479
              82.60693355                8.40386538               88.94792803                0.43860334               -8.11824328                3.92433687               -2.87153633                4.29907585              162.48468675               -8.36382758
              83.54237842                3.93580308               87.91535694                0.43869818               -4.28150170                5.46329877              -10.00700092                4.17060436              138.80420367               -9.34267901
              84.52130352               -0.51789297               86.63574978                0.43873217                0.55391357                7.89147385              -20.27542011                3.91150586              113.89813756              -10.80654505
              85.55345669               -4.97074871               85.09704014                0.43816993                6.34526298               11.18242572              -33.71175729                3.49446880               88.05221108              -12.89684307
              86.64820878               -9.43397465               83.29218894                0.43905203               12.87839514               15.27161787              -50.04565067                2.96765217               61.86700004              -15.87434571
              87.81102459              -13.91535200               81.21673249                0.43999965               19.39880509               19.98059717              -68.11104926                2.57706656               34.19598584              -20.26995847
              89.03618488              -18.41542067               78.82988773                0.72057823               22.51602928               25.15853263              -84.97890985                3.38016141               21.33794825              -30.88058308
              32.71297001               17.18934161               97.31980252                0.72122805               -0.36065276               -0.40575762                2.22370027               -0.05422311               -6.89039688                7.34867483
              33.70936348               12.40588024               96.32115209                0.44022206                1.00818621               -0.63556983                1.50915793                1.32915836               -7.80653106               -6.14376315
              34.73313373                7.65685471               95.30013093                0.43866764                2.01444057               -0.06032701                1.17737427               -0.14781044               -5.42464892               -0.07032425
              35.74965229                2.95806703               94.32736375                0.43869792                1.34720570                0.08562571                0.86219405               -0.09861225               -2.14811605               -0.41558319
              36.76007784               -1.71049534               93.35943341                0.43900178                0.79251665                0.30528393                0.60021886               -0.15842374               -1.58123529               -0.17615106
              37.76550262               -6.36428149               92.39316661                0.43904204                0.39364667                0.51260252                0.32317989               -0.19433990               -1.73200043               -0.07215370
              38.76795078              -11.01595758               91.42292525                0.43925136                0.19679057                0.71759444                0.01179561               -0.22832462               -2.56983865               -0.02163716
              39.76943843              -15.67433588               90.44437217                0.43942055                0.17608982                0.91997833               -0.33461909               -0.26044277               -3.91105105               -0.00415641
              40.77147257              -20.34487767               89.45410055                0.43981037                0.24344315                1.11775641               -0.69498483               -0.27732606               -5.79528951               -0.06760174
              41.77430730              -25.03108846               88.44572548                0.44165978                0.29565237                1.29936105               -0.99841405               -0.23204414               -6.76388841                0.38136294
              42.77738562              -29.73676087               87.44410498                0.72161672                0.30783241                1.43998330               -1.41418219                1.06076635               -6.83249583               -4.27415110
              37.49588914               18.18528403               96.92357146                0.44087612               -0.69906311                1.11264732                2.00693601                1.69736196                6.20612061               13.27932527
              38.48889851               13.39952454               95.92248900                0.00010000               -2.01634579               -2.21362555                1.27099608                3.84231818               14.15422686              -11.46254467
              39.45556223                8.65625143               95.08016616                0.00010000               -2.82786628                2.70660960                0.24714794                9.93983399               19.27517978              -10.82021623
              40.43234119                3.95892329               94.20345510                0.00010000               -1.79471790                3.68978998               -0.80200823               13.07553910               16.86730961              -15.05029823
              41.41966787               -0.70744250               93.32802540                0.00010000               -0.80254202                3.73246991               -1.95009430               14.20873439               16.34636579              -21.86270230
              42.41629035               -5.35915547               92.44934777                0.00010000                0.05134269                3.19264135               -3.10924111               14.00981028               15.77607822              -31.40859052
              43.42069472              -10.00878164               91.56664775                0.00010000                0.75018526                2.17330352               -4.27837814               12.97295952               15.20497680              -43.89920917
              44.43129405              -14.66513610               90.67817552                0.00010000                1.31904403                0.54710349               -5.45795896               11.65154869               14.45356549              -59.56334019
              45.44707560              -19.33370011               89.78105945                0.00010000                1.83172020               -2.06898333               -6.64952235               10.89456084               13.53200707              -78.41644069
              46.46792846              -24.01809485               88.87472639                0.00010000                2.32950454               -6.26582213               -7.80412281               12.16672372               10.92314652              -99.89348036
              47.49366570              -28.72236104               87.92684823                0.44110186                2.57372394              -16.89431430               -8.64797100               19.96561319                8.71101614             -124.60633321
              42.31843623               19.21159455               96.64170285                0.44005416               -0.31937899                2.16903022                2.00405915                0.14659953               -1.18655587               18.89240926
              43.31524244               14.36160773               95.41755987                0.00010000                2.70477160               -3.35925900                0.98103071               10.30974534               21.42890399              -16.02209788
              44.37253166                9.71098690               94.64295971                0.00010000                2.98072824                2.67208533                3.08187675               24.47043643               42.79393588              -19.94819813
              45.37485700                5.03186283               93.78602164                0.00010000               -0.51001843                5.03569561                3.26068179               26.56199867               36.56525079              -28.91805243
              46.36233129                0.36415406               92.86297012                0.00010000               -1.39095165                5.37023595                2.23374545               28.26901948               31.07260370              -42.97996897
              47.34703797               -4.30042867               91.87995740                0.00010000               -1.44703477                4.65858056                0.38375445               27.95189932               25.52911254              -62.08740762
              48.33339060               -8.97249151               90.83505743                0.00010000               -0.98250451                3.05649620               -2.28022403               26.04667029               19.16315933              -86.70065228
              49.32738788              -13.66339381               89.72409932                0.00010000                0.44659753                0.28605908               -6.09129958               23.15920284               11.85080959             -117.35738422
              50.34232255              -18.38625734               88.54536606                0.00010000                3.94574120               -4.34441104              -11.44664691               20.25051337                4.33813300             -154.32475405
              51.40630270              -23.15640491               87.30355085                0.00010000               12.14538578              -12.51644333              -18.24370426               14.59601727               -1.54618556             -197.29333807
              52.58523026              -28.07464716               86.00979995                0.43843863               17.89275583              -26.26999189              -25.02859540               14.57983460               -0.35240816             -246.24325526
              47.19879479               20.22866464               96.33444745                0.44012240               -0.30937119                1.23003195                2.08481901                0.16612196               -0.16135665               18.98485405
              48.19570108               15.33233936               94.95167575                0.00010000                3.79605317               -2.38341635                0.54646263               13.88571701               31.02893529              -15.09635354
              49.27471585               10.70969314               94.19081413                0.00010000                5.73564595               -1.05987413                4.47645437               27.58853973               61.25414229              -20.98862705
              50.31041400                6.05963720               93.32610330                0.00010000                2.13119541                1.03660301                5.38416958               28.12748199               54.04795639              -30.77841080
              51.31733976                1.39996222               92.35495594                0.00010000                0.07799562                2.06638001                4.23041197               29.26182446               45.95475695              -44.53827541
              52.31197391               -3.26598386               91.27822124                0.00010000               -0.63732433                2.36143815                1.61264831               29.52942465               37.03330627              -62.51866493
              53.30459327               -7.94765171               90.09240170                0.00010000               -0.18649851                1.96476013               -2.47283999               28.38856030               26.75773211              -85.22417421
              54.30824394              -12.65941492               88.79270562                0.00010000                2.02518472                0.61609864               -8.52537843               25.82740040               15.35536709             -113.24479292
              55.34509697              -17.42058833               87.38099408                0.00010000                6.99973422               -2.20065596              -17.09355257               21.18927743                4.61403535             -147.05575774
              56.44823862              -22.26842372               85.87607409                0.00010000               13.83249645               -7.13797002              -27.99656092               12.88734819               -1.28613092             -187.12442144
              57.62174690              -27.24776088               84.33252423                0.43802581               17.35082745              -10.37444373              -39.30335838                6.49298804               -0.45256313             -233.36992102
              52.11440922               21.23619519               96.04101027                0.43984985               -0.24809465                0.33668147                2.22732142                0.12013824                0.00678724               20.17114880
              53.11192827               16.31393940               94.48097846                0.00010000                4.12976967               -1.34748914                0.01473772               15.08051229               40.54815899              -15.67817620
              54.19700461               11.68978941               93.73017936                0.00010000                6.76046446               -2.28488873                4.94733676               29.46784511               79.49300288              -22.21565253
              55.24713756                7.05259489               92.84990800                0.00010000                3.80921143               -1.60030049                6.12707291               29.27031946               70.74075913              -31.79975507
              56.27318884                2.40548166               91.83446183                0.00010000                1.90514189               -0.46392500                4.68487752               29.68568820               60.90588031              -44.46559416
              57.28524040               -2.25319990               90.67862721                0.00010000                1.07020092                0.53437994                1.28659127               29.61371548               49.64402493              -60.62573138
              58.29459286               -6.93319631               89.37563216                0.00010000                1.58160526                1.20347056               -4.09089364               28.26969551               36.61236238              -80.89942042
              59.31687250              -11.65107184               87.91983660                0.00010000                4.02620199                1.36405467              -12.03539033               25.06579792               22.37003090             -106.02358336
              60.37511690              -16.43027046               86.31597319                0.00010000                8.71748562                0.92149024              -23.17720800               19.32060211                9.25704547             -136.79622490
              61.49122222              -21.29916431               84.59258351                0.00010000               14.93237216                0.67708819              -37.33328352               10.33816319                1.20061652             -173.97248799
              62.67376434              -26.28213604               82.81011576                0.43888666               18.25421254                2.15509107              -52.78809218                5.45480906                0.78200492             -218.51404531
              57.04570914               22.23539826               95.75169039                0.43995226               -0.19920387               -0.37892642                2.31786656                0.09727810                0.18547686               20.38354798
              58.04371710               17.30538958               94.01135063                0.00010000                3.98540613               -0.46164712               -0.49019724               14.57627218               50.03691502              -15.65067107
              59.12541726               12.66399537               93.26678934                0.00010000                6.82055182               -2.63426316                4.84087165               28.54919194               97.72224045              -22.94601678
              60.18012814                8.02763119               92.37673415                0.00010000                4.57155299               -2.88195118                6.01076266               28.76916802               87.70932891              -31.75801591
              61.21684832                3.39068372               91.32918060                0.00010000                3.13990266               -1.95671826                4.20374931               28.85891784               76.31196497              -42.70193483
              62.24292619               -1.25529626               90.11379636                0.00010000                2.55053979               -0.52024836                0.08694399               28.24052923               63.09624713              -56.45702653
              63.26785912               -5.92358230               88.71968280                0.00010000                3.18539284                1.06182673               -6.40902943               26.29271945               47.73726190              -73.82636221
              64.30663405              -10.63213382               87.13919145                0.00010000                5.58711807                2.69533699              -15.92770357               22.51872587               30.96546978              -95.68720592
              65.37960148              -15.40215853               85.37766481                0.00010000               10.01167077                4.63493243              -29.13830330               16.54847212               15.18838137             -122.95483892
              66.50686746              -20.25488196               83.46548219                0.00010000               15.85925283                7.52394540              -45.90853129                8.57288939                4.31927317             -156.54813821
              67.69678653              -25.20465906               81.46517030                0.43876671               18.99190732               12.12714385              -64.57648510                4.52670249                2.32031008             -197.08437898
              61.97637216               23.22861666               95.46266035                0.44042270               -0.15155427               -0.83800419                2.28996073                0.08674534                0.28038757               20.04050159
              62.97485661               18.30470646               93.54297843                0.00010000                3.46873397                0.19204685               -0.89175603               12.94612436               59.70322386              -15.43198866
              64.04574684               13.63710415               92.81085310                0.00010000                6.04879760               -2.62805499                4.43741569               25.54838247              116.48105983              -22.85084211
              65.09583257                8.99495587               91.92462958                0.00010000                4.37739066               -3.28668312                5.42769235               26.50678897              105.47268252              -30.39979243
              66.13329465                4.36634730               90.86461128                0.00010000                3.42422217               -2.44017913                3.24527238               26.59373661               92.58740485              -39.12064725
              67.16431701               -0.26360487               89.61413103                0.00010000                3.19950810               -0.70635245               -1.49721601               25.52555548               77.42730504              -50.02866102
              68.19728481               -4.91195977               88.15761334                0.00010000                4.07531179                1.57693837               -8.92386113               23.07953563               59.74571825              -64.07085591
              69.24582324               -9.59716510               86.48437931                0.00010000                6.57748320                4.38909771              -19.70863346               19.08476816               40.33621390              -82.17719875
              70.32883447              -14.33757181               84.59800358                0.00010000               10.96786462                8.00028290              -34.52386873               13.56474727               21.63681539             -105.28767636
              71.46518054              -19.14868540               82.52799340                0.00010000               16.75090604               12.90743376              -53.21289603                6.88602337                7.60712295             -134.25450008
              72.66385260              -24.03959316               80.33708239                0.43917845               19.86720587               19.55453672              -74.03097400                3.80941533                3.96418080             -169.56209149
              66.89526446               24.21863818               95.17039406                0.43942485               -0.11123592               -1.01729687                2.16578752                0.09038858                0.37692860               19.39316458
              67.89415210               19.30923051               93.07558219                0.00010000                2.54355201                0.56972781               -1.17103554               10.70720225               69.97315712              -15.26119481
              68.94613550               14.61143427               92.37222362                0.00010000                4.34343348               -2.36638328                3.91635212               21.22036417              136.49289945              -21.88215018
              69.98102077                9.96189753               91.51204573                0.00010000                3.05741474               -2.93878989                4.63381496               22.87199956              124.59446391              -27.42625360
              71.00728379                5.34188014               90.46533334                0.00010000                2.53618010               -1.99328905                2.08777678               22.91634929              110.08355913              -33.50524688
              72.03174437                0.73057669               89.20821804                0.00010000                2.78631308               -0.06617996               -3.19432999               21.53630369               92.79679492              -41.27991370
              73.06301006               -3.89204354               87.72064436                0.00010000                4.10985372                2.65743142              -11.39210347               18.86889092               72.65273970              -51.68066625
              74.11394145               -8.54435187               85.98860716                0.00010000                6.97033342                6.19696407              -23.18041358               15.04868350               50.46877959              -65.57407096
              75.20241672              -13.24215287               84.01251636                0.00010000               11.63339155               10.76961244              -39.18049583               10.32771623               28.64597563              -83.84934091
              76.34660928              -17.99673328               81.81881841                0.00010000               17.61868183               16.72647165              -59.13511905                5.13924107               11.18222683             -107.42130877
              77.55479036              -22.81356832               79.46827092                0.43909109               20.81810840               24.42741225              -81.14738564                3.05108928                5.77161701             -136.94892993
              71.79699526               25.20827073               94.87331830                0.43988166               -0.07906892               -0.95676302                1.97111187                0.07732905                0.45518927               18.86153967
              72.79620457               20.31610101               92.60730761                0.00010000                1.02459209                0.69040562               -1.33301436                8.39846700               81.50467328              -15.60300338
              73.81748710               15.58977649               91.96227052                0.00010000                1.33110555               -1.56951151                3.38186408               16.28747959              158.83379330              -19.36803815
              74.82282668               10.93618007               91.16032388                0.00010000                0.27276847               -1.63250196                3.78696945               17.87404799              145.64167747              -22.12617745
              75.82294247                6.32648152               90.15695589                0.00010000                0.30700372               -0.68122149                0.89015855               17.62487217              128.93547227              -25.44269391
              76.82896676                1.73507153               88.92359738                0.00010000                1.33243581                1.26883991               -4.89502848               16.09820669              109.22771964              -30.06449716
              77.84959119               -2.85881115               87.43805721                0.00010000                3.39697446                4.15516682              -13.77994791               13.62032762               86.56985590              -36.71771868
              78.89690625               -7.47322582               85.68387769                0.00010000                6.90895115                8.02508406              -26.41388992               10.39973984               61.66151088              -46.06137027
              79.98777021              -12.12217956               83.65751278                0.00010000               12.12372838               13.00019745              -43.31753403                6.77064619               36.65675076              -58.83109896
              81.13938081              -16.81415597               81.37877970                0.00010000               18.53871273               19.26099605              -64.04098649                3.21555904               15.40179140              -76.14696592
              82.35854447              -21.55104491               78.90193369                0.43930786               21.91636521               27.11137697              -86.48062414                2.21757722                7.97296151              -99.61479600
              76.68115047               26.19950292               94.57427977                0.43988868               -0.05347858               -0.76385737                1.73253670                0.04308837               -0.33460646               16.17567890
              77.68061568               21.32303863               92.13068427                0.00010000               -1.46722163                0.63957469               -1.38505586                6.73298111               95.53687952              -14.29889748
              78.65180603               16.58004404               91.60504344                0.00010000               -3.94094910                0.91148736                2.94872239                9.93189879              185.33702552              -12.67486731
              79.60179670               11.92924749               90.89979875                0.00010000               -4.54581269                0.55711597                3.09667366               10.61012022              168.54463721              -13.26136378
              80.56088978                7.32825571               89.96803363                0.00010000               -3.13977652                1.26096288               -0.20555329                9.97848502              148.60438826              -14.31175766
              81.53900117                2.75595349               88.78734925                0.00010000               -0.85879130                3.00036555               -6.55940685                8.84560418              126.33238726              -16.20637870
              82.54371395               -1.80894020               87.33675130                0.00010000                2.31517451                5.81978505              -16.17493040                7.20850265              101.42929433              -19.30844114
              83.58530466               -6.38385019               85.59944872                0.00010000                6.75229214                9.76697589              -29.65942427                5.21216512               74.31570360              -23.95398203
              84.67875980              -10.98214892               83.56896109                0.00010000               12.72405752               14.87151216              -47.43792561                3.08525019               46.58237130              -30.56561797
              85.83978581              -15.61151336               81.25472019                0.00010000               19.70800019               21.09085232              -68.79368252                1.28870301               21.05752783              -39.97443552
              87.07291980              -20.27134078               78.68823376                0.43933395               23.31339916               28.47185711              -91.09262061                1.46979100               11.00440268              -55.37922642
              81.55078562               27.19299358               94.22499897                0.71985603               -0.04625391               -0.65093413                1.58437813                0.55340794                7.42262926               13.71992578
              82.55032308               22.32889251               91.68857450                0.43840606               -7.04347011                0.58538809               -1.43358251                7.72137251              117.90493058              -12.73573578
              83.40991622               17.60800623               91.36303941                0.43795400              -13.17528320                2.79621964                3.21424750                6.73251235              215.46577332               -8.26977093
              84.28681741               12.94732239               90.77147912                0.43847007              -10.70550206                1.80749002                3.04538297                5.68679866              190.91169152               -8.48104390
              85.19580617                8.35170077               89.93081263                0.43889717               -7.18713319                2.34450638               -0.90274614                5.87946191              167.54429773               -8.79889092
              86.14307475                3.79507884               88.82557526                0.43849904               -3.11206276                3.91253501               -8.10267511                5.70154727              143.10194107               -9.55138119
              87.13356492               -0.74241545               87.43999034                0.43839552                1.56417594                6.65247533              -18.67226891                5.33683957              116.83959948              -10.85399223
              88.17435827               -5.27788630               85.75964115                0.43798992                7.17867349               10.59638880              -33.19648699                4.78866743               88.73218554              -12.82007919
              89.27713839               -9.82474932               83.77794747                0.43765332               13.99942357               15.73995996              -52.10367013                4.11522821               59.99595009              -15.63200746
              90.45434674              -14.39233892               81.50136879                0.43858417               21.52283734               21.91744404              -74.62584545                3.61317057               31.45252313              -19.69904063
              91.70759514              -18.98160777               78.92161041                0.71975947               25.32483949               28.97330129              -97.21164381                4.54064835               19.06156947              -29.05828728
              33.64679619               17.65966531               98.33955367                0.72001876               -0.14522857               -0.18165418                1.71065903                0.04621169               -6.77091067                7.22205011
              34.64534391               12.74466125               97.33462288                0.43927854                1.70561674               -0.65167741                1.17504095                2.02573515               -7.46558489               -6.06161218
              35.68090853                7.88032912               96.31127871                0.43821799                2.93299174                0.05995334                1.03330930               -0.02059618               -4.70400086               -0.17940258
              36.70400374                3.08618131               95.33625199                0.43881307                1.79364968                0.13659489                0.89051669                0.04041382               -1.37513672               -0.40632342
              37.71678152               -1.66784640               94.36653924                0.43907123                0.88300280                0.30760306                0.78193791               -0.04184755               -0.81610120               -0.14822306
              38.72166380               -6.40361025               93.39835466                0.43901806                0.24484843                0.45810978                0.65930759               -0.10430154               -1.01928938               -0.03229001
              39.72167849              -11.13797595               92.42588822                0.43867372               -0.10204763                0.60980668                0.51574068               -0.17849602               -1.90649640                0.02933100
              40.71962285              -15.88206994               91.44482178                0.43840948               -0.20011797                0.75733125                0.35154597               -0.24220243               -3.27883715                0.04553480
              41.71767613              -20.64235696               90.45188775                0.43790563               -0.15433139                0.90020184                0.18007240               -0.28458565               -5.13580531               -0.03461966
              42.71653622              -25.42219017               89.44156152                0.43878849               -0.09959014                1.03078421                0.09210033               -0.24029566               -6.11464948                0.34365303
              43.71568433              -30.22400607               88.43684621                0.72003145               -0.08518899                1.09270490               -0.11305937                1.17598163               -6.20395395               -3.88409587
              38.56226238               18.65784877               97.94175798                0.43881561               -0.69930201                1.86841306                1.64093438                2.44422812                6.09091845               13.27362560
              39.55526936               13.73814447               96.93414415                0.00010000               -2.61599198               -2.90125950                1.07225628                5.55564646               13.82771687              -11.43767809
              40.50994254                8.88092865               96.08163677                0.00010000               -3.83868576                4.18871571                0.08086291               14.75056612               18.49254496               -8.78924836
              41.47849564                4.08754726               95.19502782                0.00010000               -2.43418546                5.39063582               -0.86473111               19.77322064               15.93468534              -11.88394581
              42.46125883               -0.66477037               94.30866923                0.00010000               -1.14050415                5.29458188               -1.86877838               22.10270756               15.32290670              -18.15842989
              43.45568556               -5.39902915               93.41908520                0.00010000               -0.10677268                4.47535394               -2.86884238               22.56199885               14.73227829              -27.56091406
              44.45912337              -10.13187788               92.52541599                0.00010000                0.68528845                3.07658982               -3.90050284               21.61735608               14.13043588              -40.29608493
              45.46939133              -14.87449663               91.62568725                0.00010000                1.28835087                0.87048225               -4.97151188               19.81967503               13.35249774              -56.82496876
              46.48489039              -19.63335494               90.71712242                0.00010000                1.77832451               -2.77457027               -6.07270294               18.26219755               12.43295036              -77.48969219
              47.50495782              -24.41188233               89.79958572                0.00010000                2.21848250               -8.86226421               -7.17272235               19.19680291                9.99624794             -101.79386519
              48.52926004              -29.21307902               88.84394416                0.43858101                2.43022241              -24.92196719               -7.89508406               29.12803903                7.93470116             -129.40101274
              43.53508935               19.69703357               97.66026570                0.43839144               -0.17123967                3.16812743                1.71233167                0.22242656               -1.34331489               19.28949219
              44.53337696               14.68663606               96.42670733                0.00010000                4.57138579               -4.47184818                0.86491582               14.86078147               23.00651605              -16.46964190
              45.62651707                9.96410343               95.67700954                0.00010000                5.58951115                4.17582897                3.71781806               35.69582173               46.43681094              -15.82454580
              46.64516718                5.19399403               94.82308608                0.00010000                0.94475091                7.33461477                3.96873392               39.49971505               39.64235186              -22.78852147
              47.64541209                0.43804524               93.89048826                0.00010000               -0.25779448                7.64940465                2.97127492               43.33110202               34.46372620              -35.91074816
              48.64001129               -4.31410317               92.89031841                0.00010000               -0.79595008                6.63823111                1.45527704               44.36064180               29.41413224              -54.75297808
              49.62949308               -9.07644415               91.82060557                0.00010000               -1.12589416                4.52242201               -0.59612278               42.75733805               22.93342003              -79.79567960
              50.61749341              -13.86466029               90.67236863                0.00010000               -0.45936493                0.84627332               -3.88349575               38.94339178               14.26059934             -112.03771217
              51.62030579              -18.69784836               89.43755502                0.00010000                3.13514758               -5.50775804               -9.48635772               34.03827766                4.25603411             -152.44764875
              52.68019636              -23.59943545               88.12016624                0.00010000               14.01663512              -17.23669441              -17.96786629               23.96483285               -3.64135914             -201.21533778
              53.90063849              -28.72244541               86.74766837                0.43685827               22.04421314              -37.91047240              -27.62071124               21.79458458               -2.01239410             -259.77301390
              48.58750594               20.72121132               97.35425898                0.43798646               -0.20908157                1.72028515                1.88904750                0.28193623               -0.17690002               19.54970734
              49.58541513               15.64870751               95.95659332                0.00010000                6.44975317               -3.02012688                0.43797253               19.69903002               34.00867138              -15.85524416
              50.71650100               10.96444523               95.24055166                0.00010000               10.45665065               -1.34428031                5.34306881               39.41806474               67.68708953              -18.18466828
              51.79454814                6.23423955               94.38640904                0.00010000                5.97385313                1.47806621                6.23109686               40.75996956               60.08234311              -26.13936251
              52.83597807                1.48821773               93.40423123                0.00010000                3.14198228                2.78794651                4.97935122               43.46269589               52.76082450              -39.01581355
              53.85738778               -3.26626453               92.30270825                0.00010000                1.44245941                3.12012073                2.71941583               45.04453587               44.81904231              -56.66256846
              54.86482725               -8.04142944               91.07803672                0.00010000                0.61377952                2.55253793               -0.60991934               44.39681250               34.54454709              -79.64472378
              55.86966337              -12.85757116               89.71806639                0.00010000                1.78019257                0.69920615               -6.10850929               41.21289565               21.33890436             -108.91687690
              56.90043111              -17.74351010               88.21559064                0.00010000                6.95940747               -3.23467121              -15.35094199               34.30486091                7.27825006             -145.54982498
              58.00885152              -22.75661622               86.58856099                0.00010000               15.53702692              -10.30591194              -29.15333309               21.06695323               -1.28015266             -190.97947709
              59.21117164              -27.97128847               84.91252992                0.43680743               20.23201213              -14.92094114              -45.47176385               10.39342212               -0.94574139             -246.61133097
              53.68573570               21.73143928               97.06264720                0.43808618               -0.16120544                0.43913468                2.09150327                0.21596488                0.04603479               20.67901160
              54.68412364               16.62623352               95.48059123                0.00010000                7.18053117               -1.57673992               -0.08832983               21.06528385               44.46891830              -16.46996793
              55.82934632               11.93721783               94.78513190                0.00010000               12.62352180               -3.17772314                5.77082175               41.33892918               87.76921768              -20.39726260
              56.93659408                7.22355535               93.91797385                0.00010000                9.29118848               -2.41210749                6.81352723               41.41359112               78.66624163              -28.37101886
              58.01517009                2.49380417               92.88836054                0.00010000                6.69775466               -1.00479097                5.19900964               42.79428512               69.95633234              -40.04177230
              59.07054917               -2.25170076               91.69974114                0.00010000                4.67829362                0.20564508                2.14823273               43.61967498               60.01169065              -55.67203378
              60.10873596               -7.02539339               90.34465183                0.00010000                3.66414032                0.96760542               -2.48914321               42.52985829               47.14190911              -75.96432033
              61.14383198              -11.85067617               88.80869080                0.00010000                4.83560500                1.03956443              -10.03056980               38.46164124               31.01431112             -101.96746053
              62.20544806              -16.76254179               87.08605065                0.00010000                9.27409056                0.29654296              -22.29971719               30.20016143               14.29237213             -135.04533103
              63.32931379              -21.80555369               85.20384923                0.00010000               16.62016836               -0.03477221              -40.26796264               16.49177976                2.79262203             -176.77425284
              64.53785143              -27.02086423               83.24031319                0.43738186               20.85376401                2.60904631              -62.40306573                8.48730232                1.19438383             -229.16265655
              58.80223675               22.72999401               96.77428734                0.43802833               -0.12945017               -0.53938392                2.20046651                0.19032072                0.26217362               20.66484111
              59.80094225               17.61717271               95.00618228                0.00010000                7.18605031               -0.40823912               -0.55406172               20.04758026               54.46828404              -16.26510337
              60.94595776               12.90089077               94.32068195                0.00010000               13.26456846               -3.78326137                5.55570736               39.39158203              107.00397979              -21.76783050
              62.06623362                8.18599740               93.44343064                0.00010000               11.05810593               -4.42965017                6.51585731               39.91252516               96.68507474              -29.18738864
              63.16711988                3.46812191               92.37793169                0.00010000                9.13726122               -3.44631001                4.53624874               40.59661258               86.58428152              -39.05388167
              64.24897884               -1.26215163               91.12243609                0.00010000                7.36399774               -1.77316088                0.77444648               40.41786357               74.85157619              -52.07012913
              65.31439983               -6.02207733               89.66463412                0.00010000                6.35328743                0.08905723               -5.02941950               38.31474632               59.73227601              -69.17668887
              66.37604459              -10.83677987               87.98726054                0.00010000                7.24560132                2.04155765              -14.31710087               33.39496168               41.04015826              -91.51476815
              67.45931186              -15.73757924               86.08442288                0.00010000               11.04824866                4.51338861              -29.02389351               24.94196243               21.43180805             -120.42251957
              68.59700957              -20.75731166               83.98424198                0.00010000               17.61134561                8.57033012              -50.24350505               13.12391223                6.63061451             -157.35621431
              69.81153877              -25.91910754               81.76621032                0.43758014               21.45292046               15.58773403              -76.52523156                6.76171287                3.10350060             -203.29098191
              63.91518471               23.72065160               96.48487779                0.43793476               -0.10062246               -1.10807650                2.15056159                0.17903054                0.38380173               20.07789884
              64.91417849               18.61806874               94.53425859                0.00010000                6.65842770                0.37276927               -0.86391750               17.50628528               64.29947808              -15.80056880
              66.04835327               13.86155260               93.86078288                0.00010000               12.67174780               -3.98208078                5.10068322               34.67636551              126.10675074              -22.04957640
              67.16761345                9.13496235               92.98544512                0.00010000               11.34490531               -5.34814384                5.86966242               36.16184978              114.84975843              -28.46468927
              68.27525137                4.42487797               91.90376802                0.00010000               10.07461169               -4.62428139                3.56133285               36.70985749              103.32750697              -36.11484975
              69.36910568               -0.28716398               90.60689210                0.00010000                8.72038768               -2.68731347               -0.79436787               35.74801138               89.67704758              -46.15881588
              70.44965913               -5.02361225               89.07707913                0.00010000                7.90637198               -0.00695456               -7.55840851               32.82045601               72.21804760              -59.71125190
              71.52723312               -9.80984502               87.29357600                0.00010000                8.75799861                3.43217236              -18.23074035               27.54969242               50.82083115              -77.89848670
              72.62481910              -14.67227401               85.24857594                0.00010000               12.30436069                8.10334945              -34.77174140               19.84005875               28.15164071             -101.91357860
              73.77332033              -19.63414709               82.96954126                0.00010000               18.59291714               14.83494712              -58.25288856               10.18697765                9.99891734             -132.84933332
              74.99667744              -24.70910955               80.53721651                0.43768824               22.33571102               24.37524085              -87.06036064                5.46781497                4.75193315             -171.19799041
              69.01098309               24.70783248               96.19126487                0.43811699               -0.08161315               -1.27651540                1.98227291                0.14539549                0.45281814               19.19385813
              70.01016695               19.62462810               94.06465075                0.00010000                5.58041877                0.75069204               -1.01466918               14.15199430               74.45697239              -15.36158774
              71.12259146               14.82124916               93.41732553                0.00010000               10.79891471               -3.97795912                4.63876408               28.25217977              145.96785962              -21.37453562
              72.22614525               10.07903453               92.56527470                0.00010000               10.04259442               -5.40350240                5.15734706               30.73562107              133.90390023              -26.08222650
              73.32344335                5.37563628               91.49339385                0.00010000                9.31420201               -4.65577741                2.54995980               31.22592257              120.76893136              -31.18848001
              74.41242929                0.68410210               90.18453979                0.00010000                8.50233219               -2.54760763               -2.30484096               29.74563368              104.93059180              -38.08211485
              75.49348999               -4.02221642               88.61578863                0.00010000                8.16354599                0.62505409               -9.84964302               26.41824135               84.92032043              -47.87042661
              76.57570021               -8.76813642               86.76300333                0.00010000                9.34625573                4.94476805              -21.58764018               21.36919355               60.67688978              -61.54485927
              77.68041511              -13.57551225               84.61574195                0.00010000               13.09422252               10.82024436              -39.42018974               14.87109532               34.85234700              -80.08024995
              78.83758466              -18.46061272               82.19952845                0.00010000               19.52024429               18.84000332              -64.29224034                7.49804421               13.32342182             -104.40237789
              80.07081999              -23.43160272               79.59497479                0.43771708               23.32353351               29.50134038              -94.35620810                4.26331914                6.38850254             -135.05167458
              74.08450140               25.69512129               95.89183912                0.43819882               -0.06996931               -1.12388044                1.68280507                0.12238893                0.49956384               18.46946726
              75.08380170               20.63308258               93.59565450                0.00010000                3.72445184                0.77860565               -0.98103363               10.67460520               85.67862145              -15.45364947
              76.15899043               15.78199342               93.00268096                0.00010000                7.20685200               -3.45947487                4.25356873               21.02677448              167.80463266              -19.21283400
              77.22793874               11.02689230               92.20570902                0.00010000                6.78559090               -4.33225662                4.48896814               23.73463877              154.55619496              -21.43225802
              78.29470225                6.33176242               91.17378500                0.00010000                6.69661547               -3.55530801                1.58702046               23.88395192              139.19677272              -23.94665664
              79.36187105                1.66188387               89.88370844                0.00010000                6.77801134               -1.45187256               -3.73953880               22.12102007              120.79226083              -27.77520387
              80.43026248               -3.01111117               88.31001910                0.00010000                7.30208821                1.86533827              -11.97396348               18.95377306               98.12447375              -33.83232447
              81.50791282               -7.71094966               86.42638502                0.00010000                9.22274114                6.53601791              -24.58445117               14.70586362               71.08550993              -42.82896123
              82.61471730              -12.45586913               84.21950140                0.00010000               13.57294355               12.85371854              -43.35293333                9.78970473               42.15324836              -55.46035055
              83.77937169              -17.25734702               81.71040921                0.00010000               20.46032659               21.16884765              -68.99232153                4.78052581               17.09943138              -72.66250646
              85.02392383              -22.11908274               78.97552178                0.43771545               24.45521446               31.86677368              -99.39137415                3.05420382                8.31666078              -95.72503639
              79.13750829               26.68535487               95.58987367                0.43776116               -0.07213586               -0.77516979                1.32549605                0.09943308               -0.27676457               15.79504640
              80.13678693               21.64020021               93.11971052                0.00010000                0.59044714                0.55949311               -0.78565912                7.93438530               99.32530753              -14.05474994
              81.14931723               16.75205966               92.64176767                0.00010000                0.71410458               -1.01723215                3.98223605               12.24423807              193.61150884              -12.79568331
              82.15106902               11.99238939               91.93882344                0.00010000                0.84067915               -1.96861712                3.96363535               13.98678038              176.86892056              -13.17837224
              83.16613081                7.30453012               90.97440106                0.00010000                2.33271272               -1.47164348                0.67314719               13.58481869              158.05373998              -13.66609919
              84.19772328                2.65506465               89.73125748                0.00010000                3.96340836                0.32197921               -5.21378975               12.19643501              136.85390265              -15.02750549
              85.24539898               -1.98490966               88.18508244                0.00010000                5.84260828                3.48301307              -14.17988554               10.06432100              111.75241233              -17.73455610
              86.31457544               -6.63741607               86.30962675                0.00010000                8.86037948                8.17072539              -27.64657033                7.43511145               82.39597259              -22.12489844
              87.42260657              -11.31843788               84.08964732                0.00010000               14.09166759               14.56407778              -47.29547584                4.59315741               50.79934249              -28.53635644
              88.59640879              -16.03723577               81.53871677                0.00010000               21.63844698               22.73585143              -73.52532283                2.06055269               21.96086373              -37.59194560
              89.85537551              -20.79426725               78.71642254                0.43778642               25.89667175               32.78715187             -103.59443545                1.94731107               10.87418856              -51.77245690
              84.17679939               27.67961790               95.23923274                0.71895108               -0.10147612               -0.57369795                1.16533350                0.39456454                7.30248296               13.45228616
              85.17578463               22.64427244               92.67794901                0.43735492               -6.25566885                0.40722308               -0.63635026                8.00131377              121.58201795              -12.52835046
              86.05168601               17.76164878               92.40312186                0.43778759              -11.02903678                0.95891183                4.36555485                7.39925374              223.58505417               -9.15202891
              86.95520389               12.98751996               91.81017324                0.43881015               -7.39813201               -0.48694386                3.92344218                7.44752577              198.17925037               -9.14215940
              87.90372337                8.30232955               90.92987310                0.43838790               -2.99821813               -0.22005667               -0.09855740                7.79943068              175.43229889               -9.11409496
              88.89523953                3.66832346               89.75330344                0.43826182                1.01531210                1.32588064               -6.87977710                7.56260255              151.83021195               -9.57603306
              89.92402961               -0.94145090               88.26230440                0.43788431                4.74518703                4.34587531              -16.81098953                7.07013300              125.23475621              -10.69358937
              90.99014327               -5.54753515               86.43311040                0.43739447                9.11852684                8.98809172              -31.31150374                6.39994946               94.69889391              -12.52953864
              92.10640015              -10.16458757               84.25011554                0.43719429               15.31344210               15.38503087              -52.11143133                5.62461550               61.82018431              -15.13787913
              93.29641211              -14.80263000               81.72421559                0.43673027               23.52664355               23.46057693              -79.64083895                5.06272500               30.15404509              -18.73329719
              94.57693302              -19.46333971               78.88565485                0.71881337               28.05209095               33.09275409             -110.00981559                6.08477989               16.98292192              -26.28322810
              34.58741339               18.12937399               99.35401570                0.71902937                0.09133560                0.06705265                1.15774234                0.17532260               -6.59356598                7.03673141
              35.58832674               13.08560544               98.34465291                0.43631248                2.50056058               -0.69189106                0.82645649                2.88355858               -7.07271761               -5.93476005
              36.63742460                8.11255053               97.32079711                0.43683540                3.92811420                0.21851072                0.89370304                0.04965903               -3.99783398               -0.23401722
              37.66688903                3.23238890               96.34517409                0.43834304                2.21142754                0.20213869                0.86651772                0.19782674               -0.72832472               -0.36308172
              38.68165315               -1.59771976               95.37507217                0.43881521                0.94394146                0.31596510                0.86013310                0.10268415               -0.22656228               -0.10109986
              39.68576785               -6.40638837               94.40635276                0.43893324                0.08502954                0.40508807                0.85167906                0.00679185               -0.45377995                0.01718364
              40.68335374              -11.21442651               93.43324006                0.43807209               -0.39528479                0.50058272                0.85088915               -0.10362319               -1.32375128                0.07752432
              41.67786216              -16.03515614               92.45140309                0.43715249               -0.56685073                0.59738120                0.85304402               -0.20310162               -2.66042118                0.09904701
              42.67201672              -20.87603939               91.45770200                0.43655835               -0.54031513                0.68781724                0.86579797               -0.27344088               -4.43357605                0.01195491
              43.66705586              -25.74026380               90.44756749                0.43677666               -0.46397775                0.76869216                0.98412493               -0.23238481               -5.38574885                0.28984148
              44.66273717              -30.62863871               89.44184379                0.71938983               -0.43186874                0.74352439                0.97956000                1.25307547               -5.46552802               -3.44506485
              39.63293517               19.13004452               98.95639014                0.43668372               -0.73611080                2.77547045                1.30020299                3.42786501                5.91037630               13.16397782
              40.62557406               14.07868653               97.94393413                0.00010000               -3.42028546               -3.79198599                0.92210378                7.74966455               13.37099546              -11.41563707
              41.56452946                9.11473564               97.08178341                0.00010000               -5.07858086                6.15152830               -0.05083844               21.15941432               17.51897226               -6.32282421
              42.52400244                4.23441029               96.18616048                0.00010000               -3.12304158                7.61611443               -0.86488907               28.90202705               14.87640905               -8.36943822
              43.50206863               -0.59456011               95.29064984                0.00010000               -1.49066485                7.40484306               -1.65324631               33.29862811               14.21382736              -14.27649222
              44.49418914               -5.40233749               94.39197092                0.00010000               -0.26836172                6.36385486               -2.46846362               35.22874452               13.56756636              -23.45951315
              45.49670139              -10.20942068               93.48863769                0.00010000                0.62242204                4.67003404               -3.35064305               34.99050965               12.90620382              -36.07969835
              46.50663758              -15.02918233               92.57874528                0.00010000                1.25673775                1.93144749               -4.31354551               32.90238570               12.08879919              -53.04763179
              47.52183615              -19.86916122               91.65960539                0.00010000                1.71970412               -2.88195736               -5.32384848               30.21171700               11.13522361              -75.49339585
              48.54103167              -24.73257688               90.73127195                0.00010000                2.09033414              -11.47115657               -6.37813978               30.21320315                8.87536140             -103.50794982
              49.56364283              -29.62120347               89.76894655                0.43667544                2.26111616              -35.50272401               -7.00350706               42.49938922                6.98125276             -135.72790604
              44.75868667               20.18488340               98.67594948                0.43677070               -0.00577557                4.36163793                1.43382682                0.37087788               -1.49989622               19.62835562
              45.75862891               15.00976572               97.43485819                0.00010000                7.31012279               -5.86679793                0.79670178               20.73527299               24.84516497              -17.08392137
              46.90488913               10.23558110               96.71731607                0.00010000                9.77982026                6.15708914                4.27327963               50.45289694               50.88594729              -10.99982617
              47.95422532                5.38471119               95.86539632                0.00010000                3.97421816               10.37759461                3.97311330               56.95874213               44.05507437              -16.11863376
              48.98437349                0.55037710               94.92239562                0.00010000                2.54889959               10.81668941                2.63200825               64.51829752               40.38675727              -28.49468882
              50.00520331               -4.27911128               93.90906294                0.00010000                1.28176403                9.68397653                1.55334697               68.44785998               37.30120018              -46.78825520
              51.01000877               -9.12102583               92.82313497                0.00010000               -0.47764494                7.24141118                0.71018229               68.30043827               31.75446831              -71.50703251
              51.99565041              -13.99652719               91.64642940                0.00010000               -1.51815764                2.75538551               -1.08752691               63.90889022               21.91154019             -104.46878659
              52.97964562              -18.93367854               90.35563890                0.00010000                1.38558770               -5.54596227               -5.96257040               56.25857387                8.02759115             -148.14149195
              54.02336217              -23.96968694               88.94419352                0.00010000               15.51662515              -21.95596801              -16.21517239               38.98249875               -4.50209589             -204.29172919
              55.28997812              -29.33869319               87.45738572                0.43597500               26.66159535              -52.57144220              -30.70769256               32.66194435               -3.88847541             -277.61632047
              49.99058809               21.21727728               98.37222840                0.43669863               -0.10062681                2.24318289                1.69424131                0.44508796               -0.17911617               20.06579975
              50.98958182               15.96135057               96.96043520                0.00010000               10.40269180               -3.74073168                0.34242427               27.03965856               37.38348206              -16.81362767
              52.19864193               11.23787742               96.29767551                0.00010000               17.93997310               -1.69336128                5.72233189               54.53644149               75.40189222              -15.17370313
              53.34838128                6.44196218               95.45072523                0.00010000               12.88075563                2.17208643                5.54607561               57.34523416               68.37074287              -21.27645757
              54.45625704                1.62177367               94.45454296                0.00010000                9.30839905                4.02843276                3.60521579               62.77772856               63.82183459              -33.14768717
              55.53454927               -3.20865796               93.33260956                0.00010000                6.19345167                4.63714278                1.87941307               66.88067390               59.10438789              -50.07899177
              56.58012607               -8.06459246               92.08020331                0.00010000                3.14594179                4.09728550                0.13787900               67.65279775               50.45764332              -72.69158214
              57.59746810              -12.97407462               90.67053544                0.00010000                2.00206472                1.84559988               -3.50155085               64.23107423               35.82466349             -102.52660679
              58.62016737              -17.98008046               89.07397524                0.00010000                6.41140958               -3.31653893              -12.18821848               54.42693372               16.72860926             -141.77497142
              59.72569629              -23.17169624               87.29300743                0.00010000               16.73634285              -13.03217069              -29.14863971               33.84490574                2.16826440             -193.77988512
              60.95489422              -28.67263231               85.42308895                0.43611810               22.91979307              -19.01881933              -53.58877133               16.64369230               -0.21682358             -262.98119552
              55.27944185               22.22974706               98.08284034                0.43605606               -0.06199048                0.45936102                1.93424045                0.34913447                0.12774387               21.10361105
              56.27882194               16.93495109               96.47921187                0.00010000               11.77822496               -1.74652063               -0.19132593               28.45365809               48.73359550              -17.40290677
              57.51500635               12.20171387               95.84559580                0.00010000               21.92059037               -4.24448228                5.68312643               56.14042017               97.33444095              -18.60597836
              58.71723375                7.42815292               94.98617854                0.00010000               18.77709270               -3.27750159                5.36100467               56.87152391               89.17238016              -24.71751332
              59.89054820                2.63094575               93.93844202                0.00010000               15.59745848               -1.37875316                3.01422928               59.93750621               83.94939391              -34.99123153
              61.02918292               -2.18636842               92.72159187                0.00010000               11.89665911                0.24040813                0.57147045               62.43400784               77.86375933              -49.55591842
              62.12848138               -7.03908012               91.32584929                0.00010000                8.32884928                1.25245376               -2.38683167               62.21536707               66.99505374              -69.20155156
              63.19575990              -11.95961519               89.71922521                0.00010000                6.86622659                1.33801178               -8.12011262               57.46255742               49.46790253              -95.40275129
              64.26580591              -17.00000932               87.86997884                0.00010000                9.85261108                0.34731315              -20.28334008               46.01868378               27.39795723             -130.45992514
              65.39281213              -22.23033035               85.78722426                0.00010000               17.94590925                0.19989852              -42.49530397               25.64678757                8.73951360             -177.41966222
              66.62472410              -27.71906958               83.56205444                0.43621661               23.19119729                5.26251466              -74.83333101               13.12735879                3.46300885             -240.08466904
              60.58716273               23.22646450               97.79569972                0.43698746               -0.04745576               -0.82749754                2.06044985                0.28780314                0.35902820               20.80816487
              61.58668817               17.92642016               96.00026939                0.00010000               12.05428842               -0.23622358               -0.63063555               26.63212105               59.10313035              -16.92721185
              62.82824850               13.15298778               95.37790348                0.00010000               23.49458553               -5.11224142                5.06275808               52.58404775              117.37040619              -20.56522560
              64.05657988                8.37641215               94.50705130                0.00010000               22.06400006               -6.21674477                4.60043647               53.69098391              108.16463753              -26.21087137
              65.26952850                3.59419861               93.41990557                0.00010000               19.83377032               -5.11788014                1.98789909               55.37938355              101.80794291              -34.44681870
              66.45325529               -1.20384980               92.12928528                0.00010000               16.40758443               -3.12582341               -1.06004985               56.08109666               94.13792794              -46.11450715
              67.59768019               -6.03954338               90.61909441                0.00010000               12.71965807               -0.91296066               -5.14881417               54.15079474               81.14795508              -62.27695164
              68.70764845              -10.94731438               88.85284944                0.00010000               10.67880044                1.43687840              -12.72378148               48.06961686               61.06301883              -84.38591467
              69.81125620              -15.97313420               86.79718694                0.00010000               12.50219262                4.64234296              -27.64583352               36.48561140               35.87168742             -114.42232296
              70.95769230              -21.16769827               84.46061209                0.00010000               19.18318282               10.46859046              -53.74420635               19.47291880               13.31805682             -154.75528738
              72.19491985              -26.56738202               81.93466567                0.43657166               23.72275502               21.33760736              -91.06544307                9.97245860                5.73321050             -206.92107349
              65.88528659               24.21319711               97.50567158                0.43684414               -0.03455079               -1.54552469                2.00099356                0.22226732                0.50656203               19.86887515
              66.88494109               18.93022661               95.52570008                0.00010000               11.57043586                0.70913452               -0.86597227               22.84073260               68.93837700              -16.09217401
              68.11669531               14.09946904               94.91286676                0.00010000               23.24507532               -5.54711528                4.42088241               45.51058235              136.52203900              -21.08203298
              69.34984259                9.30381802               94.04202283                0.00010000               23.08512528               -7.82115216                3.82414898               47.77848370              126.48336309              -25.93362070
              70.57839782                4.52858815               92.93583794                0.00010000               21.73521260               -7.30525267                1.04017488               49.05829621              118.73163570              -31.96095395
              71.78454684               -0.24888489               91.59824368                0.00010000               18.82820227               -5.20160779               -2.48550454               48.43893269              109.12010313              -40.57347834
              72.95496186               -5.05733933               90.00644517                0.00010000               15.30981088               -2.14243281               -7.49046376               45.16399966               93.77109067              -53.02714213
              74.09074306               -9.93087763               88.11976450                0.00010000               13.04700841                1.96281540              -16.47802858               38.50271713               70.93483512              -70.64347122
              75.21590203              -14.90716246               85.90256875                0.00010000               14.28876275                7.92254355              -33.34994572               28.08007151               42.55523352              -94.97476191
              76.37651832              -20.02095854               83.36293563                0.00010000               20.38193644               17.10247400              -61.90462548               14.54988013               16.49974685             -127.54268025
              77.62354076              -25.29231743               80.59587518                0.43630091               24.70224420               30.72374623             -101.88158130                7.70150558                7.22457160             -168.88969050
              71.15754907               25.19555401               97.21003952                0.43639071               -0.03181777               -1.70729180                1.76872558                0.20834423                0.54020639               18.64450292
              72.15723089               19.94060285               95.05528880                0.00010000               10.36598350                1.08708176               -0.88253379               18.02427726               78.82158580              -15.27120642
              73.36486874               15.04204547               94.46499890                0.00010000               21.28997807               -5.91956886                3.97503346               36.31080889              155.94258011              -20.51446304
              74.58303045               10.21998910               93.61519267                0.00010000               21.92642974               -8.49159275                3.24972172               39.95260190              145.18964476              -23.98857862
              75.80339733                5.44809356               92.51633253                0.00010000               21.24654846               -8.10234907                0.32082894               41.13048138              135.77488017              -27.65958393
              77.00796142                0.69211805               91.16212122                0.00010000               18.97777934               -5.91326773               -3.61125633               39.67727155              123.84993730              -33.22990881
              78.18295292               -4.08239204               89.52365150                0.00010000               15.97822504               -2.37060586               -9.36192865               35.71330534              105.85806953              -41.94407405
              79.32752592               -8.90805808               87.55685435                0.00010000               13.99928106                2.72245816              -19.40532853               29.30498954               80.13783380              -54.89078055
              80.46293854              -13.81468333               85.22411257                0.00010000               15.31594774               10.09352581              -37.57075960               20.66591212               48.61701762              -73.16593162
              81.63384488              -18.82564879               82.53297360                0.00010000               21.43646010               20.71820666              -67.50138576               10.53034922               19.32851178              -97.79573745
              82.89166774              -23.95290709               79.58114676                0.43633348               25.78228661               35.26620153             -108.59576406                5.82975895                8.54396185             -129.21642231
              76.39935579               26.17905127               96.90697441                0.43643298               -0.04206282               -1.37718861                1.34836799                0.21131749                0.57672796               17.65832884
              77.39893517               20.95196825               94.58768694                0.00010000                8.20847192                0.95231319               -0.64964488               13.00116674               89.56261307              -15.01505607
              78.56352523               15.98107767               94.04734189                0.00010000               17.19556884               -5.91779983                3.79863075               26.10362333              176.97036485              -18.58936813
              79.74284654               11.13398617               93.25010324                0.00010000               18.26766350               -7.93866398                2.92069714               30.44873797              165.16394597              -19.96322986
              80.92887850                6.36654117               92.18869630                0.00010000               18.28656637               -7.46239681               -0.18193888               31.24983998              153.45019467              -21.34095741
              82.10857787                1.63284976               90.84880661                0.00010000               17.02627938               -5.31548308               -4.53577174               29.30719031              138.76704425              -24.08563341
              83.26940409               -3.10475145               89.19857794                0.00010000               15.02781378               -1.67622899              -10.96091036               25.40808940              117.98931888              -29.25902790
              84.40913415               -7.87642846               87.19218867                0.00010000               13.87034494                3.74922684              -21.85450916               20.02964076               89.45276928              -37.58677489
              85.54681099              -12.70529194               84.79045411                0.00010000               15.81074583               11.55965724              -40.91564064               13.62760741               54.96817361              -49.71790355
              86.72534906              -17.60659441               81.99893327                0.00010000               22.39207739               22.42450718              -71.53989344                6.83407628               22.52353716              -66.41510823
              87.99465254              -22.58699340               78.91410620                0.43664717               26.93034740               36.79920499             -112.80934128                4.12631436               10.12257464              -88.65290940
              81.61594147               27.16801023               96.60078969                0.43646196               -0.07136347               -0.78650568                0.81704926                0.16623461               -0.21256001               14.98656116
              82.61522783               21.95964911               94.11497108                0.00010000                4.44909101                0.49401338               -0.17387597                8.74091975              102.57882506              -13.46129207
              83.70492329               16.92368947               93.68468816                0.00010000                9.56569389               -3.94101958                3.79509941               14.37172748              201.71647007              -12.55014245
              84.80654171               12.06121582               92.97907145                0.00010000               11.23036270               -5.61032797                2.75513979               17.79803894              186.63152608              -12.56820560
              85.92953054                7.29884562               91.98149657                0.00010000               12.94280653               -5.40331856               -0.67756517               17.85180046              171.23500380              -12.29154378
              87.06539784                2.58580838               90.68307346                0.00010000               13.54311934               -3.66917496               -5.56797850               16.19537926              153.52295416              -12.97485084
              88.20039293               -2.11591662               89.05315359                0.00010000               13.16306959               -0.29898486              -12.70430301               13.50835345              130.17201821              -15.15598630
              89.32865923               -6.83307354               87.04651732                0.00010000               13.26318522                5.04920461              -24.39669796               10.19086455               99.25699546              -19.14837190
              90.46565663              -11.58349019               84.62305157                0.00010000               16.17843130               12.84242998              -44.25318791                6.57703962               62.22945563              -25.19275749
              91.65222786              -16.37715865               81.78421374                0.00010000               23.46676901               23.42959513              -75.36695088                3.15532314               26.57507778              -33.65090627
              92.93499201              -21.21692299               78.61634506                0.43674786               28.27641541               37.06282253             -116.09751243                2.50969096               12.22323118              -46.14368489
              86.81940273               28.16332116               96.24830564                0.71821590               -0.13284098               -0.46890732                0.59067038                0.19886191                6.96506517               12.75661494
              87.81807432               22.96184852               93.67584749                0.43663108               -3.50048305                0.21994052                0.20874546                7.23145448              124.29918564              -11.93819080
              88.74939307               17.90225727               93.45035051                0.43715202               -4.72115734               -2.14321991                4.26352984                7.44353267              231.19787536              -10.01389149
              89.72365117               13.02177961               92.84994796                0.43826307                0.59644414               -3.94362172                2.71388916                9.52182236              206.58598034               -9.61743308
              90.76132195                8.25847480               91.92884149                0.43903767                6.17982602               -4.03708258               -1.48114742               10.06347359              186.85317359               -9.12741886
              91.84724769                3.55946626               90.68797971                0.43872716                9.85655649               -2.63421256               -7.24301003                9.72468831              166.62162074               -9.27212320
              92.95845308               -1.11073114               89.10377055                0.43813238               11.66386558                0.51854734              -15.25342522                9.06048387              141.74916482              -10.21148741
              94.08052501               -5.77544437               87.13341108                0.43710537               13.19919044                5.76291681              -27.82536027                8.30096730              109.51424535              -11.95333833
              95.22243689              -10.44844334               84.73571884                0.43622402               17.06816630               13.50468433              -48.64868581                7.55011910               70.81028105              -14.40151261
              96.42188833              -15.13800250               81.90855201                0.43610569               25.09690757               23.91561443              -80.93978227                7.10136696               32.31214853              -17.40562728
              97.72437504              -19.84573695               78.72141410                0.71809387               30.24867105               37.11860439             -121.94789670                8.16485852               15.89652134              -22.52757007
              35.53365047               18.59565106              100.36270852                0.71761092                0.34576797                0.35434900                0.53971743                0.34840053               -6.29431627                6.71771920
              36.53710815               13.42740360               99.35115201                0.43543337                3.33901009               -0.77771531                0.49151319                3.92004014               -6.56131067               -5.70911081
              37.60043067                8.35367617               98.32915277                0.43688387                4.90270224                0.42770394                0.74184507                0.24365969               -3.44433329               -0.25018290
              38.63516219                3.39694688               97.35358235                0.43782686                2.53204657                0.29893803                0.73149214                0.46452546               -0.45774887               -0.29387588
              39.65107160               -1.50102373               96.38374190                0.43873326                0.96290564                0.34000719                0.77013457                0.29284430               -0.00976763               -0.05928741
              40.65442031               -6.37450290               95.41538825                0.43840100               -0.04592336                0.35733041                0.84631617                0.15302314               -0.18178777                0.05031343
              41.65015314              -11.24722072               94.44290601                0.43829656               -0.62339121                0.38539625                0.95375468                0.01847125               -0.93346549                0.12136497
              42.64195248              -16.13477338               93.46188266                0.43709889               -0.86564622                0.42978097                1.08494439               -0.11048232               -2.13097280                0.13944950
              43.63284021              -21.04592463               92.46920371                0.43591885               -0.86365134                0.47648730                1.25205308               -0.22864447               -3.71860846                0.06688562
              44.62467946              -25.98380225               91.46124402                0.43552178               -0.75095178                0.51348953                1.55385742               -0.21497014               -4.57257400                0.24859493
              45.61782118              -30.94711289               90.45643741                0.71801280               -0.68582803                0.39338103                1.71680621                1.24040794               -4.59329990               -2.91227087
              40.70538193               19.59919455               99.96776204                0.43480515               -0.80859374                3.90556847                0.99252846                4.72436685                5.61750924               12.84936149
              41.69729600               14.41962645               98.95258623                0.00010000               -4.36431521               -4.94735222                0.86980230               10.52820871               12.67026140              -11.39597172
              42.61809563                9.35795321               98.08062000                0.00010000               -6.50692974                8.72693228               -0.10503914               29.67885132               16.31933207               -3.47434295
              43.56715740                4.39993626               97.17773004                0.00010000               -3.91853463               10.50548579               -0.67891035               41.52250273               13.74942608               -5.15592974
              44.53972494               -0.49762366               96.27560430                0.00010000               -1.90541848               10.26410337               -1.23265847               49.37715746               13.00215328              -11.24683327
              45.52904903               -5.37092960               95.36971593                0.00010000               -0.46259238                9.19979939               -1.88737498               54.25662678               12.24056620              -20.13240931
              46.53047309              -10.24336676               94.45840313                0.00010000                0.55752916                7.45351496               -2.61109715               55.87584383               11.47769346              -31.94854096
              47.54019961              -15.13047557               93.53941634                0.00010000                1.22975562                4.44735999               -3.43139881               54.17373975               10.60388874              -48.34699640
              48.55506820              -20.04115976               92.61064545                0.00010000                1.64621344               -1.45617149               -4.32591212               50.10307470                9.61799574              -71.83267750
              49.57312388              -24.97866735               91.67202292                0.00010000                1.92338448              -13.16016339               -5.32374279               48.08544199                7.54036319             -104.34440017
              50.59353589              -29.94317908               90.70387402                0.43526319                2.04120075              -49.09006670               -5.88684215               62.48199778                5.82005973             -144.14156844
              45.98727401               20.67376243               99.68894223                0.43507405                0.16396547                5.82209528                1.12785509                0.57581696               -1.65418762               19.83241344
              46.98891366               15.32845656               98.44264136                0.00010000               11.32119382               -7.57725851                0.81661553               28.23970240               26.81857954              -17.91697559
              48.21369789               10.52821482               97.76247513                0.00010000               16.61377283                8.73691170                4.56956507               69.73766119               56.70384820               -5.66294743
              49.32118912                5.60705660               96.90254835                0.00010000                9.78913619               14.39959574                2.09684091               80.69908283               50.64295513              -10.03912252
              50.40948061                0.70425834               95.94312843                0.00010000                8.20534085               15.34206181               -0.33243341               94.66209959               51.35070653              -22.20771485
              51.48529594               -4.19050691               94.92138535                0.00010000                5.88676893               14.52781505               -0.54521832              104.11787055               52.19229115              -39.54652071
              52.52721599               -9.09815042               93.83480921                0.00010000                1.89621697               12.26956748                0.31505146              107.51309394               49.34268832              -62.51671856
              53.52322028              -14.04582618               92.65061809                0.00010000               -2.20612498                7.47882362                1.15316550              103.76437276               39.69615996              -94.14029968
              54.48309349              -19.07504806               91.31830361                0.00010000               -1.74063306               -2.60948559               -0.71845658               92.81418839               21.21667553             -139.35740018
              55.48840762              -24.24700552               89.79586280                0.00010000               15.66955419              -24.82886507              -11.29172912               63.80565307               -0.78469578             -203.84214135
              56.79648457              -29.92891422               88.13351452                0.43517612               30.80769566              -69.62010088              -34.42281667               49.46594155               -4.90372221             -300.09864686
              51.40751002               21.71563646               99.38814380                0.43544948                0.01276412                2.81388741                1.40189068                0.65815766               -0.15009447               20.49723125
              52.40763766               16.26808128               97.96344181                0.00010000               16.33693989               -4.50576835                0.31561344               36.20907082               40.78119262              -18.00715194
              53.73424881               11.53269145               97.35499829                0.00010000               29.87289413               -2.16722667                4.76658901               73.76087367               84.62781615              -12.57797542
              55.00509554                6.68792818               96.49733055                0.00010000               24.81408117                3.29112116                1.18621141               79.12662324               80.36251040              -16.88632204
              56.23053044                1.80921758               95.47633554                0.00010000               20.43598280                6.21792964               -2.08062203               89.04812810               82.55155067              -27.62482000
              57.41381520               -3.08037329               94.34029651                0.00010000               15.27618999                7.55060273               -2.70536122               97.39640830               83.88081923              -43.17270446
              58.53605424               -7.99797541               93.08079430                0.00010000                8.92847561                7.49174483               -2.21527348              101.16309518               79.24578202              -64.22930425
              59.59238471              -12.98089910               91.64803537                0.00010000                3.82385341                5.23904941               -2.57462057               98.52330708               65.05511898              -92.99975090
              60.61253131              -18.09334947               89.97182627                0.00010000                5.53591990               -0.99519642               -8.08718544               85.39845533               40.18907900             -133.34263155
              61.70310311              -23.47524466               88.00558820                0.00010000               16.70704102              -13.72730402              -27.00050194               54.06946090               14.04841952             -192.47800163
              62.94667213              -29.33558109               85.84075449                0.43527585               24.35690193              -20.26100562              -64.70116974               27.01468958                4.53024151             -280.62829774
              56.89554752               22.73004018               99.10133201                0.43542645                0.04925756                0.38448052                1.70702413                0.46849885                0.23930434               21.41536429
              57.89604009               17.23834119               97.47676471                0.00010000               18.67604725               -1.79705104               -0.28562499               37.39967687               52.68787410              -18.46254323
              59.26906846               12.48487028               96.89879442                0.00010000               36.55776813               -5.51880771                3.38868880               74.34364964              108.10966588              -17.17860846
              60.62719546                7.67287902               96.02519395                0.00010000               34.48380903               -4.09962463               -0.45795059               76.30876924              103.49936993              -20.94882882
              61.95874464                2.82861693               94.94864513                0.00010000               30.66108151               -1.37139804               -3.95072107               81.90702154              105.92871528              -29.13629826
              63.24041709               -2.03949486               93.71117055                0.00010000               24.61295269                0.96398553               -5.09114950               87.09004611              106.61131384              -41.76250598
              64.45100370               -6.94831552               92.29691520                0.00010000               17.43216970                2.48815833               -5.61097153               88.80951043              100.27454558              -59.56013884
              65.58906048              -11.94104519               90.64628855                0.00010000               11.72022279                2.79308188               -7.97626357               84.00956318               83.34720510              -84.34072087
              66.68540815              -17.09495199               88.68038385                0.00010000               11.14839903                1.73669308              -17.37551274               68.79726232               55.30852155             -119.67518606
              67.81202846              -22.52155160               86.35394315                0.00010000               18.60215428                2.35579378              -42.83643407               39.18032623               23.72760259             -171.33233661
              69.05745124              -28.33413433               83.74364657                0.43550450               24.54227780               12.21156742              -90.58669511               20.31291121               10.13554557             -246.07803719
              62.40027797               23.72332607               98.81549634                0.43529406                0.05231226               -1.31754403                1.87295512                0.36699099                0.48889338               20.80321701
              63.40080109               18.23214026               96.99356957                0.00010000               19.31530054                0.14323267               -0.71539327               34.43499882               63.11157433              -17.62486624
              64.78658398               13.42231529               96.42193711                0.00010000               39.33615956               -6.60268777                2.10868221               68.35991293              128.25010723              -19.57468940
              66.18752428                8.60593568               95.53543937                0.00010000               39.72303839               -8.23652338               -1.73477369               70.32942002              122.81383475              -22.71737532
              67.58104475                3.78178961               94.41768968                0.00010000               37.25121437               -6.96924985               -5.18149966               73.39446669              124.13153116              -28.52945185
              68.93254857               -1.06109358               93.10123509                0.00010000               31.63750179               -4.59873112               -6.71642139               75.52407858              123.33700165              -37.97479994
              70.21379478               -5.94821224               91.56165783                0.00010000               24.33319335               -2.01983276               -8.18692799               74.43062702              115.02877679              -52.08402558
              71.41921244              -10.92503746               89.73278491                0.00010000               17.75940877                0.71629178              -12.28781068               67.51711979               95.63942396              -72.45851494
              72.56898296              -16.05861561               87.53150621                0.00010000               15.33397705                4.81285553              -24.51208996               52.21265850               64.29650874             -101.86030319
              73.72589198              -21.42812878               84.90935785                0.00010000               20.45564302               13.20946941              -54.13808286               28.26231205               28.32211375             -144.26515910
              74.97809582              -27.09134974               81.94490146                0.43570903               25.22038409               30.03749378             -107.12546353               14.56983073               12.33095481             -202.25460066
              67.88525895               24.70368930               98.52489766                0.43534544                0.04918919               -2.19531761                1.85677354                0.30218861                0.64317345               19.44751722
              68.88575085               19.24120585               96.51693914                0.00010000               18.86061708                1.25384242               -0.92151674               28.99827159               72.74724107              -16.33108005
              70.26247130               14.35281653               95.94920052                0.00010000               39.42793431               -7.29152626                1.14766064               58.09489608              146.94856056              -20.02447928
              71.67430953                9.50814855               95.06192810                0.00010000               41.55959746              -10.73765688               -2.55844407               61.37478140              140.70561272              -22.60051891
              73.09366324                4.68923193               93.92457152                0.00010000               40.32954896              -10.61016899               -5.89593530               63.56748132              140.38726764              -26.31142965
              74.48090051               -0.13146948               92.55718201                0.00010000               35.49484349               -8.49827109               -7.75892406               63.58081965              137.52148053              -32.79092459
              75.80356011               -4.98871218               90.92726986                0.00010000               28.44528649               -5.25092198              -10.01264285               60.34367960              126.88372343              -43.26931085
              77.04980624               -9.92671936               88.96401542                0.00010000               21.45962637               -0.66693700              -15.38784616               52.44003402              104.81632183              -59.08708706
              78.23275264              -14.99869488               86.58157702                0.00010000               18.01012995                6.59496792              -29.40902810               38.85052009               70.27489115              -82.20006616
              79.41000884              -20.25736221               83.73144875                0.00010000               22.12685694               18.78018371              -61.27490559               20.32695702               30.81206400             -114.95583978
              80.67528978              -25.73338446               80.49958488                0.43596264               26.52809403               37.85937759             -116.47743721               10.76062987               13.36348562             -158.31282436
              73.33128865               25.67941972               98.22663938                0.43575280                0.03506459               -2.30758001                1.59260565                0.24733579                0.65716723               17.77368645
              74.33163929               20.25721711               96.04700007                0.00010000               17.51252730                1.59466650               -0.84309973               22.30003418               82.20747289              -15.00782722
              75.68153919               15.27648477               95.49682620                0.00010000               37.34826077               -8.11498699                0.71196168               45.37377878              165.51845529              -19.26053316
              77.07860451               10.39118255               94.63026913                0.00010000               40.52366066              -12.21998168               -2.80731477               50.43275942              158.55385752              -20.86935760
              78.49201241                5.56958624               93.49981043                0.00010000               40.17522815              -12.47263487               -6.07158560               52.45489910              156.25816271              -22.60057179
              79.88210907                0.76894099               92.11231466                0.00010000               36.19529233              -10.46557771               -8.28047587               51.18064355              150.89172685              -26.39579779
              81.21591825               -4.05323068               90.42855006                0.00010000               29.79433719               -6.85408173              -11.21233542               46.78947406              137.60161033              -33.47169822
              82.47799581               -8.93837620               88.37489676                0.00010000               23.03589800               -1.28143809              -17.52663015               39.09001128              112.75796532              -44.85094579
              83.67663621              -13.92671625               85.86432676                0.00010000               19.45624419                7.47643380              -32.65959576               28.02173127               75.23297401              -61.76745616
              84.86712070              -19.05252511               82.84950074                0.00010000               23.43583479               21.02364422              -65.62605479               14.43677779               32.85370613              -85.61044730
              86.14535291              -24.33416219               79.42305951                0.43558472               27.82322099               40.30226147             -121.52001407                7.87327540               14.20657515             -116.94568335
              78.73461089               26.65753770               97.91880648                0.43537971                0.00755934               -1.78324274                1.07950214                0.23643021                0.66315047               16.36242998
              79.73468648               21.27309918               95.58266160                0.00010000               15.06852731                1.27983551               -0.45611843               15.29023766               92.33078649              -14.22860353
              81.03598143               16.19051679               95.07865357                0.00010000               32.75883862               -8.92182881                0.85302633               31.43284071              185.38309744              -17.29895106
              82.38986325               11.26374892               94.26412296                0.00010000               36.45106736              -12.50009929               -2.48447706               37.87745359              177.36223714              -17.32708102
              83.76500278                6.43977923               93.17014622                0.00010000               36.87335225              -12.55160876               -5.79543037               39.51432641              172.46771670              -17.28524872
              85.12733030                1.65921897               91.79299301                0.00010000               34.08320061              -10.62732353               -8.46690957               37.44216145              164.13348947              -18.73628956
              86.44666679               -3.12579381               90.09080090                0.00010000               28.88808690               -6.99956552              -12.07525823               32.89550735              148.04944112              -22.76912891
              87.70509203               -7.95234812               87.98929484                0.00010000               23.03346905               -1.16148553              -19.16783090               26.42245830              120.52437973              -29.98055215
              88.90733617              -12.84916620               85.40118859                0.00010000               20.05491537                7.95792435              -35.06410309               18.41609229               80.30856804              -40.99025398
              90.10619034              -17.83688933               82.27961134                0.00010000               24.43466443               21.63262396              -68.55112590                9.46615678               35.23530876              -56.57820685
              91.39602946              -22.92733923               78.71933496                0.43572977               28.98391192               40.48566748             -124.36294018                5.46623928               15.27669194              -77.50214240
              84.10489430               27.64375486               97.60621465                0.43502583               -0.04293414               -0.89097054                0.30878873                0.22620107               -0.12079756               13.62729357
              85.10446495               22.28281382               95.11623300                0.00010000               10.73259830                0.53283183                0.32337931                8.96651606              104.49334738              -12.41299450
              86.31954626               17.09804819               94.71766965                0.00010000               24.12130900               -8.02352666                1.38204039               16.19641801              208.67727716              -11.64615641
              87.58689113               12.14118056               93.99392624                0.00010000               28.36413124              -10.51653183               -1.85763380               21.95375701              197.59844589              -11.04460503
              88.88682889                7.31855406               92.96084976                0.00010000               30.48171052              -10.73439429               -5.46133793               22.64831362              188.60850606               -9.88825218
              90.19652535                2.55639452               91.61989791                0.00010000               29.92832989               -9.30752434               -8.77546533               20.68182658              177.08042852               -9.84406570
              91.48539548               -2.19322199               89.93099638                0.00010000               26.66460111               -6.05603855              -13.10290756               17.44571583              158.44781859              -11.44883017
              92.72981737               -6.96160591               87.82169279                0.00010000               22.20518899               -0.40206581              -20.89752424               13.45260391              128.65616623              -14.88798390
              93.92949926              -11.76755776               85.20458356                0.00010000               20.23997467                8.56069126              -37.41666380                9.09309769               86.10708684              -20.32276215
              95.13461686              -16.61987263               82.03137775                0.00010000               25.30391159               21.87351218              -71.26865352                4.69392001               38.53925411              -27.99139702
              96.43557750              -21.52444884               78.39447230                0.43574784               30.09606352               40.16550147             -126.62721750                3.19786841               17.05682660              -38.72733774
              89.46101699               28.63971829               97.25104615                0.71744900               -0.12935217               -0.40365732               -0.03926170                0.01602214                6.32796354               11.51931976
              90.45972347               23.28375581               94.68212392                0.43527033                2.02630279                0.09419942                0.95204133                5.04225006              125.11390634              -10.86180694
              91.50154305               18.03004626               94.48839245                0.43687524                7.43545253               -6.80019342                2.01911626                6.68280223              237.19996293              -10.63771423
              92.60843252               13.05341828               93.86445102                0.43794519               15.06060200               -8.77622779               -1.68494981               11.90639331              215.92979704               -9.55725099
              93.80275509                8.22509135               92.90025016                0.43869225               22.21551777               -9.34627121               -6.03181713               12.57513003              202.27018100               -8.62076508
              95.05274288                3.47306848               91.60844324                0.43855155               25.54132275               -8.33260443              -10.19445565               12.02145668              188.29661290               -8.46573831
              96.31358154               -1.24691458               89.95723589                0.43793192               24.78685028               -5.36925937              -15.22721556               11.14571018              168.34042629               -9.34934813
              97.54847988               -5.96038944               87.87660320                0.43676565               21.69416488                0.12164766              -23.58512488               10.31436201              137.27041526              -11.11010276
              98.74746484              -10.67795237               85.27714182                0.43579547               20.42399712                8.96053856              -40.66685915                9.84507538               92.76793299              -13.52568623
              99.95695983              -15.39941908               82.10541994                0.43538517               26.08372098               22.04535451              -75.15172333                9.93045529               42.19927266              -16.24331768
             101.26913926              -20.12402920               78.44669692                0.71763155               31.21794358               40.04196456             -130.53816214               10.89516497               18.37172398              -18.33233790
              36.48464009               19.05362134              101.36481005                0.71776377                0.60161880                0.71767014               -0.09964273                0.59303249               -5.62032315                6.00244122
              37.49065627               13.76855478              100.35448317                0.43489058                4.07337520               -0.92770369                0.24396206                5.09605850               -5.89755354               -5.13894072
              38.56610759                8.60461241               99.33563401                0.43537844                5.62443210                0.73140081                0.37357518                0.44953009               -3.55591645               -0.04907908
              39.60314492                3.57821599               98.35980393                0.43695850                2.67721526                0.41097039                0.34473304                0.72403921               -0.93941746               -0.24250131
              40.61965190               -1.38263030               97.39047486                0.43839765                0.99115403                0.37470027                0.46844256                0.43471750               -0.40965645               -0.04449215
              41.62296800               -6.31403747               96.42327908                0.43797918               -0.07309388                0.30546970                0.62898272                0.30520571               -0.41774925                0.06498626
              42.61819002              -11.24299346               95.45231515                0.43723672               -0.70115018                0.26987591                0.80602141                0.16663024               -0.97161993                0.15873937
              43.60894499              -16.18743453               94.47310198                0.43633915               -0.99534130                0.25768315                0.99528586                0.02322114               -1.91121218                0.19434052
              44.59828319              -21.15758514               93.48274306                0.43562738               -1.02871547                0.26704784                1.22118971               -0.14013068               -3.14493869                0.13263455
              45.58837068              -26.15684972               92.47864464                0.43446595               -0.88993989                0.27660529                1.62009081               -0.18464383               -3.75130987                0.21848167
              46.58048439              -31.18175736               91.47617991                0.71726035               -0.78862898                0.06454101                1.88297394                1.09497853               -3.60029904               -2.28070557
              41.77563697               20.06079804              100.97624071                0.43481636               -0.95156499                5.37642871                0.60745817                6.52619869                4.96368768               12.00437898
              42.76612132               14.75927774               99.96133017                0.00010000               -5.49323436               -6.39920739                0.99109390               14.09698549               11.52696135              -11.22071709
              43.66577229                9.61192642               99.07968263                0.00010000               -8.10573277               12.16657239                0.23833759               41.79997343               15.05219007               -0.45195576
              44.60400667                4.58232569               98.17258228                0.00010000               -4.78232411               14.30561202               -0.07011498               59.62382449               12.48077077               -4.01561800
              45.57012580               -0.37888330               97.26599667                0.00010000               -2.39025165               14.40609296               -0.57985235               73.97951261               11.48330810              -11.29777819
              46.55620163               -5.31098278               96.35422342                0.00010000               -0.67854778               13.67076027               -1.16045302               83.64944745               10.59362277              -19.34594242
              47.55655485              -10.24029470               95.43641575                0.00010000                0.51357060               12.46210517               -1.77903918               88.77824246                9.85337851              -29.52385225
              48.56647305              -15.18485770               94.51011731                0.00010000                1.25173166                9.97411560               -2.41191980               89.12571273                9.02878416              -43.86741592
              49.58158948              -20.15491467               93.57308714                0.00010000                1.60686544                3.77888900               -3.09215942               84.56126319                8.04751193              -66.18167050
              50.59861035              -25.15408366               92.62479709                0.00010000                1.73761719              -11.16226596               -3.92134507               78.89446842                6.13393106             -102.62749285
              51.61634182              -30.18111195               91.65120971                0.43485648                1.77314696              -64.78946149               -4.43146670               94.10296264                4.51691338             -155.49080911
              47.21820466               21.16114991              100.69850658                0.43502069                0.32629447                7.70170452                0.29939638                1.00973244               -1.85638605               20.05469850
              48.22146760               15.64057063               99.45119050                0.00010000               18.04272236               -9.60967803                1.31134884               37.95119045               28.51855491              -19.26823898
              49.57905911               10.84794386               98.80870737                0.00010000               28.24817626               11.90361020                2.72339276               95.76474121               63.35448566               -1.01537914
              50.78643113                5.86432823               97.90733314                0.00010000               20.67457569               19.96322224               -6.43657793              114.39176352               66.49413019               -6.97613382
              51.99255062                0.90549155               96.91574695                0.00010000               18.54686105               22.13219391               -7.80363228              139.46228956               74.49770973              -20.04057896
              53.15736835               -4.04062227               95.89815857                0.00010000               13.75395835               22.45427620               -6.91283117              157.61311748               80.56205108              -35.23878682
              54.26762979               -8.99375136               94.82943600                0.00010000                7.43554307               21.45050881               -4.67025043              167.67090278               81.67489054              -54.51856688
              55.30607921              -13.98795222               93.66949271                0.00010000               -0.44476808               17.75588037               -1.30980549              167.64047286               75.59325320              -81.50234296
              56.25873442              -19.08200736               92.34126977                0.00010000               -5.68109360                7.29506652                2.08217175              154.63319106               55.84452771             -123.28907109
              57.19245734              -24.38009504               90.71835894                0.00010000               12.89328986              -21.26264799               -2.04082751              107.17934418               19.59823262             -192.84848926
              58.51660022              -30.47754659               88.76892939                0.43483655               32.41428833              -85.71091770              -37.62105946               78.19607701                0.32757943             -326.85390479
              52.83699019               22.21483213              100.40026621                0.43470223                0.13609967                3.47759505                0.79722383                0.98309818               -0.04391379               21.30669854
              53.83835118               16.56708418               98.96674747                0.00010000               26.01596608               -5.24990832                0.46853718               47.44079503               43.06972861              -19.84190702
              55.35730951               11.84999862               98.39300729                0.00010000               49.79715297               -2.83704854               -1.98922853               98.21086430               96.78425421              -10.35446567
              56.83429424                6.98159014               97.47444946                0.00010000               45.35062928                5.33696475              -11.87483144              108.23506357              105.24966470              -12.96631078
              58.26432209                2.06376058               96.41293052                0.00010000               38.67063281               10.06870505              -13.79601709              124.35539459              117.81281235              -21.86365739
              59.60770690               -2.86189725               95.27850233                0.00010000               29.64903781               12.90325746              -12.87858274              139.03628341              126.19249311              -34.78849304
              60.85730285               -7.81128453               94.03589784                0.00010000               19.99158048               14.13024655              -10.63383674              148.16908375              126.93243225              -52.24367293
              62.00753851              -12.82974009               92.61904303                0.00010000               10.45466365               12.83865358               -8.08166950              148.77136673              117.10327213              -76.75075424
              63.06639612              -18.00901334               90.91223154                0.00010000                6.50989787                6.44071952               -7.98351083              132.79953923               90.49687494             -113.30198237
              64.13773647              -23.57933662               88.75299739                0.00010000               15.43851759               -9.03258486              -22.77471287               86.26635785               48.24299391             -175.01847252
              65.37516647              -29.89533031               86.12906555                0.43473410               23.74300090              -13.36153516              -79.51114354               44.97202939               20.74069797             -287.24461345
              58.53336252               23.23070181              100.11698082                0.43477645                0.17544871                0.20655308                1.35754945                0.67726239                0.37790368               22.09295644
              59.53511701               17.53557246               98.47349937                0.00010000               29.77039554               -1.66678859               -0.34029399               48.23143909               54.68369696              -20.06079914
              61.12877043               12.79120289               97.91336957                0.00010000               60.11267191               -6.94553677               -4.79245119               96.47832002              119.40859734              -16.16583313
              62.73737045                7.97106752               96.97701953                0.00010000               59.71877353               -4.81298278              -14.37561337               99.92362680              127.73671444              -16.48874071
              64.32314590                3.10686566               95.85942760                0.00010000               53.78843377               -0.80386960              -16.00114406              108.42083303              140.70882213              -21.60294177
              65.81313912               -1.78255712               94.61976888                0.00010000               43.78541968                2.62699998              -15.18169993              117.51540912              148.83999738              -31.10777112
              67.19885430               -6.71114643               93.21362986                0.00010000               33.30481154                4.98529884              -13.46683575              123.03905176              148.32406010              -45.17568982
              68.47923535              -11.73117914               91.55969993                0.00010000               23.27337243                5.77642637              -12.39054110              120.05017522              136.01399913              -65.52272887
              69.66432174              -16.95319297               89.52246859                0.00010000               16.24330564                4.87399497              -15.91943666              101.23248579              106.21401537              -96.45432801
              70.80410147              -22.56074673               86.93049558                0.00010000               19.18532137                7.44147853              -37.90789145               59.07092678               57.68149164             -147.36626901
              72.04802817              -28.74477729               83.75032054                0.43504757               24.39267068               26.34589812             -105.59644551               31.36120648               26.44817865             -232.27984853
              64.24079413               24.21896319               99.83315882                0.43459779                0.16847539               -1.98487015                1.68157068                0.51375057                0.65435898               21.07515080
              65.24247889               18.53374841               97.98596153                0.00010000               30.52933557                0.73010244               -0.85030468               43.62953656               64.84650395              -18.74642264
              66.85138085               13.71108789               97.42007713                0.00010000               63.73125618               -8.35562590               -6.80132854               86.67446006              138.60418502              -18.28741477
              68.51710401                8.88533048               96.47235582                0.00010000               66.74912768              -10.70448242              -15.69257006               89.39043527              145.42712759              -18.00385191
              70.18636340                4.04768318               95.31627558                0.00010000               62.94615771               -9.33134253              -17.04594015               93.65278147              156.82258016              -20.58849349
              71.77602717               -0.80935725               93.99495686                0.00010000               54.01712551               -6.66129141              -16.36704060               97.99386270              163.42839503              -26.95512492
              73.26670591               -5.71157855               92.45535585                0.00010000               43.72806961               -3.92356718              -15.26786527               99.10471536              161.23657427              -37.50820134
              74.65058856              -10.71421156               90.60709322                0.00010000               32.69537596               -1.17760380              -15.48447562               92.67860475              146.83175296              -53.62685846
              75.92061343              -15.91153344               88.30694514                0.00010000               23.00753820                3.46043200              -21.34954089               73.66746476              113.90145785              -78.40034452
              77.11073932              -21.43050705               85.37785043                0.00010000               22.49191489               15.02642560              -46.79527916               40.68856846               60.84980937             -117.75394281
              78.37045173              -27.36841234               81.79215640                0.43522528               25.97124042               40.40226683             -118.11359405               21.53497265               27.67761393             -178.39860469
              69.91406710               25.19100441               99.54280705                0.43492587                0.15159425               -3.09221409                1.77777747                0.37585527                0.77121618               19.19452327
              70.91558304               19.55017451               97.50726975                0.00010000               29.83052296                2.04877186               -1.09266409               36.09003049               74.08650237              -16.88523247
              72.51067756               14.62409037               96.93581998                0.00010000               63.65004072               -9.18530658               -7.82623077               72.36956513              156.10919152              -18.37578863
              74.18858386                9.75697788               95.99085395                0.00010000               69.01058553              -14.24616947              -16.01988676               76.50838976              161.41812639              -17.87402839
              75.89088927                4.92023880               94.81791923                0.00010000               67.18471281              -14.85878844              -17.23638274               79.36954189              170.60568554              -18.77460105
              77.53227811                0.08421705               93.44306519                0.00010000               59.74568212              -13.11258306              -16.81694282               80.55862910              175.04689810              -22.66021743
              79.08580291               -4.78961777               91.80619231                0.00010000               50.02421103              -10.18892438              -16.30643981               78.33744232              170.81843776              -30.15889713
              80.53276233               -9.75473122               89.81200758                0.00010000               38.40818108               -5.80724202              -17.45534488               70.09767052              154.15794314              -42.34409370
              81.85396653              -14.88398433               87.31438819                0.00010000               27.09947047                2.09447088              -24.60823271               53.34468071              118.41359480              -61.25073061
              83.07475174              -20.26021822               84.13743752                0.00010000               25.02858361               17.22433608              -51.46439681               28.43496541               62.30148086              -90.33158581
              84.35453820              -25.93673196               80.26632643                0.43485116               27.97864626               42.84207542             -123.79108447               15.26012560               28.09303418             -133.09128120
              75.52997104               26.15711891               99.24189163                0.43434698                0.12225002               -3.21399034                1.57127822                0.30256738                0.80225073               16.90183838
              76.53119354               20.57472384               97.03842681                0.00010000               28.09988734                2.39943684               -1.01277050               27.01918064               83.11009290              -14.88950530
              78.09196878               15.52738176               96.47923813                0.00010000               60.99649183              -10.49175920               -7.92658768               55.23657542              173.32507599              -17.17197392
              79.75112337               10.60040709               95.55904638                0.00010000               67.72731397              -16.65952180              -15.37684154               61.65702210              177.08195439              -16.24176150
              81.44651506                5.75050742               94.39490082                0.00010000               67.29664766              -18.02209731              -16.66184866               64.32287564              183.76628246              -15.78674869
              83.09705633                0.92839108               92.99651170                0.00010000               61.29439830              -16.68381680              -16.66602086               63.62252096              185.66446354              -17.70659542
              84.67240303               -3.91535704               91.29940479                0.00010000               52.49261022              -13.64812876              -16.77035180               59.47703450              179.10888453              -22.60634633
              86.14690853               -8.83035640               89.20632175                0.00010000               41.02955083               -8.40521593              -18.63427722               51.10923674              160.12511402              -31.24906899
              87.49299404              -13.86964402               86.57092065                0.00010000               29.26388621                0.93152553              -26.51905434               37.65176912              121.88453155              -44.84423074
              88.73218625              -19.08602033               83.22045250                0.00010000               26.78438333               17.00913343              -53.90848228               19.76151566               63.40854594              -65.39098689
              90.02868171              -24.51157084               79.15074648                0.43498026               29.64954567               41.41414613             -126.17759067               10.75499667               28.36527780              -94.98912959
              81.08490857               27.12672460               98.92856445                0.43411525                0.07952312               -2.44012331                1.04673445                0.31975377                0.79058850               14.79946790
              82.08570381               21.59816325               96.57856457                0.00010000               25.24086215                1.86015273               -0.57367103               17.49884150               92.66421790              -13.30591915
              83.58972582               16.41425519               96.06440242                0.00010000               55.64474165              -12.31771446               -7.07837569               36.72155027              191.64725133              -14.89838776
              85.19859864               11.42378744               95.20041370                0.00010000               62.98184861              -18.02057155              -13.80242657               45.48744112              193.39664860              -13.11805796
              86.84936279                6.55979686               94.07278770                0.00010000               63.59971735              -18.97653855              -15.41411632               47.79836031              197.02013238              -11.61241226
              88.47059299                1.75054072               92.67946841                0.00010000               59.23641489              -17.74571225              -16.09187038               45.87131288              195.97349836              -11.97791562
              90.03409109               -3.06258035               90.95707278                0.00010000               51.93205305              -14.79855900              -16.90843658               41.08875684              186.97358608              -14.72020372
              91.50923405               -7.92283554               88.80883205                0.00010000               41.42873789               -9.38925879              -19.42689165               33.92566870              165.75606339              -20.23249478
              92.86266585              -12.86535382               86.08917205                0.00010000               30.13374123                0.18726777              -27.82664329               24.39596787              125.33469105              -29.05727018
              94.11190887              -17.92003555               82.62791075                0.00010000               27.90366493               16.16125718              -55.44525864               12.89213714               64.80768767              -42.25614484
              95.42073914              -23.10844904               78.42684740                0.43480666               30.88302721               39.63695639             -127.28044713                7.22153874               28.86755094              -61.32383750
              86.59348882               28.10831644               98.60696546                0.43391573                0.01509608               -1.13400166                0.05764388                0.30593958                0.04172810               11.74255732
              87.59363978               22.61192690               96.12143867                0.00010000               20.36433874                0.73336460                0.43507953                8.50066808              103.93609776              -10.93301774
              89.00077559               17.28102747               95.71232897                0.00010000               46.08453710              -13.30988968               -5.44030322               17.47040855              213.11627503               -9.59363549
              90.51533052               12.23999566               94.94191878                0.00010000               53.74766989              -16.71012117              -11.48939292               26.08699755              211.08267399               -8.23455586
              92.07572899                7.37097664               93.87226981                0.00010000               56.07646335              -17.62690765              -13.92416119               27.34258723              210.18933322               -6.27031221
              93.63685979                2.57347684               92.50756415                0.00010000               54.59127133              -16.87399413              -15.57383035               25.16481819              206.05988825               -5.81539495
              95.16755442               -2.21132822               90.79109543                0.00010000               49.56677950              -14.38083901              -17.19120471               21.56960737              194.91935874               -6.91397314
              96.62819538               -7.01814158               88.62856683                0.00010000               40.52794986               -9.23158467              -20.29284449               17.11114451              171.85024289               -9.65512358
              97.97811342              -11.86589866               85.87471829                0.00010000               30.24644146                0.06401162              -29.15074666               12.08296755              129.50984898              -14.10236411
              99.23312421              -16.76279519               82.35884067                0.00010000               28.59130171               15.45411553              -56.90133103                6.57383883               66.93593896              -20.53093434
             100.54993945              -21.71883171               78.08380071                0.43438531               31.68152413               39.58080432             -128.48507627                3.82216934               29.83371358              -30.06556630
              92.08380645               29.10404457               98.24752041                0.71722332               -0.08003109               -0.42718732               -0.46969747               -0.08963962                5.29996997                9.61366655
              93.08300614               23.61283054               95.69488832                0.43516227               11.36293862                0.09036407                1.27607513                1.13727737              122.80818884               -9.17072983
              94.31106523               18.14805739               95.49073283                0.43669761               27.36916354              -13.29700742               -3.81945608                4.86668697              240.73393610              -10.28650060
              95.63038941               13.08958502               94.81624896                0.43792166               37.58340657              -15.04106451              -10.05851091               14.46595465              227.19759674               -8.75383665
              97.06273336                8.20725871               93.80820514                0.43859937               46.29024003              -16.37179389              -13.66476081               14.87422727              221.39433502               -7.25502999
              98.55619421                3.41306083               92.48409060                0.43839837               49.71841478              -16.04160066              -16.31575896               14.06065070              215.27073263               -7.12504995
             100.05710165               -1.35019713               90.79922624                0.43781717               47.49165841              -13.88689091              -18.52182687               12.92832009              203.43993484               -8.17505325
             101.50602738               -6.10746723               88.66170858                0.43678941               39.59385774               -8.93256546              -21.78118685               12.08937704              179.49672599              -10.26904834
             102.84897881              -10.86407359               85.92238166                0.43549328               29.51456555                0.18250720              -30.60206273               11.91223861              135.22892407              -12.85256502
             104.09631869              -15.61095324               82.40551754                0.43463986               28.01383804               15.18419459              -58.50325080               13.68148047               69.90015436              -15.53941392
             105.40925557              -20.31683295               78.11065086                0.71737862               31.29368754               40.19987582             -129.88665578               15.34364114               30.94367342              -18.13882300
              37.44189777               19.49283857              102.36071567                0.71682141                0.64353478                1.27470367               -0.44974762                1.06712087               -3.76628529                4.04365408
              38.44833312               14.11093078              101.35603125                0.43477167                4.10469070               -1.24260016                0.06407727                6.19395805               -4.61834394               -3.53972042
              39.52399158                8.86459735              100.33662428                0.43577603                5.65999407                1.12433833               -0.55446298                1.17004365               -4.18503646               -0.03125240
              40.56153300                3.76654016               99.36047701                0.43667589                2.77058669                0.55545326               -0.26949043                1.01485093               -1.77430175               -0.21757002
              41.57940332               -1.25295719               98.39311076                0.43618752                1.13460132                0.41058774                0.00732036                0.75306280               -1.08452537               -0.06762227
              42.58422503               -6.23509185               97.42796790                0.43690064                0.07472619                0.23639164                0.26428492                0.66324167               -0.95885037                0.06797600
              43.58089784              -11.21224712               96.45902643                0.43603780               -0.54623480                0.12824704                0.45683709                0.58362427               -1.27529511                0.14591828
              44.57330033              -16.20491723               95.48178837                0.43542480               -0.82495326                0.07026038                0.61010417                0.49470787               -1.85166596                0.18549783
              45.56439878              -21.22396010               94.49362751                0.43508014               -0.85419603                0.06402268                0.75666806                0.35297336               -2.52966174                0.15042192
              46.55621641              -26.27173752               93.49364583                0.43474888               -0.68270635                0.08060062                1.04309727                0.20502900               -2.65664650                0.13279147
              47.55074465              -31.34278658               92.49409688                0.71728253               -0.54717598               -0.29581522                1.27700260                0.92552085               -2.29225085               -1.52327652
              42.83447676               20.50558560              101.97991120                0.43463228               -1.00834589                7.89961679               -0.09705876                9.43595184                3.38623330                9.36297335
              43.82439330               15.09850478              100.97240811                0.00010000               -6.32947169               -8.66281478                1.39148448               18.55029945                9.27302774               -9.66821427
              44.70788733                9.87584074              100.08538676                0.00010000               -9.69672617               16.49926118                1.62276791               58.71216476               12.44852253               -0.35300599
              45.63045878                4.77209470               99.17632774                0.00010000               -6.00686889               19.95632853                0.90779135               92.89035492                9.74249244              -10.98046817
              46.58774995               -0.24885131               98.26400725                0.00010000               -2.99781879               20.47350448                0.17198913              116.21917102                8.58681883              -17.40557453
              47.57050241               -5.23272793               97.34650687                0.00010000               -0.80515893               20.77651454               -0.49709387              131.82547743                7.85789373              -24.07562586
              48.57164677              -10.21096465               96.42282235                0.00010000                0.68007474               21.21216336               -1.08124947              141.84975640                7.38949617              -32.23353795
              49.58410390              -15.20421462               95.49117795                0.00010000                1.48459414               21.00592320               -1.54320383              146.87980063                6.90866881              -43.78040061
              50.60133866              -20.22331987               94.54880226                0.00010000                1.67880211               17.19931142               -1.91955096              146.00010745                6.19418219              -62.20779678
              51.61767994              -25.27093151               93.59359602                0.00010000                1.48551349                1.97809588               -2.32335107              138.70356862                4.60680363              -96.84947470
              52.63104893              -30.34574474               92.61524469                0.43396855                1.33689835              -80.05307894               -2.49931028              150.07620766                3.14186359             -169.44228858
              48.44477845               21.65083090              101.69493016                0.43379042                0.43055196               10.88552938               -1.98328851                0.64398168               -1.46043934               17.90398325
              49.44908397               15.93767449              100.46886834                0.00010000               28.99332553              -12.47852530                2.84844223               49.78247627               27.41027079              -18.13428625
              51.02464496               11.19458258               99.81694299                0.00010000               54.74740882               17.25495970              -24.01610319              134.11684113              117.19212329                6.00871402
              52.54403215                6.16566673               98.77381679                0.00010000               44.19822016               29.34104354              -24.31850522              171.08185696              131.21167403               -7.74197595
              53.90860937                1.15651290               97.78705578                0.00010000               31.94078793               33.85575438              -23.49006224              210.48777861              146.34322545              -17.51289200
              55.18284791               -3.81956156               96.78312872                0.00010000               24.03851467               36.74872368              -22.41826483              239.98392941              153.13680069              -27.62310821
              56.38937966               -8.78800385               95.74140420                0.00010000               17.02018310               39.19609585              -21.35742566              259.86391036              156.87738761              -39.68570278
              57.52325157              -13.78479876               94.62442198                0.00010000                8.08690775               39.90466079              -19.37165352              269.10212663              156.78024865              -56.47126999
              58.55111782              -18.87997387               93.35994705                0.00010000               -3.52694613               34.13659705              -15.05178623              261.98994756              145.73954799              -83.55183391
              59.45271265              -24.23217560               91.75504625                0.00010000                7.53887201                4.15903831               -9.22019198              188.47873650              101.66470406             -133.34187212
              60.70189526              -30.94384816               89.38109333                0.43438825               24.91826085              -85.80598866              -29.96143347              127.74778475               55.21409709             -290.21599949
              54.27366923               22.72329619              101.40408828                0.43354938                0.26219251                4.40878994               -0.15726148               -0.17168931                0.15315843               19.83216444
              55.27629115               16.84893427               99.97281255                0.00010000               44.42813378               -5.98816673                0.82859919               62.09425242               39.10768333              -19.33595430
              57.16223190               12.22093993               99.31521372                0.00010000               90.69372228               -3.00493988              -30.23808303              131.95282872              137.26131061               -8.80561219
              59.09016560                7.35891557               98.25983392                0.00010000               81.02509557                8.97655563              -29.86379354              144.95817048              159.91916289               -7.92116976
              60.78273382                2.42826377               97.20041520                0.00010000               61.22660711               16.83500675              -27.82514868              168.24466736              178.72289893              -13.64265885
              62.31469774               -2.49775346               96.08272486                0.00010000               47.57141845               22.07283757              -25.60149253              191.24301797              187.59834690              -21.54525107
              63.73416219               -7.42704273               94.86811756                0.00010000               37.17093565               25.83582602              -23.51289091              208.99031160              191.09867959              -32.12894942
              65.05811646              -12.40612141               93.48640198                0.00010000               27.71761302               27.26243981              -21.00783624              218.18524826              188.11881748              -47.18832990
              66.28851445              -17.54058793               91.81215605                0.00010000               19.65062554               23.06108585              -18.58127977              205.30728312              170.02535358              -70.36626236
              67.45112897              -23.18775074               89.55009394                0.00010000               16.04176521                6.92227895              -20.87991947              138.19085569              121.02768185             -114.30854652
              68.60934975              -30.06186451               86.25053162                0.43451762               15.82207839               15.05130094              -76.17638577               74.83210491               79.76606752             -224.13725661
              60.19006850               23.73900670              101.12848300                0.43426677                0.32567801               -0.21466686                0.85170888               -0.40502969                0.44282740               20.28434881
              61.19332528               17.81791115               99.46995883                0.00010000               48.18258727               -1.27464236               -0.30881615               61.49993927               50.27675492              -19.22902015
              63.15372024               13.13448378               98.80294540                0.00010000              102.12732180               -9.34116701              -33.59498574              121.86640870              154.35614538              -12.37286769
              65.23587172                8.34519785               97.73768168                0.00010000               98.82257471               -6.34456711              -32.42544492              123.42160178              175.02020292               -9.30473962
              67.13017174                3.49321303               96.62862224                0.00010000               81.35715273               -0.83678308              -29.79065502              134.44294227              193.73207430              -11.06230154
              68.86301477               -1.37810481               95.40753655                0.00010000               67.36910505                3.71305285              -27.06400015              149.14190485              202.30059801              -16.16211688
              70.47755384               -6.27128733               94.02757848                0.00010000               56.87434836                6.80520066              -24.81055274              161.53912784              205.01677287              -24.02748195
              72.00050174              -11.23954997               92.39847772                0.00010000               48.06694880                7.81195650              -22.94326660              164.93384603              200.23646080              -35.65310283
              73.43889282              -16.41875215               90.36199512                0.00010000               36.86523012                6.10229179              -22.55378140              146.67802039              179.85200788              -54.35756169
              74.73780634              -22.09373002               87.59578532                0.00010000               25.39360343                9.88005829              -31.02636802               89.12389764              125.63287069              -88.37718770
              75.94676488              -28.64282215               83.63171765                0.43457777               20.89585451               44.32683891              -92.23395292               49.77510808               82.28033800             -162.59321233
              66.10775973               24.71900285              100.84912775                0.43391778                0.30531259               -3.00798749                1.49168896               -0.47167322                0.67766281               18.89705826
              67.11081286               18.82344143               98.97656348                0.00010000               48.22568245                1.65623811               -1.04940782               54.81282131               59.99737801              -17.60490526
              69.07227338               14.03411659               98.28591054                0.00010000              104.45277608              -10.41720131              -34.35491770              107.79667367              168.32467489              -13.86227419
              71.19986838                9.23202423               97.22158797                0.00010000              106.13109656              -14.06102090              -33.17492240              108.10563046              187.00539663              -10.38673530
              73.19489531                4.41152811               96.07677087                0.00010000               93.10839100              -12.90491824              -30.37485200              113.39386734              203.57278470              -10.51659514
              75.06203620               -0.42349240               94.77389428                0.00010000               81.57472936              -10.40619343              -27.66677260              121.40418974              210.99055265              -13.43987157
              76.82638990               -5.29093872               93.25630053                0.00010000               72.11109997               -8.23258657              -25.64741193              127.35213848              212.65755368              -19.00676972
              78.50425820              -10.24988228               91.42309539                0.00010000               62.49325035               -6.66398962              -24.39307959              124.83320556              206.69234255              -27.92418222
              80.07625491              -15.41854210               89.10451539                0.00010000               47.67093546               -3.44664211              -25.41783575              104.82172393              184.43260347              -42.44700101
              81.45767691              -20.99014958               85.97345227                0.00010000               31.33906259                9.35670093              -35.74963314               60.47541168              127.33809031              -67.45668694
              82.70303616              -27.17532773               81.58262958                0.43426577               24.53592501               44.45109907              -97.74502114               33.11257214               82.89736646             -116.42503138
              71.97175789               25.67884695              100.56045321                0.43367675                0.27100796               -4.36518838                1.75793971               -0.45592499                0.76683234               16.76789022
              72.97446797               19.85103591               98.49508586                0.00010000               46.46565161                3.23453741               -1.41039008               44.64872975               69.10081362              -15.47957432
              74.90107092               14.92613975               97.79267591                0.00010000              102.30524180              -11.48268728              -33.42224020               88.40446372              181.18097682              -13.53292033
              77.02057280               10.06397743               96.74153037                0.00010000              107.62473959              -18.76183273              -32.51988040               90.68437194              197.66006680              -10.20582443
              79.05356571                5.23511467               95.57984386                0.00010000               98.64962950              -20.62726574              -30.01770061               94.23856559              211.88427741               -9.46921383
              80.99356539                0.41377133               94.22084315                0.00010000               89.87103864              -19.90508659              -27.68157512               97.89022218              217.74152227              -10.96931271
              82.85098648               -4.43593906               92.60114106                0.00010000               81.56019177              -18.26496791              -26.09863574               98.76474559              218.18356994              -14.75941936
              84.62476923               -9.37282976               90.61490853                0.00010000               71.23040565              -15.51498885              -25.40071799               92.64890475              210.94259684              -21.37595999
              86.27559460              -14.48768500               88.08941237                0.00010000               53.96654908               -8.99213153              -27.06831737               74.50874678              187.05367073              -32.24834656
              87.70410021              -19.90659600               84.70216081                0.00010000               35.18890184                6.96657509              -37.79223146               41.58368547              128.03020266              -50.17972717
              88.97937263              -25.75380016               80.02376319                0.43429118               27.52724242               39.04309913              -99.07277733               22.73130145               82.74593441              -83.39299585
              77.75426331               26.63169909              100.25806495                0.43433953                0.22313429               -4.51968625                1.68533437               -0.42346505                0.80427321               14.23317912
              78.75649465               20.88813218               98.02674466                0.00010000               43.65789166                3.64665086               -1.42246438               32.52143300               78.09709812              -13.14090641
              80.62742114               15.80446285               97.33829444                0.00010000               97.40431267              -13.33407808              -31.17375235               65.73309036              193.84901987              -12.38812589
              82.70458091               10.85678757               96.32273230                0.00010000              105.12257937              -22.27310341              -30.65497856               71.16790473              208.00902069               -8.98590647
              84.72987273                5.99898280               95.16657345                0.00010000               99.31567346              -25.24763368              -28.79325582               74.72016478              219.70483564               -7.69013392
              86.69089437                1.17840587               93.77899424                0.00010000               92.92065836              -25.25815593              -27.14230910               75.68644569              223.82757962               -8.23480173
              88.58828590               -3.65623807               92.09314302                0.00010000               85.90439287              -23.79747366              -26.15569100               73.36002352              222.84759483              -10.66813386
              90.40898223               -8.56018205               90.00221122                0.00010000               75.59550958              -20.32066701              -25.94935303               66.05990747              214.26567114              -15.35815509
              92.10019609              -13.59838473               87.33394567                0.00010000               57.32417777              -12.32121245              -27.93568332               51.43603353              188.91960944              -23.12695175
              93.55546579              -18.85081808               83.77133109                0.00010000               37.59372122                4.30978088              -38.57237769               28.22437567              128.49412140              -35.62333396
              94.85207051              -24.39446575               78.89950769                0.43447481               29.66047253               33.34649805              -98.93773104               15.44196032               82.60892519              -57.95733114
              83.45042241               27.58845323               99.93974117                0.43372201                0.17104590               -3.60245189                1.24754643               -0.32247281                0.80882224               11.72802316
              84.45213287               21.92396893               97.57118818                0.00010000               39.83274620                2.98487713               -1.04471654               19.61668579               87.65623284              -10.97224321
              86.24707733               16.65945819               96.93708606                0.00010000               89.86390393              -16.23088914              -27.63256582               41.42584714              207.40778885              -10.51851333
              88.24941095               11.61851536               95.98807443                0.00010000               98.96366893              -24.80666959              -27.64777865               50.73633356              218.69856605               -6.63911804
              90.22635071                6.73016200               94.86186390                0.00010000               95.65521166              -27.06262150              -26.85124872               54.25951478              227.51692002               -5.17545461
              92.16251518                1.90860821               93.47115560                0.00010000               91.52120822              -27.14707143              -26.18364901               53.29762931              229.62917960               -5.09148081
              94.05677488               -2.91188853               91.75263216                0.00010000               86.27994258              -25.87084193              -25.95678918               49.33213876              227.13461884               -6.51506906
              95.88811403               -7.77924310               89.60075700                0.00010000               76.90882086              -22.37014298              -26.24291281               42.59982117              217.24918854               -9.59361524
              97.59495129              -12.73410924               86.84465572                0.00010000               58.82773583              -14.22149628              -28.44174735               32.40345181              190.62794925              -14.74278214
              99.06466875              -17.82040038               83.17070617                0.00010000               39.02779467                2.13599876              -38.95810650               17.80132408              129.04392074              -22.73125800
             100.37550719              -23.08687020               78.17372601                0.43411784               31.08384386               29.24510613              -98.57689825                9.86607699               82.66590614              -36.91494009
              89.07678244               28.55965005               99.60736753                0.43353165                0.10409578               -1.87857479                0.25207102               -0.08912477                0.29967324                8.51154011
              90.07782340               22.94782972               97.12493459                0.00010000               34.23046059                1.47364960               -0.04099564                7.03684844               98.73247437               -8.14633204
              91.76139166               17.47984506               96.60886359                0.00010000               78.53901861              -19.59748368              -22.49292641               18.03041264              223.19778419               -6.48806458
              93.64860377               12.36065418               95.76413838                0.00010000               88.17892619              -24.44170903              -23.77540780               28.16932540              230.50734898               -3.76131221
              95.52497018                7.45773037               94.68236654                0.00010000               87.51468580              -26.10209531              -24.49320637               30.56298509              235.10937839               -2.34984506
              97.39889749                2.63546444               93.30842130                0.00010000               86.89048991              -26.55468126              -25.20667037               28.66179866              235.25869782               -2.05538523
              99.26277998               -2.17365491               91.58717229                0.00010000               84.21509388              -25.73943633              -25.84162124               25.24690169              231.45958367               -2.68974115
             101.08319937               -7.00758491               89.41583590                0.00010000               76.33212169              -22.64053996              -26.56169774               20.89926058              220.35361575               -4.37532525
             102.78942241              -11.88281465               86.62156863                0.00010000               59.05269298              -14.81105835              -28.94270387               15.63849407              192.76581125               -7.11030442
             104.26425323              -16.80809810               82.89335113                0.00010000               39.64546391                0.84196378              -39.36927028                8.76379967              130.03283918              -10.98954368
             105.58233169              -21.80956363               77.82477077                0.43435420               31.80784623               27.31821210              -98.60911525                4.96539301               82.86064060              -18.16909975
              94.67228057               29.55088173               99.24165220                0.71704927                0.03942477               -0.87683174               -0.36225931               -0.19416776                3.48538835                6.43691904
              95.67267482               23.95344192               96.70764542                0.43541655               26.12902756                0.56122051                0.79280933               -4.68351858              115.54645132               -6.25367906
              97.19486112               18.26750852               96.41200333                0.43652466               58.11186639              -21.23365440              -17.05372329                2.15890980              246.32002303              -10.23042125
              98.83491215               13.12968118               95.66328081                0.43706149               68.39695141              -23.09729983              -19.80643428               15.66141608              241.85661560               -6.45712581
             100.56280015                8.20812009               94.62695494                0.43746734               76.61121420              -24.96102786              -22.89791626               16.17466746              242.21265319               -5.65618505
             102.36713643                3.37751458               93.28212806                0.43754706               82.09810538              -25.79498565              -25.04310676               15.08402687              241.39344813               -5.94981850
             104.20476226               -1.42667726               91.58679936                0.43706589               82.40612745              -25.30223474              -26.36247699               13.71980435              237.77100729               -7.35091493
             106.01525898               -6.23205390               89.44097946                0.43688758               75.17360515              -22.44689846              -26.96249103               13.02330384              226.58354359               -9.97434489
             107.70823436              -11.03033041               86.66510057                0.43577878               57.57173672              -14.75157603              -28.68298169               13.30583468              197.33106081              -13.98517433
             109.16669372              -15.80356111               82.93535492                0.43464460               38.47558665                0.45369933              -39.32672950               14.73527152              132.31889749              -15.77992676
             110.47774610              -20.54050596               77.84896380                0.71734632               31.10523800               26.90576665              -98.61635663               15.84695554               84.26568841              -19.53464288
              38.41868322               19.89610334              103.35581510                1.00000000                0.36975682                1.77396699               -0.49005646                0.85879208               -2.32649383                2.17492116
              39.42238078               14.46500665              102.35576472                1.00000000                2.96389427               -1.19302840               -0.02665311                2.89050725               -4.15875072               -1.25289870
              40.47796110                9.10646240              101.32454475                1.00000000                4.43958093                1.80851830               -1.20795230               -2.85597668               -4.67057807                2.94582856
              41.51117240                3.94216312              100.35441412                1.00000000                2.62546970                0.72134336               -0.60628871               -0.70554595               -1.73223405                1.19469346
              42.53047050               -1.12577575               99.39062127                1.00000000                1.33514541                0.48359269               -0.24894897               -0.47469498               -1.18574912                0.59966279
              43.53787531               -6.14975590               98.42856478                1.00000000                0.41965737                0.20997793                0.05968824               -0.42764926               -1.09343995                0.10527133
              44.53886364              -11.16766693               97.46145190                1.00000000               -0.02823557                0.03236980                0.24254619               -0.55638619               -1.36645589               -0.20809530
              45.53731060              -16.20250372               96.48530406                1.00000000               -0.15155733               -0.05955995                0.35156892               -0.72737252               -1.77774659               -0.36373273
              46.53583250              -21.26492621               95.49787642                1.00000000               -0.12711109               -0.04639333                0.42489156               -0.85727192               -2.14650190               -0.41464073
              47.53476838              -26.35409427               94.49950658                1.00000000               -0.10476102                0.16206940                0.58607506               -0.52605289               -1.95262615               -0.35332644
              48.53373728              -31.45451850               93.50171996                1.00000000               -0.10311021               -0.24356711                0.76230790                0.17202496               -1.47939946               -1.22283805
              43.85836783               20.91384301              102.97429954                1.00000000               -1.22615057                9.94745804               -0.56116660               15.04515015                3.87513934                5.97702628
              44.84610633               15.45307636              101.98915986                1.00000000               -7.37723653               -9.37630945                1.67517564               21.79919911                9.06322460               -6.92311034
              45.71082310               10.12454759              101.11213799                1.00000000              -11.29351531               31.59143839                2.67512332              131.81461041               10.37248890              -24.93728732
              46.62023602                4.94937655              100.19073810                1.00000000               -6.95700239               34.19097075                1.44103584              184.19460034                6.84264671              -28.94436910
              47.57168305               -0.12093982               99.26943645                1.00000000               -3.28458038               37.23007549                0.54291957              214.13000151                6.07048213              -34.44262873
              48.55454441               -5.14765612               98.34428154                1.00000000               -0.60046794               41.02267385               -0.22253270              234.07386080                5.67191601              -40.43139384
              49.55967369              -10.16734323               97.41479076                1.00000000                1.20610510               46.74531514               -0.80315929              248.47887144                5.55127633              -48.59607919
              50.57866651              -15.20309932               96.47925323                1.00000000                2.16906780               54.49510341               -1.19247179              259.38919156                5.45152966              -60.05069091
              51.60305505              -20.26539014               95.53469612                1.00000000                2.28187418               62.42641847               -1.41061342              267.88471873                5.12548126              -77.08914572
              52.62430400              -25.35247357               94.57833007                1.00000000                1.64133564               67.53319338               -1.52659542              273.91363606                3.98877419             -106.43178030
              53.63588176              -30.45695417               93.60122350                1.00000000                1.15777657              -23.13175040               -1.40211894              281.30447542                2.77262681             -177.72190566
              49.64111951               22.09505250              102.65884081                1.00000000                0.65406753               13.20397846               -3.60893482               10.45464439                4.56595941               15.56323217
              50.64766019               16.27748046              101.50815934                1.00000000               98.84168042              -13.69008833                3.92910058               75.32558750                3.33484653              -16.31142344
              53.61795312               11.73829117              100.32838531                1.00000000              139.64458133               28.16681906              -48.85576811              222.65966620              154.97100024              -11.82375867
              55.44055182                6.62598253               99.42096303                1.00000000               64.60750352               45.49626505              -35.28537563              270.38872967              195.52998647              -19.64664579
              56.91010319                1.61882576               98.44594570                1.00000000               41.26020626               53.51403778              -34.11100791              324.44605675              201.59089491              -24.41915848
              58.26575594               -3.32930242               97.44979328                1.00000000               32.68905412               61.52230068              -33.33354461              364.29203368              206.10789258              -29.86453937
              59.56388428               -8.23276063               96.40228749                1.00000000               27.86926989               71.36527174              -33.91167170              396.63131929              209.06377978              -36.93321472
              60.82314134              -13.11260165               95.28205964                1.00000000               23.95084234               82.77684469              -34.23623441              423.17863214              211.88630498              -46.79863544
              62.04290112              -18.01639784               94.04023405                1.00000000               19.07318965               92.35017423              -31.97130011              445.46637213              211.77310365              -63.34690594
              63.20460513              -23.00343040               92.53395510                1.00000000               16.29434329               82.31134729              -22.10911476              379.74274346              181.66258235              -89.27203339
              64.36878799              -29.91715351               90.16970072                1.00000000               16.41828559               -8.58727929              -21.13926123              305.31422424              130.26383558             -247.11481766
              55.70260481               23.17792258              102.39712098                1.00000000                0.67745988                4.81484073               -0.69672955               11.04259569                1.51340458               19.22134819
              56.70937940               17.17927460              100.98331945                1.00000000              105.64547725               -6.51196608                1.05068992               86.42454518               12.86505725              -19.00778286
              59.81551435               12.68788397               99.78824563                1.00000000              171.90483080               -8.26212259              -52.69680960              150.51223140              160.02095157               -7.65136884
              62.14747602                7.85930185               98.87717359                1.00000000              110.01873939                9.86180786              -38.26603311              161.65014064              209.14013814               -4.58399156
              64.01588914                2.94934094               97.85642755                1.00000000               77.22477284               19.52190953              -34.39876541              192.06586847              217.78047666               -7.00884390
              65.69197148               -1.91721010               96.76647248                1.00000000               62.98550874               26.61667688              -31.62523761              225.25300830              223.18799711              -10.51088467
              67.27559931               -6.74003780               95.56564002                1.00000000               56.69524445               32.64407968              -30.24775414              255.70059904              225.76440395              -15.54294079
              68.82587637              -11.54756243               94.19888630                1.00000000               56.38059623               36.58335205              -28.75156816              282.40288677              225.52428707              -23.20535397
              70.40321124              -16.41838666               92.54060594                1.00000000               64.70190861               34.18471473              -27.15501138              293.12344939              218.29531391              -36.22192677
              72.11991454              -21.70624663               90.33539900                1.00000000               58.32006170               12.58907913              -21.46949442              231.60590544              170.12515220              -63.04893219
              73.56961247              -28.62869976               86.60553784                1.00000000               44.96979332               29.42070018              -64.49937789              170.40380011              123.04015637             -169.88648684
              61.85926739               24.19134932              102.13401500                1.00000000                0.69223094               -0.64942175                0.55320004               10.43273876                0.25069401               18.52784231
              62.86618970               18.14724114              100.46732304                1.00000000              104.44515507               -1.13756593               -0.26357920               83.89818303               22.65918543              -17.98430563
              65.94817050               13.57304872               99.24146986                1.00000000              177.29539785              -12.18860367              -56.14755427              141.66565271              172.50440454               -8.90684861
              68.41209766                8.82321869               98.32851063                1.00000000              128.98810105               -9.27773829              -40.91710471              137.75454112              218.72982667               -5.61372667
              70.52793252                4.00926395               97.26361450                1.00000000              102.40485905               -3.16056360              -36.50077440              153.47180351              227.27498985               -5.77735835
              72.46019484               -0.79696888               96.07848887                1.00000000               89.01580313                1.28744092              -32.90476772              176.75970486              232.40822260               -8.12896130
              74.30824858               -5.57987903               94.71741881                1.00000000               84.46765454                3.73806367              -31.01596757              200.55454122              234.18676039              -12.02079111
              76.14954793              -10.38093461               93.10083460                1.00000000               87.79028649                2.92182084              -29.76431223              217.87598365              232.60332711              -18.12119819
              78.06405431              -15.33270354               91.07139296                1.00000000               94.87442055               -3.47520257              -29.06021602              214.24915913              222.97283006              -28.49601456
              80.04703634              -20.75164882               88.30996822                1.00000000               77.88579738               -8.98848298              -28.58171005              153.17182162              172.63542653              -49.41894100
              81.62177026              -27.32873951               83.90564148                1.00000000               57.47339129               26.98706263              -72.60761731              104.31252863              127.06786370             -107.00582937
              67.99947594               25.16493414              101.86299260                1.00000000                0.61677204               -3.69621498                1.38648489                9.20246579               -0.63030231               16.79067149
              69.00564366               19.15652328               99.96497337                1.00000000               98.66869561                2.15803509               -1.15901052               73.91823296               32.98238885              -16.10486985
              71.97284985               14.44411190               98.73297878                1.00000000              173.03539741              -13.60003306              -55.29317625              122.84529476              182.25184712               -7.70520386
              74.46635161                9.67374709               97.80885737                1.00000000              136.63314633              -18.57508193              -41.27305917              119.22686743              225.43831097               -5.23042836
              76.70551278                4.88612967               96.70877854                1.00000000              117.49784774              -18.41060036              -36.79923321              127.80605749              232.69994801               -4.84230878
              78.81630856                0.10853872               95.44162141                1.00000000              108.25715443              -17.16501425              -33.22728744              142.71051622              237.10868962               -6.24964738
              80.87065587               -4.66527652               93.94240761                1.00000000              105.99559924              -17.08848110              -31.38929182              157.47478134              238.30710788               -9.09374143
              82.93622055               -9.48912601               92.11923163                1.00000000              109.41263783              -19.02158149              -30.38637638              164.55904227              236.00527560              -13.76644244
              85.05890862              -14.48789071               89.79858843                1.00000000              112.15831928              -21.28390034              -30.59269610              152.34215399              225.44667828              -21.85341715
              87.17938693              -19.88601629               86.66285777                1.00000000               87.55679012              -15.50213872              -31.05945025              102.64504162              174.10437968              -36.00543694
              88.81004443              -26.08895851               81.83725597                1.00000000               63.06574926               20.36347605              -74.53736088               66.92987166              128.14064743              -72.40160710
              74.06013844               26.11742502              101.57796584                1.00000000                0.52381684               -5.12198102                1.75126373                7.75873868               -1.05233450               14.48809259
              75.06537661               20.19040184               99.47906194                1.00000000               91.38570697                3.96400588               -1.60239146               59.54426923               43.56133087              -13.81320000
              77.88785258               15.30104806               98.26737517                1.00000000              164.46203138              -15.44514047              -52.53007363               98.07134487              191.74788630               -6.36995404
              80.35461724               10.45171705               97.34045634                1.00000000              138.07047267              -24.98010924              -40.10740259               97.83385272              230.91394605               -4.37156619
              82.64926204                5.64105195               96.21756522                1.00000000              125.55970578              -28.57224815              -36.22786400              104.34254192              237.01849995               -3.89341399
              84.86581136                0.85973083               94.88943369                1.00000000              120.30734471              -29.75780597              -33.14094565              113.40145900              240.55731507               -4.80184337
              87.05540893               -3.92164866               93.28421960                1.00000000              119.87658028              -30.74671473              -31.69214647              120.71925045              241.17022100               -6.87679172
              89.26334296               -8.76136624               91.30399322                1.00000000              122.61893669              -31.71209848              -31.09153076              120.92329308              238.29748536              -10.44849544
              91.50778766              -13.75838155               88.77302184                1.00000000              121.88310071              -29.97678502              -31.63905304              107.15161919              227.09929021              -16.38872757
              93.70100498              -19.06169159               85.38159289                1.00000000               92.92322338              -19.05080421              -32.05679195               69.70156466              175.28292890              -26.20219951
              95.36625213              -24.92146999               80.28487089                1.00000000               66.52471569               13.41391123              -73.88923023               44.74528982              129.01574951              -50.03018789
              80.00869707               27.06249452              101.27559832                1.00000000                0.42089318               -5.27212681                1.75333739                6.23351538               -1.11870379               11.85702046
              81.01290600               21.23580340               99.00997752                1.00000000               83.21322336                4.50633065               -1.67671397               42.44107622               54.64937319              -11.30246309
              83.67296154               16.13520909               97.85576308                1.00000000              153.50593863              -18.38661435              -48.25313582               68.57421315              201.35250383               -4.70657953
              86.08302477               11.17414490               96.94594681                1.00000000              135.56941482              -30.10590245              -37.67854955               73.63252506              236.00801796               -2.91417787
              88.38434983                6.31468470               95.81903570                1.00000000              128.20067862              -35.02786324              -34.75377488               80.32978386              240.83364613               -2.51993458
              90.64703835                1.51338260               94.45366552                1.00000000              126.08940586              -37.02233975              -32.53287214               85.58507162              243.47716040               -3.18424005
              92.90613795               -3.28021082               92.77629097                1.00000000              127.21904784              -38.26311692              -31.68520562               87.75112792              243.46866380               -4.71140455
              95.19141930               -8.12336798               90.68733469                1.00000000              129.80642025              -38.34831451              -31.48765268               84.58178541              240.03950800               -7.31956381
              97.50226636              -13.08742641               88.01220698                1.00000000              127.25436793              -34.47254364              -32.17386885               72.69118051              228.29053988              -11.53840490
              99.73650666              -18.26703237               84.44900495                1.00000000               96.11203291              -21.74945792              -32.23261417               46.47290736              176.09333124              -18.26364259
             101.42450701              -23.82068028               79.17199186                1.00000000               68.80003521                7.47295351              -72.75158332               29.72348085              129.54234103              -34.09952586
              85.83819101               28.01198248              100.95351538                1.00000000                0.32925658               -4.29291524                1.37742035                4.63715165               -0.80765351                9.17335355
              86.84148358               22.28052845               98.55767024                1.00000000               74.14021661                3.83698082               -1.35179374               23.76102498               66.84685698               -8.81198616
              89.32099534               16.93331577               97.51175110                1.00000000              140.31542752              -22.94300906              -42.53349595               36.08182515              211.88119510               -2.27887403
              91.64779213               11.84959900               96.64745812                1.00000000              129.78123387              -34.22909289              -34.06163066               48.80643453              241.03869892               -0.86844518
              93.91662002                6.94049468               95.53576272                1.00000000              126.23080917              -37.78980014              -32.61011742               55.94844202              244.44379623               -0.79823222
              96.17240831                2.11928404               94.15579543                1.00000000              126.52810228              -39.59929598              -31.53601692               58.13919848              246.09802673               -1.44415575
              98.44718206               -2.68691099               92.43793700                1.00000000              129.48929747              -40.95397083              -31.46951678               56.77884857              245.44963700               -2.60364405
             100.76219426               -7.52833253               90.28397380                1.00000000              132.90468004              -41.12512804              -31.67832070               52.42653114              241.52802815               -4.40903385
             103.10527567              -12.44783242               87.52033710                1.00000000              130.07613692              -37.05615951              -32.43186193               44.26499223              229.27117863               -7.18945625
             105.36371700              -17.49668075               83.84874862                1.00000000               98.13709544              -24.01012249              -32.19575448               28.49468483              176.65344143              -11.50552084
             107.06801757              -22.77201092               78.45530943                1.00000000               70.43005774                3.16143956              -71.84165792               18.45728135              129.90712000              -21.53274417
              91.56434816               28.97663622              100.61200688                1.00000000                0.24450480               -2.38844317                0.46393524                2.75751712               -0.38224079                6.03660938
              92.56679321               23.31254301               98.12061876                1.00000000               63.05896644                2.09034222               -0.43158349                4.09065726               81.42015882               -5.87495746
              94.82552749               17.67634890               97.26247044                1.00000000              124.25906727              -29.80731437              -34.63931458                6.89274966              223.70317672                1.54574756
              97.05197455               12.48956304               96.46641062                1.00000000              120.40530735              -34.37206758              -29.77277585               24.36588929              246.33384024                1.52399408
              99.23363364                7.55888870               95.38240569                1.00000000              119.26267194              -36.77682411              -29.99608510               30.16763902              247.71735185                0.84003791
             101.43722799                2.72139668               94.00343074                1.00000000              122.78489278              -38.63165453              -30.49905604               29.68157573              248.42591658               -0.03512463
             103.68933149               -2.09929024               92.27426301                1.00000000              128.18216806              -40.47792842              -31.29092799               26.96105598              247.35025830               -0.86154712
             106.00087135               -6.94587054               90.09733288                1.00000000              133.32914624              -41.44543555              -31.85030248               23.39717101              242.84725904               -1.90431445
             108.35591442              -11.82854960               87.29586421                1.00000000              131.48537482              -39.15042684              -32.57044140               19.72923069              230.35531976               -3.15424846
             110.63057885              -16.74723482               83.57145526                1.00000000               99.41992792              -25.69393124              -32.18958660               13.31072605              177.42027176               -5.40195531
             112.34431298              -21.75745149               78.11161840                1.00000000               71.37341245                0.80495226              -71.31523691                8.94503323              130.21444268              -10.63807182
              97.22152777               29.96421362              100.24027522                1.00000000                0.20562677               -1.24226028               -0.13769763                1.53012845                1.97164758                4.16002238
              98.22358403               24.32233530               97.71074450                1.00000000               53.01512684                0.97922837                0.30990795              -15.67312405              100.56007873               -4.09808818
             100.28183030               18.33716948               97.14965837                1.00000000              101.44930411              -33.91794200              -26.23449625              -12.37860092              244.16570663               -4.31511093
             102.25257012               13.16215765               96.42012028                1.00000000              100.31544310              -32.74053930              -24.31605285               13.44899201              251.79521923               -1.38138751
             104.28813917                8.20495820               95.35024682                1.00000000              108.58243205              -35.39304986              -27.67081217               14.67521778              250.68931065               -3.53207578
             106.42421876                3.34665095               93.98322847                1.00000000              118.27656172              -37.47457281              -29.88995961               13.62768826              251.79472664               -5.10659121
             108.65367040               -1.49646956               92.27197670                1.00000000              126.75891415              -39.71793274              -31.48226571               11.23928123              251.85232874               -7.20786124
             110.95939704               -6.35724124               90.12245876                1.00000000              132.37770791              -41.13707025              -31.85206989                9.13399875              248.25107226              -10.00614631
             113.30122456              -11.23084096               87.34872203                1.00000000              129.97181849              -40.22913620              -31.63785426               11.86510759              234.12522902              -14.76527354
             115.55883341              -16.01055937               83.61898295                1.00000000               98.30635115              -26.33245535              -31.63719734               16.57191041              178.69405430              -15.94705741
             117.26735158              -20.75591187               78.13832372                1.00000000               70.85181707                0.15396205              -71.06400768               17.76861082              130.89462591              -18.87005856
         1          2         13         12        122        123        134        133  
         2          3         14         13        123        124        135        134  
         3          4         15         14        124        125        136        135  
         4          5         16         15        125        126        137        136  
         5          6         17         16        126        127        138        137  
         6          7         18         17        127        128        139        138  
         7          8         19         18        128        129        140        139  
         8          9         20         19        129        130        141        140  
         9         10         21         20        130        131        142        141  
        10         11         22         21        131        132        143        142  
        12         13         24         23        133        134        145        144  
        13         14         25         24        134        135        146        145  
        14         15         26         25        135        136        147        146  
        15         16         27         26        136        137        148        147  
        16         17         28         27        137        138        149        148  
        17         18         29         28        138        139        150        149  
        18         19         30         29        139        140        151        150  
        19         20         31         30        140        141        152        151  
        20         21         32         31        141        142        153        152  
        21         22         33         32        142        143        154        153  
        23         24         35         34        144        145        156        155  
        24         25         36         35        145        146        157        156  
        25         26         37         36        146        147        158        157  
        26         27         38         37        147        148        159        158  
        27         28         39         38        148        149        160        159  
        28         29         40         39        149        150        161        160  
        29         30         41         40        150        151        162        161  
        30         31         42         41        151        152        163        162  
        31         32         43         42        152        153        164        163  
        32         33         44         43        153        154        165        164  
        34         35         46         45        155        156        167        166  
        35         36         47         46        156        157        168        167  
        36         37         48         47        157        158        169        168  
        37         38         49         48        158        159        170        169  
        38         39         50         49        159        160        171        170  
        39         40         51         50        160        161        172        171  
        40         41         52         51        161        162        173        172  
        41         42         53         52        162        163        174        173  
        42         43         54         53        163        164        175        174  
        43         44         55         54        164        165        176        175  
        45         46         57         56        166        167        178        177  
        46         47         58         57        167        168        179        178  
        47         48         59         58        168        169        180        179  
        48         49         60         59        169        170        181        180  
        49         50         61         60        170        171        182        181  
        50         51         62         61        171        172        183        182  
        51         52         63         62        172        173        184        183  
        52         53         64         63        173        174        185        184  
        53         54         65         64        174        175        186        185  
        54         55         66         65        175        176        187        186  
        56         57         68         67        177        178        189        188  
        57         58         69         68        178        179        190        189  
        58         59         70         69        179        180        191        190  
        59         60         71         70        180        181        192        191  
        60         61         72         71        181        182        193        192  
        61         62         73         72        182        183        194        193  
        62         63         74         73        183        184        195        194  
        63         64         75         74        184        185        196        195  
        64         65         76         75        185        186        197        196  
        65         66         77         76        186        187        198        197  
        67         68         79         78        188        189        200        199  
        68         69         80         79        189        190        201        200  
        69         70         81         80        190        191        202        201  
        70         71         82         81        191        192        203        202  
        71         72         83         82        192        193        204        203  
        72         73         84         83        193        194        205        204  
        73         74         85         84        194        195        206        205  
        74         75         86         85        195        196        207        206  
        75         76         87         86        196        197        208        207  
        76         77         88         87        197        198        209        208  
        78         79         90         89        199        200        211        210  
        79         80         91         90        200        201        212        211  
        80         81         92         91        201        202        213        212  
        81         82         93         92        202        203        214        213  
        82         83         94         93        203        204        215        214  
        83         84         95         94        204        205        216        215  
        84         85         96         95        205        206        217        216  
        85         86         97         96        206        207        218        217  
        86         87         98         97        207        208        219        218  
        87         88         99         98        208        209        220        219  
        89         90        101        100        210        211        222        221  
        90         91        102        101        211        212        223        222  
        91         92        103        102        212        213        224        223  
        92         93        104        103        213        214        225        224  
        93         94        105        104        214        215        226        225  
        94         95        106        105        215        216        227        226  
        95         96        107        106        216        217        228        227  
        96         97        108        107        217        218        229        228  
        97         98        109        108        218        219        230        229  
        98         99        110        109        219        220        231        230  
       100        101        112        111        221        222        233        232  
       101        102        113        112        222        223        234        233  
       102        103        114        113        223        224        235        234  
       103        104        115        114        224        225        236        235  
       104        105        116        115        225        226        237        236  
       105        106        117        116        226        227        238        237  
       106        107        118        117        227        228        239        238  
       107        108        119        118        228        229        240        239  
       108        109        120        119        229        230        241        240  
       109        110        121        120        230        231        242        241  
       122        123        134        133        243        244        255        254  
       123        124        135        134        244        245        256        255  
       124        125        136        135        245        246        257        256  
       125        126        137        136        246        247        258        257  
       126        127        138        137        247        248        259        258  
       127        128        139        138        248        249        260        259  
       128        129        140        139        249        250        261        260  
       129        130        141        140        250        251        262        261  
       130        131        142        141        251        252        263        262  
       131        132        143        142        252        253        264        263  
       133        134        145        144        254        255        266        265  
       134        135        146        145        255        256        267        266  
       135        136        147        146        256        257        268        267  
       136        137        148        147        257        258        269        268  
       137        138        149        148        258        259        270        269  
       138        139        150        149        259        260        271        270  
       139        140        151        150        260        261        272        271  
       140        141        152        151        261        262        273        272  
       141        142        153        152        262        263        274        273  
       142        143        154        153        263        264        275        274  
       144        145        156        155        265        266        277        276  
       145        146        157        156        266        267        278        277  
       146        147        158        157        267        268        279        278  
       147        148        159        158        268        269        280        279  
       148        149        160        159        269        270        281        280  
       149        150        161        160        270        271        282        281  
       150        151        162        161        271        272        283        282  
       151        152        163        162        272        273        284        283  
       152        153        164        163        273        274        285        284  
       153        154        165        164        274        275        286        285  
       155        156        167        166        276        277        288        287  
       156        157        168        167        277        278        289        288  
       157        158        169        168        278        279        290        289  
       158        159        170        169        279        280        291        290  
       159        160        171        170        280        281        292        291  
       160        161        172        171        281        282        293        292  
       161        162        173        172        282        283        294        293  
       162        163        174        173        283        284        295        294  
       163        164        175        174        284        285        296        295  
       164        165        176        175        285        286        297        296  
       166        167        178        177        287        288        299        298  
       167        168        179        178        288        289        300        299  
       168        169        180        179        289        290        301        300  
       169        170        181        180        290        291        302        301  
       170        171        182        181        291        292        303        302  
       171        172        183        182        292        293        304        303  
       172        173        184        183        293        294        305        304  
       173        174        185        184        294        295        306        305  
       174        175        186        185        295        296        307        306  
       175        176        187        186        296        297        308        307  
       177        178        189        188        298        299        310        309  
       178        179        190        189        299        300        311        310  
       179        180        191        190        300        301        312        311  
       180        181        192        191        301        302        313        312  
       181        182        193        192        302        303        314        313  
       182        183        194        193        303        304        315        314  
       183        184        195        194        304        305        316        315  
       184        185        196        195        305        306        317        316  
       185        186        197        196        306        307        318        317  
       186        187        198        197        307        308        319        318  
       188        189        200        199        309        310        321        320  
       189        190        201        200        310        311        322        321  
       190        191        202        201        311        312        323        322  
       191        192        203        202        312        313        324        323  
       192        193        204        203        313        314        325        324  
       193        194        205        204        314        315        326        325  
       194        195        206        205        315        316        327        326  
       195        196        207        206        316        317        328        327  
       196        197        208        207        317        318        329        328  
       197        198        209        208        318        319        330        329  
       199        200        211        210        320        321        332        331  
       200        201        212        211        321        322        333        332  
       201        202        213        212        322        323        334        333  
       202        203        214        213        323        324        335        334  
       203        204        215        214        324        325        336        335  
       204        205        216        215        325        326        337        336  
       205        206        217        216        326        327        338        337  
       206        207        218        217        327        328        339        338  
       207        208        219        218        328        329        340        339  
       208        209        220        219        329        330        341        340  
       210        211        222        221        331        332        343        342  
       211        212        223        222        332        333        344        343  
       212        213        224        223        333        334        345        344  
       213        214        225        224        334        335        346        345  
       214        215        226        225        335        336        347        346  
       215        216        227        226        336        337        348        347  
       216        217        228        227        337        338        349        348  
       217        218        229        228        338        339        350        349  
       218        219        230        229        339        340        351        350  
       219        220        231        230        340        341        352        351  
       221        222        233        232        342        343        354        353  
       222        223        234        233        343        344        355        354  
       223        224        235        234        344        345        356        355  
       224        225        236        235        345        346        357        356  
       225        226        237        236        346        347        358        357  
       226        227        238        237        347        348        359        358  
       227        228        239        238        348        349        360        359  
       228        229        240        239        349        350        361        360  
       229        230        241        240        350        351        362        361  
       230        231        242        241        351        352        363        362  
       243        244        255        254        364        365        376        375  
       244        245        256        255        365        366        377        376  
       245        246        257        256        366        367        378        377  
       246        247        258        257        367        368        379        378  
       247        248        259        258        368        369        380        379  
       248        249        260        259        369        370        381        380  
       249        250        261        260        370        371        382        381  
       250        251        262        261        371        372        383        382  
       251        252        263        262        372        373        384        383  
       252        253        264        263        373        374        385        384  
       254        255        266        265        375        376        387        386  
       255        256        267        266        376        377        388        387  
       256        257        268        267        377        378        389        388  
       257        258        269        268        378        379        390        389  
       258        259        270        269        379        380        391        390  
       259        260        271        270        380        381        392        391  
       260        261        272        271        381        382        393        392  
       261        262        273        272        382        383        394        393  
       262        263        274        273        383        384        395        394  
       263        264        275        274        384        385        396        395  
       265        266        277        276        386        387        398        397  
       266        267        278        277        387        388        399        398  
       267        268        279        278        388        389        400        399  
       268        269        280        279        389        390        401        400  
       269        270        281        280        390        391        402        401  
       270        271        282        281        391        392        403        402  
       271        272        283        282        392        393        404        403  
       272        273        284        283        393        394        405        404  
       273        274        285        284        394        395        406        405  
       274        275        286        285        395        396        407        406  
       276        277        288        287        397        398        409        408  
       277        278        289        288        398        399        410        409  
       278        279        290        289        399        400        411        410  
       279        280        291        290        400        401        412        411  
       280        281        292        291        401        402        413        412  
       281        282        293        292        402        403        414        413  
       282        283        294        293        403        404        415        414  
       283        284        295        294        404        405        416        415  
       284        285        296        295        405        406        417        416  
       285        286        297        296        406        407        418        417  
       287        288        299        298        408        409        420        419  
       288        289        300        299        409        410        421        420  
       289        290        301        300        410        411        422        421  
       290        291        302        301        411        412        423        422  
       291        292        303        302        412        413        424        423  
       292        293        304        303        413        414        425        424  
       293        294        305        304        414        415        426        425  
       294        295        306        305        415        416        427        426  
       295        296        307        306        416        417        428        427  
       296        297        308        307        417        418        429        428  
       298        299        310        309        419        420        431        430  
       299        300        311        310        420        421        432        431  
       300        301        312        311        421        422        433        432  
       301        302        313        312        422        423        434        433  
       302        303        314        313        423        424        435        434  
       303        304        315        314        424        425        436        435  
       304        305        316        315        425        426        437        436  
       305        306        317        316        426        427        438        437  
       306        307        318        317        427        428        439        438  
       307        308        319        318        428        429        440        439  
       309        310        321        320        430        431        442        441  
       310        311        322        321        431        432        443        442  
       311        312        323        322        432        433        444        443  
       312        313        324        323        433        434        445        444  
       313        314        325        324        434        435        446        445  
       314        315        326        325        435        436        447        446  
       315        316        327        326        436        437        448        447  
       316        317        328        327        437        438        449        448  
       317        318        329        328        438        439        450        449  
       318        319        330        329        439        440        451        450  
       320        321        332        331        441        442        453        452  
       321        322        333        332        442        443        454        453  
       322        323        334        333        443        444        455        454  
       323        324        335        334        444        445        456        455  
       324        325        336        335        445        446        457        456  
       325        326        337        336        446        447        458        457  
       326        327        338        337        447        448        459        458  
       327        328        339        338        448        449        460        459  
       328        329        340        339        449        450        461        460  
       329        330        341        340        450        451        462        461  
       331        332        343        342        452        453        464        463  
       332        333        344        343        453        454        465        464  
       333        334        345        344        454        455        466        465  
       334        335        346        345        455        456        467        466  
       335        336        347        346        456        457        468        467  
       336        337        348        347        457        458        469        468  
       337        338        349        348        458        459        470        469  
       338        339        350        349        459        460        471        470  
       339        340        351        350        460        461        472        471  
       340        341        352        351        461        462        473        472  
       342        343        354        353        463        464        475        474  
       343        344        355        354        464        465        476        475  
       344        345        356        355        465        466        477        476  
       345        346        357        356        466        467        478        477  
       346        347        358        357        467        468        479        478  
       347        348        359        358        468        469        480        479  
       348        349        360        359        469        470        481        480  
       349        350        361        360        470        471        482        481  
       350        351        362        361        471        472        483        482  
       351        352        363        362        472        473        484        483  
       364        365        376        375        485        486        497        496  
       365        366        377        376        486        487        498        497  
       366        367        378        377        487        488        499        498  
       367        368        379        378        488        489        500        499  
       368        369        380        379        489        490        501        500  
       369        370        381        380        490        491        502        501  
       370        371        382        381        491        492        503        502  
       371        372        383        382        492        493        504        503  
       372        373        384        383        493        494        505        504  
       373        374        385        384        494        495        506        505  
       375        376        387        386        496        497        508        507  
       376        377        388        387        497        498        509        508  
       377        378        389        388        498        499        510        509  
       378        379        390        389        499        500        511        510  
       379        380        391        390        500        501        512        511  
       380        381        392        391        501        502        513        512  
       381        382        393        392        502        503        514        513  
       382        383        394        393        503        504        515        514  
       383        384        395        394        504        505        516        515  
       384        385        396        395        505        506        517        516  
       386        387        398        397        507        508        519        518  
       387        388        399        398        508        509        520        519  
       388        389        400        399        509        510        521        520  
       389        390        401        400        510        511        522        521  
       390        391        402        401        511        512        523        522  
       391        392        403        402        512        513        524        523  
       392        393        404        403        513        514        525        524  
       393        394        405        404        514        515        526        525  
       394        395        406        405        515        516        527        526  
       395        396        407        406        516        517        528        527  
       397        398        409        408        518        519        530        529  
       398        399        410        409        519        520        531        530  
       399        400        411        410        520        521        532        531  
       400        401        412        411        521        522        533        532  
       401        402        413        412        522        523        534        533  
       402        403        414        413        523        524        535        534  
       403        404        415        414        524        525        536        535  
       404        405        416        415        525        526        537        536  
       405        406        417        416        526        527        538        537  
       406        407        418        417        527        528        539        538  
       408        409        420        419        529        530        541        540  
       409        410        421        420        530        531        542        541  
       410        411        422        421        531        532        543        542  
       411        412        423        422        532        533        544        543  
       412        413        424        423        533        534        545        544  
       413        414        425        424        534        535        546        545  
       414        415        426        425        535        536        547        546  
       415        416        427        426        536        537        548        547  
       416        417        428        427        537        538        549        548  
       417        418        429        428        538        539        550        549  
       419        420        431        430        540        541        552        551  
       420        421        432        431        541        542        553        552  
       421        422        433        432        542        543        554        553  
       422        423        434        433        543        544        555        554  
       423        424        435        434        544        545        556        555  
       424        425        436        435        545        546        557        556  
       425        426        437        436        546        547        558        557  
       426        427        438        437        547        548        559        558  
       427        428        439        438        548        549        560        559  
       428        429        440        439        549        550        561        560  
       430        431        442        441        551        552        563        562  
       431        432        443        442        552        553        564        563  
       432        433        444        443        553        554        565        564  
       433        434        445        444        554        555        566        565  
       434        435        446        445        555        556        567        566  
       435        436        447        446        556        557        568        567  
       436        437        448        447        557        558        569        568  
       437        438        449        448        558        559        570        569  
       438        439        450        449        559        560        571        570  
       439        440        451        450        560        561        572        571  
       441        442        453        452        562        563        574        573  
       442        443        454        453        563        564        575        574  
       443        444        455        454        564        565        576        575  
       444        445        456        455        565        566        577        576  
       445        446        457        456        566        567        578        577  
       446        447        458        457        567        568        579        578  
       447        448        459        458        568        569        580        579  
       448        449        460        459        569        570        581        580  
       449        450        461        460        570        571        582        581  
       450        451        462        461        571        572        583        582  
       452        453        464        463        573        574        585        584  
       453        454        465        464        574        575        586        585  
       454        455        466        465        575        576        587        586  
       455        456        467        466        576        577        588        587  
       456        457        468        467        577        578        589        588  
       457        458        469        468        578        579        590        589  
       458        459        470        469        579        580        591        590  
       459        460        471        470        580        581        592        591  
       460        461        472        471        581        582        593        592  
       461        462        473        472        582        583        594        593  
       463        464        475        474        584        585        596        595  
       464        465        476        475        585        586        597        596  
       465        466        477        476        586        587        598        597  
       466        467        478        477        587        588        599        598  
       467        468        479        478        588        589        600        599  
       468        469        480        479        589        590        601        600  
       469        470        481        480        590        591        602        601  
       470        471        482        481        591        592        603        602  
       471        472        483        482        592        593        604        603  
       472        473        484        483        593        594        605        604  
       485        486        497        496        606        607        618        617  
       486        487        498        497        607        608        619        618  
       487        488        499        498        608        609        620        619  
       488        489        500        499        609        610        621        620  
       489        490        501        500        610        611        622        621  
       490        491        502        501        611        612        623        622  
       491        492        503        502        612        613        624        623  
       492        493        504        503        613        614        625        624  
       493        494        505        504        614        615        626        625  
       494        495        506        505        615        616        627        626  
       496        497        508        507        617        618        629        628  
       497        498        509        508        618        619        630        629  
       498        499        510        509        619        620        631        630  
       499        500        511        510        620        621        632        631  
       500        501        512        511        621        622        633        632  
       501        502        513        512        622        623        634        633  
       502        503        514        513        623        624        635        634  
       503        504        515        514        624        625        636        635  
       504        505        516        515        625        626        637        636  
       505        506        517        516        626        627        638        637  
       507        508        519        518        628        629        640        639  
       508        509        520        519        629        630        641        640  
       509        510        521        520        630        631        642        641  
       510        511        522        521        631        632        643        642  
       511        512        523        522        632        633        644        643  
       512        513        524        523        633        634        645        644  
       513        514        525        524        634        635        646        645  
       514        515        526        525        635        636        647        646  
       515        516        527        526        636        637        648        647  
       516        517        528        527        637        638        649        648  
       518        519        530        529        639        640        651        650  
       519        520        531        530        640        641        652        651  
       520        521        532        531        641        642        653        652  
       521        522        533        532        642        643        654        653  
       522        523        534        533        643        644        655        654  
       523        524        535        534        644        645        656        655  
       524        525        536        535        645        646        657        656  
       525        526        537        536        646        647        658        657  
       526        527        538        537        647        648        659        658  
       527        528        539        538        648        649        660        659  
       529        530        541        540        650        651        662        661  
       530        531        542        541        651        652        663        662  
       531        532        543        542        652        653        664        663  
       532        533        544        543        653        654        665        664  
       533        534        545        544        654        655        666        665  
       534        535        546        545        655        656        667        666  
       535        536        547        546        656        657        668        667  
       536        537        548        547        657        658        669        668  
       537        538        549        548        658        659        670        669  
       538        539        550        549        659        660        671        670  
       540        541        552        551        661        662        673        672  
       541        542        553        552        662        663        674        673  
       542        543        554        553        663        664        675        674  
       543        544        555        554        664        665        676        675  
       544        545        556        555        665        666        677        676  
       545        546        557        556        666        667        678        677  
       546        547        558        557        667        668        679        678  
       547        548        559        558        668        669        680        679  
       548        549        560        559        669        670        681        680  
       549        550        561        560        670        671        682        681  
       551        552        563        562        672        673        684        683  
       552        553        564        563        673        674        685        684  
       553        554        565        564        674        675        686        685  
       554        555        566        565        675        676        687        686  
       555        556        567        566        676        677        688        687  
       556        557        568        567        677        678        689        688  
       557        558        569        568        678        679        690        689  
       558        559        570        569        679        680        691        690  
       559        560        571        570        680        681        692        691  
       560        561        572        571        681        682        693        692  
       562        563        574        573        683        684        695        694  
       563        564        575        574        684        685        696        695  
       564        565        576        575        685        686        697        696  
       565        566        577        576        686        687        698        697  
       566        567        578        577        687        688        699        698  
       567        568        579        578        688        689        700        699  
       568        569        580        579        689        690        701        700  
       569        570        581        580        690        691        702        701  
       570        571        582        581        691        692        703        702  
       571        572        583        582        692        693        704        703  
       573        574        585        584        694        695        706        705  
       574        575        586        585        695        696        707        706  
       575        576        587        586        696        697        708        707  
       576        577        588        587        697        698        709        708  
       577        578        589        588        698        699        710        709  
       578        579        590        589        699        700        711        710  
       579        580        591        590        700        701        712        711  
       580        581        592        591        701        702        713        712  
       581        582        593        592        702        703        714        713  
       582        583        594        593        703        704        715        714  
       584        585        596        595        705        706        717        716  
       585        586        597        596        706        707        718        717  
       586        587        598        597        707        708        719        718  
       587        588        599        598        708        709        720        719  
       588        589        600        599        709        710        721        720  
       589        590        601        600        710        711        722        721  
       590        591        602        601        711        712        723        722  
       591        592        603        602        712        713        724        723  
       592        593        604        603        713        714        725        724  
       593        594        605        604        714        715        726        725  
       606        607        618        617        727        728        739        738  
       607        608        619        618        728        729        740        739  
       608        609        620        619        729        730        741        740  
       609        610        621        620        730        731        742        741  
       610        611        622        621        731        732        743        742  
       611        612        623        622        732        733        744        743  
       612        613        624        623        733        734        745        744  
       613        614        625        624        734        735        746        745  
       614        615        626        625        735        736        747        746  
       615        616        627        626        736        737        748        747  
       617        618        629        628        738        739        750        749  
       618        619        630        629        739        740        751        750  
       619        620        631        630        740        741        752        751  
       620        621        632        631        741        742        753        752  
       621        622        633        632        742        743        754        753  
       622        623        634        633        743        744        755        754  
       623        624        635        634        744        745        756        755  
       624        625        636        635        745        746        757        756  
       625        626        637        636        746        747        758        757  
       626        627        638        637        747        748        759        758  
       628        629        640        639        749        750        761        760  
       629        630        641        640        750        751        762        761  
       630        631        642        641        751        752        763        762  
       631        632        643        642        752        753        764        763  
       632        633        644        643        753        754        765        764  
       633        634        645        644        754        755        766        765  
       634        635        646        645        755        756        767        766  
       635        636        647        646        756        757        768        767  
       636        637        648        647        757        758        769        768  
       637        638        649        648        758        759        770        769  
       639        640        651        650        760        761        772        771  
       640        641        652        651        761        762        773        772  
       641        642        653        652        762        763        774        773  
       642        643        654        653        763        764        775        774  
       643        644        655        654        764        765        776        775  
       644        645        656        655        765        766        777        776  
       645        646        657        656        766        767        778        777  
       646        647        658        657        767        768        779        778  
       647        648        659        658        768        769        780        779  
       648        649        660        659        769        770        781        780  
       650        651        662        661        771        772        783        782  
       651        652        663        662        772        773        784        783  
       652        653        664        663        773        774        785        784  
       653        654        665        664        774        775        786        785  
       654        655        666        665        775        776        787        786  
       655        656        667        666        776        777        788        787  
       656        657        668        667        777        778        789        788  
       657        658        669        668        778        779        790        789  
       658        659        670        669        779        780        791        790  
       659        660        671        670        780        781        792        791  
       661        662        673        672        782        783        794        793  
       662        663        674        673        783        784        795        794  
       663        664        675        674        784        785        796        795  
       664        665        676        675        785        786        797        796  
       665        666        677        676        786        787        798        797  
       666        667        678        677        787        788        799        798  
       667        668        679        678        788        789        800        799  
       668        669        680        679        789        790        801        800  
       669        670        681        680        790        791        802        801  
       670        671        682        681        791        792        803        802  
       672        673        684        683        793        794        805        804  
       673        674        685        684        794        795        806        805  
       674        675        686        685        795        796        807        806  
       675        676        687        686        796        797        808        807  
       676        677        688        687        797        798        809        808  
       677        678        689        688        798        799        810        809  
       678        679        690        689        799        800        811        810  
       679        680        691        690        800        801        812        811  
       680        681        692        691        801        802        813        812  
       681        682        693        692        802        803        814        813  
       683        684        695        694        804        805        816        815  
       684        685        696        695        805        806        817        816  
       685        686        697        696        806        807        818        817  
       686        687        698        697        807        808        819        818  
       687        688        699        698        808        809        820        819  
       688        689        700        699        809        810        821        820  
       689        690        701        700        810        811        822        821  
       690        691        702        701        811        812        823        822  
       691        692        703        702        812        813        824        823  
       692        693        704        703        813        814        825        824  
       694        695        706        705        815        816        827        826  
       695        696        707        706        816        817        828        827  
       696        697        708        707        817        818        829        828  
       697        698        709        708        818        819        830        829  
       698        699        710        709        819        820        831        830  
       699        700        711        710        820        821        832        831  
       700        701        712        711        821        822        833        832  
       701        702        713        712        822        823        834        833  
       702        703        714        713        823        824        835        834  
       703        704        715        714        824        825        836        835  
       705        706        717        716        826        827        838        837  
       706        707        718        717        827        828        839        838  
       707        708        719        718        828        829        840        839  
       708        709        720        719        829        830        841        840  
       709        710        721        720        830        831        842        841  
       710        711        722        721        831        832        843        842  
       711        712        723        722        832        833        844        843  
       712        713        724        723        833        834        845        844  
       713        714        725        724        834        835        846        845  
       714        715        726        725        835        836        847        846  
       727        728        739        738        848        849        860        859  
       728        729        740        739        849        850        861        860  
       729        730        741        740        850        851        862        861  
       730        731        742        741        851        852        863        862  
       731        732        743        742        852        853        864        863  
       732        733        744        743        853        854        865        864  
       733        734        745        744        854        855        866        865  
       734        735        746        745        855        856        867        866  
       735        736        747        746        856        857        868        867  
       736        737        748        747        857        858        869        868  
       738        739        750        749        859        860        871        870  
       739        740        751        750        860        861        872        871  
       740        741        752        751        861        862        873        872  
       741        742        753        752        862        863        874        873  
       742        743        754        753        863        864        875        874  
       743        744        755        754        864        865        876        875  
       744        745        756        755        865        866        877        876  
       745        746        757        756        866        867        878        877  
       746        747        758        757        867        868        879        878  
       747        748        759        758        868        869        880        879  
       749        750        761        760        870        871        882        881  
       750        751        762        761        871        872        883        882  
       751        752        763        762        872        873        884        883  
       752        753        764        763        873        874        885        884  
       753        754        765        764        874        875        886        885  
       754        755        766        765        875        876        887        886  
       755        756        767        766        876        877        888        887  
       756        757        768        767        877        878        889        888  
       757        758        769        768        878        879        890        889  
       758        759        770        769        879        880        891        890  
       760        761        772        771        881        882        893        892  
       761        762        773        772        882        883        894        893  
       762        763        774        773        883        884        895        894  
       763        764        775        774        884        885        896        895  
       764        765        776        775        885        886        897        896  
       765        766        777        776        886        887        898        897  
       766        767        778        777        887        888        899        898  
       767        768        779        778        888        889        900        899  
       768        769        780        779        889        890        901        900  
       769        770        781        780        890        891        902        901  
       771        772        783        782        892        893        904        903  
       772        773        784        783        893        894        905        904  
       773        774        785        784        894        895        906        905  
       774        775        786        785        895        896        907        906  
       775        776        787        786        896        897        908        907  
       776        777        788        787        897        898        909        908  
       777        778        789        788        898        899        910        909  
       778        779        790        789        899        900        911        910  
       779        780        791        790        900        901        912        911  
       780        781        792        791        901        902        913        912  
       782        783        794        793        903        904        915        914  
       783        784        795        794        904        905        916        915  
       784        785        796        795        905        906        917        916  
       785        786        797        796        906        907        918        917  
       786        787        798        797        907        908        919        918  
       787        788        799        798        908        909        920        919  
       788        789        800        799        909        910        921        920  
       789        790        801        800        910        911        922        921  
       790        791        802        801        911        912        923        922  
       791        792        803        802        912        913        924        923  
       793        794        805        804        914        915        926        925  
       794        795        806        805        915        916        927        926  
       795        796        807        806        916        917        928        927  
       796        797        808        807        917        918        929        928  
       797        798        809        808        918        919        930        929  
       798        799        810        809        919        920        931        930  
       799        800        811        810        920        921        932        931  
       800        801        812        811        921        922        933        932  
       801        802        813        812        922        923        934        933  
       802        803        814        813        923        924        935        934  
       804        805        816        815        925        926        937        936  
       805        806        817        816        926        927        938        937  
       806        807        818        817        927        928        939        938  
       807        808        819        818        928        929        940        939  
       808        809        820        819        929        930        941        940  
       809        810        821        820        930        931        942        941  
       810        811        822        821        931        932        943        942  
       811        812        823        822        932        933        944        943  
       812        813        824        823        933        934        945        944  
       813        814        825        824        934        935        946        945  
       815        816        827        826        936        937        948        947  
       816        817        828        827        937        938        949        948  
       817        818        829        828        938        939        950        949  
       818        819        830        829        939        940        951        950  
       819        820        831        830        940        941        952        951  
       820        821        832        831        941        942        953        952  
       821        822        833        832        942        943        954        953  
       822        823        834        833        943        944        955        954  
       823        824        835        834        944        945        956        955  
       824        825        836        835        945        946        957        956  
       826        827        838        837        947        948        959        958  
       827        828        839        838        948        949        960        959  
       828        829        840        839        949        950        961        960  
       829        830        841        840        950        951        962        961  
       830        831        842        841        951        952        963        962  
       831        832        843        842        952        953        964        963  
       832        833        844        843        953        954        965        964  
       833        834        845        844        954        955        966        965  
       834        835        846        845        955        956        967        966  
       835        836        847        846        956        957        968        967  
       848        849        860        859        969        970        981        980  
       849        850        861        860        970        971        982        981  
       850        851        862        861        971        972        983        982  
       851        852        863        862        972        973        984        983  
       852        853        864        863        973        974        985        984  
       853        854        865        864        974        975        986        985  
       854        855        866        865        975        976        987        986  
       855        856        867        866        976        977        988        987  
       856        857        868        867        977        978        989        988  
       857        858        869        868        978        979        990        989  
       859        860        871        870        980        981        992        991  
       860        861        872        871        981        982        993        992  
       861        862        873        872        982        983        994        993  
       862        863        874        873        983        984        995        994  
       863        864        875        874        984        985        996        995  
       864        865        876        875        985        986        997        996  
       865        866        877        876        986        987        998        997  
       866        867        878        877        987        988        999        998  
       867        868        879        878        988        989       1000        999  
       868        869        880        879        989        990       1001       1000  
       870        871        882        881        991        992       1003       1002  
       871        872        883        882        992        993       1004       1003  
       872        873        884        883        993        994       1005       1004  
       873        874        885        884        994        995       1006       1005  
       874        875        886        885        995        996       1007       1006  
       875        876        887        886        996        997       1008       1007  
       876        877        888        887        997        998       1009       1008  
       877        878        889        888        998        999       1010       1009  
       878        879        890        889        999       1000       1011       1010  
       879        880        891        890       1000       1001       1012       1011  
       881        882        893        892       1002       1003       1014       1013  
       882        883        894        893       1003       1004       1015       1014  
       883        884        895        894       1004       1005       1016       1015  
       884        885        896        895       1005       1006       1017       1016  
       885        886        897        896       1006       1007       1018       1017  
       886        887        898        897       1007       1008       1019       1018  
       887        888        899        898       1008       1009       1020       1019  
       888        889        900        899       1009       1010       1021       1020  
       889        890        901        900       1010       1011       1022       1021  
       890        891        902        901       1011       1012       1023       1022  
       892        893        904        903       1013       1014       1025       1024  
       893        894        905        904       1014       1015       1026       1025  
       894        895        906        905       1015       1016       1027       1026  
       895        896        907        906       1016       1017       1028       1027  
       896        897        908        907       1017       1018       1029       1028  
       897        898        909        908       1018       1019       1030       1029  
       898        899        910        909       1019       1020       1031       1030  
       899        900        911        910       1020       1021       1032       1031  
       900        901        912        911       1021       1022       1033       1032  
       901        902        913        912       1022       1023       1034       1033  
       903        904        915        914       1024       1025       1036       1035  
       904        905        916        915       1025       1026       1037       1036  
       905        906        917        916       1026       1027       1038       1037  
       906        907        918        917       1027       1028       1039       1038  
       907        908        919        918       1028       1029       1040       1039  
       908        909        920        919       1029       1030       1041       1040  
       909        910        921        920       1030       1031       1042       1041  
       910        911        922        921       1031       1032       1043       1042  
       911        912        923        922       1032       1033       1044       1043  
       912        913        924        923       1033       1034       1045       1044  
       914        915        926        925       1035       1036       1047       1046  
       915        916        927        926       1036       1037       1048       1047  
       916        917        928        927       1037       1038       1049       1048  
       917        918        929        928       1038       1039       1050       1049  
       918        919        930        929       1039       1040       1051       1050  
       919        920        931        930       1040       1041       1052       1051  
       920        921        932        931       1041       1042       1053       1052  
       921        922        933        932       1042       1043       1054       1053  
       922        923        934        933       1043       1044       1055       1054  
       923        924        935        934       1044       1045       1056       1055  
       925        926        937        936       1046       1047       1058       1057  
       926        927        938        937       1047       1048       1059       1058  
       927        928        939        938       1048       1049       1060       1059  
       928        929        940        939       1049       1050       1061       1060  
       929        930        941        940       1050       1051       1062       1061  
       930        931        942        941       1051       1052       1063       1062  
       931        932        943        942       1052       1053       1064       1063  
       932        933        944        943       1053       1054       1065       1064  
       933        934        945        944       1054       1055       1066       1065  
       934        935        946        945       1055       1056       1067       1066  
       936        937        948        947       1057       1058       1069       1068  
       937        938        949        948       1058       1059       1070       1069  
       938        939        950        949       1059       1060       1071       1070  
       939        940        951        950       1060       1061       1072       1071  
       940        941        952        951       1061       1062       1073       1072  
       941        942        953        952       1062       1063       1074       1073  
       942        943        954        953       1063       1064       1075       1074  
       943        944        955        954       1064       1065       1076       1075  
       944        945        956        955       1065       1066       1077       1076  
       945        946        957        956       1066       1067       1078       1077  
       947        948        959        958       1068       1069       1080       1079  
       948        949        960        959       1069       1070       1081       1080  
       949        950        961        960       1070       1071       1082       1081  
       950        951        962        961       1071       1072       1083       1082  
       951        952        963        962       1072       1073       1084       1083  
       952        953        964        963       1073       1074       1085       1084  
       953        954        965        964       1074       1075       1086       1085  
       954        955        966        965       1075       1076       1087       1086  
       955        956        967        966       1076       1077       1088       1087  
       956        957        968        967       1077       1078       1089       1088  
       969        970        981        980       1090       1091       1102       1101  
       970        971        982        981       1091       1092       1103       1102  
       971        972        983        982       1092       1093       1104       1103  
       972        973        984        983       1093       1094       1105       1104  
       973        974        985        984       1094       1095       1106       1105  
       974        975        986        985       1095       1096       1107       1106  
       975        976        987        986       1096       1097       1108       1107  
       976        977        988        987       1097       1098       1109       1108  
       977        978        989        988       1098       1099       1110       1109  
       978        979        990        989       1099       1100       1111       1110  
       980        981        992        991       1101       1102       1113       1112  
       981        982        993        992       1102       1103       1114       1113  
       982        983        994        993       1103       1104       1115       1114  
       983        984        995        994       1104       1105       1116       1115  
       984        985        996        995       1105       1106       1117       1116  
       985        986        997        996       1106       1107       1118       1117  
       986        987        998        997       1107       1108       1119       1118  
       987        988        999        998       1108       1109       1120       1119  
       988        989       1000        999       1109       1110       1121       1120  
       989        990       1001       1000       1110       1111       1122       1121  
       991        992       1003       1002       1112       1113       1124       1123  
       992        993       1004       1003       1113       1114       1125       1124  
       993        994       1005       1004       1114       1115       1126       1125  
       994        995       1006       1005       1115       1116       1127       1126  
       995        996       1007       1006       1116       1117       1128       1127  
       996        997       1008       1007       1117       1118       1129       1128  
       997        998       1009       1008       1118       1119       1130       1129  
       998        999       1010       1009       1119       1120       1131       1130  
       999       1000       1011       1010       1120       1121       1132       1131  
      1000       1001       1012       1011       1121       1122       1133       1132  
      1002       1003       1014       1013       1123       1124       1135       1134  
      1003       1004       1015       1014       1124       1125       1136       1135  
      1004       1005       1016       1015       1125       1126       1137       1136  
      1005       1006       1017       1016       1126       1127       1138       1137  
      1006       1007       1018       1017       1127       1128       1139       1138  
      1007       1008       1019       1018       1128       1129       1140       1139  
      1008       1009       1020       1019       1129       1130       1141       1140  
      1009       1010       1021       1020       1130       1131       1142       1141  
      1010       1011       1022       1021       1131       1132       1143       1142  
      1011       1012       1023       1022       1132       1133       1144       1143  
      1013       1014       1025       1024       1134       1135       1146       1145  
      1014       1015       1026       1025       1135       1136       1147       1146  
      1015       1016       1027       1026       1136       1137       1148       1147  
      1016       1017       1028       1027       1137       1138       1149       1148  
      1017       1018       1029       1028       1138       1139       1150       1149  
      1018       1019       1030       1029       1139       1140       1151       1150  
      1019       1020       1031       1030       1140       1141       1152       1151  
      1020       1021       1032       1031       1141       1142       1153       1152  
      1021       1022       1033       1032       1142       1143       1154       1153  
      1022       1023       1034       1033       1143       1144       1155       1154  
      1024       1025       1036       1035       1145       1146       1157       1156  
      1025       1026       1037       1036       1146       1147       1158       1157  
      1026       1027       1038       1037       1147       1148       1159       1158  
      1027       1028       1039       1038       1148       1149       1160       1159  
      1028       1029       1040       1039       1149       1150       1161       1160  
      1029       1030       1041       1040       1150       1151       1162       1161  
      1030       1031       1042       1041       1151       1152       1163       1162  
      1031       1032       1043       1042       1152       1153       1164       1163  
      1032       1033       1044       1043       1153       1154       1165       1164  
      1033       1034       1045       1044       1154       1155       1166       1165  
      1035       1036       1047       1046       1156       1157       1168       1167  
      1036       1037       1048       1047       1157       1158       1169       1168  
      1037       1038       1049       1048       1158       1159       1170       1169  
      1038       1039       1050       1049       1159       1160       1171       1170  
      1039       1040       1051       1050       1160       1161       1172       1171  
      1040       1041       1052       1051       1161       1162       1173       1172  
      1041       1042       1053       1052       1162       1163       1174       1173  
      1042       1043       1054       1053       1163       1164       1175       1174  
      1043       1044       1055       1054       1164       1165       1176       1175  
      1044       1045       1056       1055       1165       1166       1177       1176  
      1046       1047       1058       1057       1167       1168       1179       1178  
      1047       1048       1059       1058       1168       1169       1180       1179  
      1048       1049       1060       1059       1169       1170       1181       1180  
      1049       1050       1061       1060       1170       1171       1182       1181  
      1050       1051       1062       1061       1171       1172       1183       1182  
      1051       1052       1063       1062       1172       1173       1184       1183  
      1052       1053       1064       1063       1173       1174       1185       1184  
      1053       1054       1065       1064       1174       1175       1186       1185  
      1054       1055       1066       1065       1175       1176       1187       1186  
      1055       1056       1067       1066       1176       1177       1188       1187  
      1057       1058       1069       1068       1178       1179       1190       1189  
      1058       1059       1070       1069       1179       1180       1191       1190  
      1059       1060       1071       1070       1180       1181       1192       1191  
      1060       1061       1072       1071       1181       1182       1193       1192  
      1061       1062       1073       1072       1182       1183       1194       1193  
      1062       1063       1074       1073       1183       1184       1195       1194  
      1063       1064       1075       1074       1184       1185       1196       1195  
      1064       1065       1076       1075       1185       1186       1197       1196  
      1065       1066       1077       1076       1186       1187       1198       1197  
      1066       1067       1078       1077       1187       1188       1199       1198  
      1068       1069       1080       1079       1189       1190       1201       1200  
      1069       1070       1081       1080       1190       1191       1202       1201  
      1070       1071       1082       1081       1191       1192       1203       1202  
      1071       1072       1083       1082       1192       1193       1204       1203  
      1072       1073       1084       1083       1193       1194       1205       1204  
      1073       1074       1085       1084       1194       1195       1206       1205  
      1074       1075       1086       1085       1195       1196       1207       1206  
      1075       1076       1087       1086       1196       1197       1208       1207  
      1076       1077       1088       1087       1197       1198       1209       1208  
      1077       1078       1089       1088       1198       1199       1210       1209  
      1090       1091       1102       1101       1211       1212       1223       1222  
      1091       1092       1103       1102       1212       1213       1224       1223  
      1092       1093       1104       1103       1213       1214       1225       1224  
      1093       1094       1105       1104       1214       1215       1226       1225  
      1094       1095       1106       1105       1215       1216       1227       1226  
      1095       1096       1107       1106       1216       1217       1228       1227  
      1096       1097       1108       1107       1217       1218       1229       1228  
      1097       1098       1109       1108       1218       1219       1230       1229  
      1098       1099       1110       1109       1219       1220       1231       1230  
      1099       1100       1111       1110       1220       1221       1232       1231  
      1101       1102       1113       1112       1222       1223       1234       1233  
      1102       1103       1114       1113       1223       1224       1235       1234  
      1103       1104       1115       1114       1224       1225       1236       1235  
      1104       1105       1116       1115       1225       1226       1237       1236  
      1105       1106       1117       1116       1226       1227       1238       1237  
      1106       1107       1118       1117       1227       1228       1239       1238  
      1107       1108       1119       1118       1228       1229       1240       1239  
      1108       1109       1120       1119       1229       1230       1241       1240  
      1109       1110       1121       1120       1230       1231       1242       1241  
      1110       1111       1122       1121       1231       1232       1243       1242  
      1112       1113       1124       1123       1233       1234       1245       1244  
      1113       1114       1125       1124       1234       1235       1246       1245  
      1114       1115       1126       1125       1235       1236       1247       1246  
      1115       1116       1127       1126       1236       1237       1248       1247  
      1116       1117       1128       1127       1237       1238       1249       1248  
      1117       1118       1129       1128       1238       1239       1250       1249  
      1118       1119       1130       1129       1239       1240       1251       1250  
      1119       1120       1131       1130       1240       1241       1252       1251  
      1120       1121       1132       1131       1241       1242       1253       1252  
      1121       1122       1133       1132       1242       1243       1254       1253  
      1123       1124       1135       1134       1244       1245       1256       1255  
      1124       1125       1136       1135       1245       1246       1257       1256  
      1125       1126       1137       1136       1246       1247       1258       1257  
      1126       1127       1138       1137       1247       1248       1259       1258  
      1127       1128       1139       1138       1248       1249       1260       1259  
      1128       1129       1140       1139       1249       1250       1261       1260  
      1129       1130       1141       1140       1250       1251       1262       1261  
      1130       1131       1142       1141       1251       1252       1263       1262  
      1131       1132       1143       1142       1252       1253       1264       1263  
      1132       1133       1144       1143       1253       1254       1265       1264  
      1134       1135       1146       1145       1255       1256       1267       1266  
      1135       1136       1147       1146       1256       1257       1268       1267  
      1136       1137       1148       1147       1257       1258       1269       1268  
      1137       1138       1149       1148       1258       1259       1270       1269  
      1138       1139       1150       1149       1259       1260       1271       1270  
      1139       1140       1151       1150       1260       1261       1272       1271  
      1140       1141       1152       1151       1261       1262       1273       1272  
      1141       1142       1153       1152       1262       1263       1274       1273  
      1142       1143       1154       1153       1263       1264       1275       1274  
      1143       1144       1155       1154       1264       1265       1276       1275  
      1145       1146       1157       1156       1266       1267       1278       1277  
      1146       1147       1158       1157       1267       1268       1279       1278  
      1147       1148       1159       1158       1268       1269       1280       1279  
      1148       1149       1160       1159       1269       1270       1281       1280  
      1149       1150       1161       1160       1270       1271       1282       1281  
      1150       1151       1162       1161       1271       1272       1283       1282  
      1151       1152       1163       1162       1272       1273       1284       1283  
      1152       1153       1164       1163       1273       1274       1285       1284  
      1153       1154       1165       1164       1274       1275       1286       1285  
      1154       1155       1166       1165       1275       1276       1287       1286  
      1156       1157       1168       1167       1277       1278       1289       1288  
      1157       1158       1169       1168       1278       1279       1290       1289  
      1158       1159       1170       1169       1279       1280       1291       1290  
      1159       1160       1171       1170       1280       1281       1292       1291  
      1160       1161       1172       1171       1281       1282       1293       1292  
      1161       1162       1173       1172       1282       1283       1294       1293  
      1162       1163       1174       1173       1283       1284       1295       1294  
      1163       1164       1175       1174       1284       1285       1296       1295  
      1164       1165       1176       1175       1285       1286       1297       1296  
      1165       1166       1177       1176       1286       1287       1298       1297  
      1167       1168       1179       1178       1288       1289       1300       1299  
      1168       1169       1180       1179       1289       1290       1301       1300  
      1169       1170       1181       1180       1290       1291       1302       1301  
      1170       1171       1182       1181       1291       1292       1303       1302  
      1171       1172       1183       1182       1292       1293       1304       1303  
      1172       1173       1184       1183       1293       1294       1305       1304  
      1173       1174       1185       1184       1294       1295       1306       1305  
      1174       1175       1186       1185       1295       1296       1307       1306  
      1175       1176       1187       1186       1296       1297       1308       1307  
      1176       1177       1188       1187       1297       1298       1309       1308  
      1178       1179       1190       1189       1299       1300       1311       1310  
      1179       1180       1191       1190       1300       1301       1312       1311  
      1180       1181       1192       1191       1301       1302       1313       1312  
      1181       1182       1193       1192       1302       1303       1314       1313  
      1182       1183       1194       1193       1303       1304       1315       1314  
      1183       1184       1195       1194       1304       1305       1316       1315  
      1184       1185       1196       1195       1305       1306       1317       1316  
      1185       1186       1197       1196       1306       1307       1318       1317  
      1186       1187       1198       1197       1307       1308       1319       1318  
      1187       1188       1199       1198       1308       1309       1320       1319  
      1189       1190       1201       1200       1310       1311       1322       1321  
      1190       1191       1202       1201       1311       1312       1323       1322  
      1191       1192       1203       1202       1312       1313       1324       1323  
      1192       1193       1204       1203       1313       1314       1325       1324  
      1193       1194       1205       1204       1314       1315       1326       1325  
      1194       1195       1206       1205       1315       1316       1327       1326  
      1195       1196       1207       1206       1316       1317       1328       1327  
      1196       1197       1208       1207       1317       1318       1329       1328  
      1197       1198       1209       1208       1318       1319       1330       1329  
      1198       1199       1210       1209       1319       1320       1331       1330  
      1211       1212       1223       1222       1332       1333       1344       1343  
      1212       1213       1224       1223       1333       1334       1345       1344  
      1213       1214       1225       1224       1334       1335       1346       1345  
      1214       1215       1226       1225       1335       1336       1347       1346  
      1215       1216       1227       1226       1336       1337       1348       1347  
      1216       1217       1228       1227       1337       1338       1349       1348  
      1217       1218       1229       1228       1338       1339       1350       1349  
      1218       1219       1230       1229       1339       1340       1351       1350  
      1219       1220       1231       1230       1340       1341       1352       1351  
      1220       1221       1232       1231       1341       1342       1353       1352  
      1222       1223       1234       1233       1343       1344       1355       1354  
      1223       1224       1235       1234       1344       1345       1356       1355  
      1224       1225       1236       1235       1345       1346       1357       1356  
      1225       1226       1237       1236       1346       1347       1358       1357  
      1226       1227       1238       1237       1347       1348       1359       1358  
      1227       1228       1239       1238       1348       1349       1360       1359  
      1228       1229       1240       1239       1349       1350       1361       1360  
      1229       1230       1241       1240       1350       1351       1362       1361  
      1230       1231       1242       1241       1351       1352       1363       1362  
      1231       1232       1243       1242       1352       1353       1364       1363  
      1233       1234       1245       1244       1354       1355       1366       1365  
      1234       1235       1246       1245       1355       1356       1367       1366  
      1235       1236       1247       1246       1356       1357       1368       1367  
      1236       1237       1248       1247       1357       1358       1369       1368  
      1237       1238       1249       1248       1358       1359       1370       1369  
      1238       1239       1250       1249       1359       1360       1371       1370  
      1239       1240       1251       1250       1360       1361       1372       1371  
      1240       1241       1252       1251       1361       1362       1373       1372  
      1241       1242       1253       1252       1362       1363       1374       1373  
      1242       1243       1254       1253       1363       1364       1375       1374  
      1244       1245       1256       1255       1365       1366       1377       1376  
      1245       1246       1257       1256       1366       1367       1378       1377  
      1246       1247       1258       1257       1367       1368       1379       1378  
      1247       1248       1259       1258       1368       1369       1380       1379  
      1248       1249       1260       1259       1369       1370       1381       1380  
      1249       1250       1261       1260       1370       1371       1382       1381  
      1250       1251       1262       1261       1371       1372       1383       1382  
      1251       1252       1263       1262       1372       1373       1384       1383  
      1252       1253       1264       1263       1373       1374       1385       1384  
      1253       1254       1265       1264       1374       1375       1386       1385  
      1255       1256       1267       1266       1376       1377       1388       1387  
      1256       1257       1268       1267       1377       1378       1389       1388  
      1257       1258       1269       1268       1378       1379       1390       1389  
      1258       1259       1270       1269       1379       1380       1391       1390  
      1259       1260       1271       1270       1380       1381       1392       1391  
      1260       1261       1272       1271       1381       1382       1393       1392  
      1261       1262       1273       1272       1382       1383       1394       1393  
      1262       1263       1274       1273       1383       1384       1395       1394  
      1263       1264       1275       1274       1384       1385       1396       1395  
      1264       1265       1276       1275       1385       1386       1397       1396  
      1266       1267       1278       1277       1387       1388       1399       1398  
      1267       1268       1279       1278       1388       1389       1400       1399  
      1268       1269       1280       1279       1389       1390       1401       1400  
      1269       1270       1281       1280       1390       1391       1402       1401  
      1270       1271       1282       1281       1391       1392       1403       1402  
      1271       1272       1283       1282       1392       1393       1404       1403  
      1272       1273       1284       1283       1393       1394       1405       1404  
      1273       1274       1285       1284       1394       1395       1406       1405  
      1274       1275       1286       1285       1395       1396       1407       1406  
      1275       1276       1287       1286       1396       1397       1408       1407  
      1277       1278       1289       1288       1398       1399       1410       1409  
      1278       1279       1290       1289       1399       1400       1411       1410  
      1279       1280       1291       1290       1400       1401       1412       1411  
      1280       1281       1292       1291       1401       1402       1413       1412  
      1281       1282       1293       1292       1402       1403       1414       1413  
      1282       1283       1294       1293       1403       1404       1415       1414  
      1283       1284       1295       1294       1404       1405       1416       1415  
      1284       1285       1296       1295       1405       1406       1417       1416  
      1285       1286       1297       1296       1406       1407       1418       1417  
      1286       1287       1298       1297       1407       1408       1419       1418  
      1288       1289       1300       1299       1409       1410       1421       1420  
      1289       1290       1301       1300       1410       1411       1422       1421  
      1290       1291       1302       1301       1411       1412       1423       1422  
      1291       1292       1303       1302       1412       1413       1424       1423  
      1292       1293       1304       1303       1413       1414       1425       1424  
      1293       1294       1305       1304       1414       1415       1426       1425  
      1294       1295       1306       1305       1415       1416       1427       1426  
      1295       1296       1307       1306       1416       1417       1428       1427  
      1296       1297       1308       1307       1417       1418       1429       1428  
      1297       1298       1309       1308       1418       1419       1430       1429  
      1299       1300       1311       1310       1420       1421       1432       1431  
      1300       1301       1312       1311       1421       1422       1433       1432  
      1301       1302       1313       1312       1422       1423       1434       1433  
      1302       1303       1314       1313       1423       1424       1435       1434  
      1303       1304       1315       1314       1424       1425       1436       1435  
      1304       1305       1316       1315       1425       1426       1437       1436  
      1305       1306       1317       1316       1426       1427       1438       1437  
      1306       1307       1318       1317       1427       1428       1439       1438  
      1307       1308       1319       1318       1428       1429       1440       1439  
      1308       1309       1320       1319       1429       1430       1441       1440  
      1310       1311       1322       1321       1431       1432       1443       1442  
      1311       1312       1323       1322       1432       1433       1444       1443  
      1312       1313       1324       1323       1433       1434       1445       1444  
      1313       1314       1325       1324       1434       1435       1446       1445  
      1314       1315       1326       1325       1435       1436       1447       1446  
      1315       1316       1327       1326       1436       1437       1448       1447  
      1316       1317       1328       1327       1437       1438       1449       1448  
      1317       1318       1329       1328       1438       1439       1450       1449  
      1318       1319       1330       1329       1439       1440       1451       1450  
      1319       1320       1331       1330       1440       1441       1452       1451  
      1332       1333       1344       1343       1453       1454       1465       1464  
      1333       1334       1345       1344       1454       1455       1466       1465  
      1334       1335       1346       1345       1455       1456       1467       1466  
      1335       1336       1347       1346       1456       1457       1468       1467  
      1336       1337       1348       1347       1457       1458       1469       1468  
      1337       1338       1349       1348       1458       1459       1470       1469  
      1338       1339       1350       1349       1459       1460       1471       1470  
      1339       1340       1351       1350       1460       1461       1472       1471  
      1340       1341       1352       1351       1461       1462       1473       1472  
      1341       1342       1353       1352       1462       1463       1474       1473  
      1343       1344       1355       1354       1464       1465       1476       1475  
      1344       1345       1356       1355       1465       1466       1477       1476  
      1345       1346       1357       1356       1466       1467       1478       1477  
      1346       1347       1358       1357       1467       1468       1479       1478  
      1347       1348       1359       1358       1468       1469       1480       1479  
      1348       1349       1360       1359       1469       1470       1481       1480  
      1349       1350       1361       1360       1470       1471       1482       1481  
      1350       1351       1362       1361       1471       1472       1483       1482  
      1351       1352       1363       1362       1472       1473       1484       1483  
      1352       1353       1364       1363       1473       1474       1485       1484  
      1354       1355       1366       1365       1475       1476       1487       1486  
      1355       1356       1367       1366       1476       1477       1488       1487  
      1356       1357       1368       1367       1477       1478       1489       1488  
      1357       1358       1369       1368       1478       1479       1490       1489  
      1358       1359       1370       1369       1479       1480       1491       1490  
      1359       1360       1371       1370       1480       1481       1492       1491  
      1360       1361       1372       1371       1481       1482       1493       1492  
      1361       1362       1373       1372       1482       1483       1494       1493  
      1362       1363       1374       1373       1483       1484       1495       1494  
      1363       1364       1375       1374       1484       1485       1496       1495  
      1365       1366       1377       1376       1486       1487       1498       1497  
      1366       1367       1378       1377       1487       1488       1499       1498  
      1367       1368       1379       1378       1488       1489       1500       1499  
      1368       1369       1380       1379       1489       1490       1501       1500  
      1369       1370       1381       1380       1490       1491       1502       1501  
      1370       1371       1382       1381       1491       1492       1503       1502  
      1371       1372       1383       1382       1492       1493       1504       1503  
      1372       1373       1384       1383       1493       1494       1505       1504  
      1373       1374       1385       1384       1494       1495       1506       1505  
      1374       1375       1386       1385       1495       1496       1507       1506  
      1376       1377       1388       1387       1497       1498       1509       1508  
      1377       1378       1389       1388       1498       1499       1510       1509  
      1378       1379       1390       1389       1499       1500       1511       1510  
      1379       1380       1391       1390       1500       1501       1512       1511  
      1380       1381       1392       1391       1501       1502       1513       1512  
      1381       1382       1393       1392       1502       1503       1514       1513  
      1382       1383       1394       1393       1503       1504       1515       1514  
      1383       1384       1395       1394       1504       1505       1516       1515  
      1384       1385       1396       1395       1505       1506       1517       1516  
      1385       1386       1397       1396       1506       1507       1518       1517  
      1387       1388       1399       1398       1508       1509       1520       1519  
      1388       1389       1400       1399       1509       1510       1521       1520  
      1389       1390       1401       1400       1510       1511       1522       1521  
      1390       1391       1402       1401       1511       1512       1523       1522  
      1391       1392       1403       1402       1512       1513       1524       1523  
      1392       1393       1404       1403       1513       1514       1525       1524  
      1393       1394       1405       1404       1514       1515       1526       1525  
      1394       1395       1406       1405       1515       1516       1527       1526  
      1395       1396       1407       1406       1516       1517       1528       1527  
      1396       1397       1408       1407       1517       1518       1529       1528  
      1398       1399       1410       1409       1519       1520       1531       1530  
      1399       1400       1411       1410       1520       1521       1532       1531  
      1400       1401       1412       1411       1521       1522       1533       1532  
      1401       1402       1413       1412       1522       1523       1534       1533  
      1402       1403       1414       1413       1523       1524       1535       1534  
      1403       1404       1415       1414       1524       1525       1536       1535  
      1404       1405       1416       1415       1525       1526       1537       1536  
      1405       1406       1417       1416       1526       1527       1538       1537  
      1406       1407       1418       1417       1527       1528       1539       1538  
      1407       1408       1419       1418       1528       1529       1540       1539  
      1409       1410       1421       1420       1530       1531       1542       1541  
      1410       1411       1422       1421       1531       1532       1543       1542  
      1411       1412       1423       1422       1532       1533       1544       1543  
      1412       1413       1424       1423       1533       1534       1545       1544  
      1413       1414       1425       1424       1534       1535       1546       1545  
      1414       1415       1426       1425       1535       1536       1547       1546  
      1415       1416       1427       1426       1536       1537       1548       1547  
      1416       1417       1428       1427       1537       1538       1549       1548  
      1417       1418       1429       1428       1538       1539       1550       1549  
      1418       1419       1430       1429       1539       1540       1551       1550  
      1420       1421       1432       1431       1541       1542       1553       1552  
      1421       1422       1433       1432       1542       1543       1554       1553  
      1422       1423       1434       1433       1543       1544       1555       1554  
      1423       1424       1435       1434       1544       1545       1556       1555  
      1424       1425       1436       1435       1545       1546       1557       1556  
      1425       1426       1437       1436       1546       1547       1558       1557  
      1426       1427       1438       1437       1547       1548       1559       1558  
      1427       1428       1439       1438       1548       1549       1560       1559  
      1428       1429       1440       1439       1549       1550       1561       1560  
      1429       1430       1441       1440       1550       1551       1562       1561  
      1431       1432       1443       1442       1552       1553       1564       1563  
      1432       1433       1444       1443       1553       1554       1565       1564  
      1433       1434       1445       1444       1554       1555       1566       1565  
      1434       1435       1446       1445       1555       1556       1567       1566  
      1435       1436       1447       1446       1556       1557       1568       1567  
      1436       1437       1448       1447       1557       1558       1569       1568  
      1437       1438       1449       1448       1558       1559       1570       1569  
      1438       1439       1450       1449       1559       1560       1571       1570  
      1439       1440       1451       1450       1560       1561       1572       1571  
      1440       1441       1452       1451       1561       1562       1573       1572  
      1453       1454       1465       1464       1574       1575       1586       1585  
      1454       1455       1466       1465       1575       1576       1587       1586  
      1455       1456       1467       1466       1576       1577       1588       1587  
      1456       1457       1468       1467       1577       1578       1589       1588  
      1457       1458       1469       1468       1578       1579       1590       1589  
      1458       1459       1470       1469       1579       1580       1591       1590  
      1459       1460       1471       1470       1580       1581       1592       1591  
      1460       1461       1472       1471       1581       1582       1593       1592  
      1461       1462       1473       1472       1582       1583       1594       1593  
      1462       1463       1474       1473       1583       1584       1595       1594  
      1464       1465       1476       1475       1585       1586       1597       1596  
      1465       1466       1477       1476       1586       1587       1598       1597  
      1466       1467       1478       1477       1587       1588       1599       1598  
      1467       1468       1479       1478       1588       1589       1600       1599  
      1468       1469       1480       1479       1589       1590       1601       1600  
      1469       1470       1481       1480       1590       1591       1602       1601  
      1470       1471       1482       1481       1591       1592       1603       1602  
      1471       1472       1483       1482       1592       1593       1604       1603  
      1472       1473       1484       1483       1593       1594       1605       1604  
      1473       1474       1485       1484       1594       1595       1606       1605  
      1475       1476       1487       1486       1596       1597       1608       1607  
      1476       1477       1488       1487       1597       1598       1609       1608  
      1477       1478       1489       1488       1598       1599       1610       1609  
      1478       1479       1490       1489       1599       1600       1611       1610  
      1479       1480       1491       1490       1600       1601       1612       1611  
      1480       1481       1492       1491       1601       1602       1613       1612  
      1481       1482       1493       1492       1602       1603       1614       1613  
      1482       1483       1494       1493       1603       1604       1615       1614  
      1483       1484       1495       1494       1604       1605       1616       1615  
      1484       1485       1496       1495       1605       1606       1617       1616  
      1486       1487       1498       1497       1607       1608       1619       1618  
      1487       1488       1499       1498       1608       1609       1620       1619  
      1488       1489       1500       1499       1609       1610       1621       1620  
      1489       1490       1501       1500       1610       1611       1622       1621  
      1490       1491       1502       1501       1611       1612       1623       1622  
      1491       1492       1503       1502       1612       1613       1624       1623  
      1492       1493       1504       1503       1613       1614       1625       1624  
      1493       1494       1505       1504       1614       1615       1626       1625  
      1494       1495       1506       1505       1615       1616       1627       1626  
      1495       1496       1507       1506       1616       1617       1628       1627  
      1497       1498       1509       1508       1618       1619       1630       1629  
      1498       1499       1510       1509       1619       1620       1631       1630  
      1499       1500       1511       1510       1620       1621       1632       1631  
      1500       1501       1512       1511       1621       1622       1633       1632  
      1501       1502       1513       1512       1622       1623       1634       1633  
      1502       1503       1514       1513       1623       1624       1635       1634  
      1503       1504       1515       1514       1624       1625       1636       1635  
      1504       1505       1516       1515       1625       1626       1637       1636  
      1505       1506       1517       1516       1626       1627       1638       1637  
      1506       1507       1518       1517       1627       1628       1639       1638  
      1508       1509       1520       1519       1629       1630       1641       1640  
      1509       1510       1521       1520       1630       1631       1642       1641  
      1510       1511       1522       1521       1631       1632       1643       1642  
      1511       1512       1523       1522       1632       1633       1644       1643  
      1512       1513       1524       1523       1633       1634       1645       1644  
      1513       1514       1525       1524       1634       1635       1646       1645  
      1514       1515       1526       1525       1635       1636       1647       1646  
      1515       1516       1527       1526       1636       1637       1648       1647  
      1516       1517       1528       1527       1637       1638       1649       1648  
      1517       1518       1529       1528       1638       1639       1650       1649  
      1519       1520       1531       1530       1640       1641       1652       1651  
      1520       1521       1532       1531       1641       1642       1653       1652  
      1521       1522       1533       1532       1642       1643       1654       1653  
      1522       1523       1534       1533       1643       1644       1655       1654  
      1523       1524       1535       1534       1644       1645       1656       1655  
      1524       1525       1536       1535       1645       1646       1657       1656  
      1525       1526       1537       1536       1646       1647       1658       1657  
      1526       1527       1538       1537       1647       1648       1659       1658  
      1527       1528       1539       1538       1648       1649       1660       1659  
      1528       1529       1540       1539       1649       1650       1661       1660  
      1530       1531       1542       1541       1651       1652       1663       1662  
      1531       1532       1543       1542       1652       1653       1664       1663  
      1532       1533       1544       1543       1653       1654       1665       1664  
      1533       1534       1545       1544       1654       1655       1666       1665  
      1534       1535       1546       1545       1655       1656       1667       1666  
      1535       1536       1547       1546       1656       1657       1668       1667  
      1536       1537       1548       1547       1657       1658       1669       1668  
      1537       1538       1549       1548       1658       1659       1670       1669  
      1538       1539       1550       1549       1659       1660       1671       1670  
      1539       1540       1551       1550       1660       1661       1672       1671  
      1541       1542       1553       1552       1662       1663       1674       1673  
      1542       1543       1554       1553       1663       1664       1675       1674  
      1543       1544       1555       1554       1664       1665       1676       1675  
      1544       1545       1556       1555       1665       1666       1677       1676  
      1545       1546       1557       1556       1666       1667       1678       1677  
      1546       1547       1558       1557       1667       1668       1679       1678  
      1547       1548       1559       1558       1668       1669       1680       1679  
      1548       1549       1560       1559       1669       1670       1681       1680  
      1549       1550       1561       1560       1670       1671       1682       1681  
      1550       1551       1562       1561       1671       1672       1683       1682  
      1552       1553       1564       1563       1673       1674       1685       1684  
      1553       1554       1565       1564       1674       1675       1686       1685  
      1554       1555       1566       1565       1675       1676       1687       1686  
      1555       1556       1567       1566       1676       1677       1688       1687  
      1556       1557       1568       1567       1677       1678       1689       1688  
      1557       1558       1569       1568       1678       1679       1690       1689  
      1558       1559       1570       1569       1679       1680       1691       1690  
      1559       1560       1571       1570       1680       1681       1692       1691  
      1560       1561       1572       1571       1681       1682       1693       1692  
      1561       1562       1573       1572       1682       1683       1694       1693  
      1574       1575       1586       1585       1695       1696       1707       1706  
      1575       1576       1587       1586       1696       1697       1708       1707  
      1576       1577       1588       1587       1697       1698       1709       1708  
      1577       1578       1589       1588       1698       1699       1710       1709  
      1578       1579       1590       1589       1699       1700       1711       1710  
      1579       1580       1591       1590       1700       1701       1712       1711  
      1580       1581       1592       1591       1701       1702       1713       1712  
      1581       1582       1593       1592       1702       1703       1714       1713  
      1582       1583       1594       1593       1703       1704       1715       1714  
      1583       1584       1595       1594       1704       1705       1716       1715  
      1585       1586       1597       1596       1706       1707       1718       1717  
      1586       1587       1598       1597       1707       1708       1719       1718  
      1587       1588       1599       1598       1708       1709       1720       1719  
      1588       1589       1600       1599       1709       1710       1721       1720  
      1589       1590       1601       1600       1710       1711       1722       1721  
      1590       1591       1602       1601       1711       1712       1723       1722  
      1591       1592       1603       1602       1712       1713       1724       1723  
      1592       1593       1604       1603       1713       1714       1725       1724  
      1593       1594       1605       1604       1714       1715       1726       1725  
      1594       1595       1606       1605       1715       1716       1727       1726  
      1596       1597       1608       1607       1717       1718       1729       1728  
      1597       1598       1609       1608       1718       1719       1730       1729  
      1598       1599       1610       1609       1719       1720       1731       1730  
      1599       1600       1611       1610       1720       1721       1732       1731  
      1600       1601       1612       1611       1721       1722       1733       1732  
      1601       1602       1613       1612       1722       1723       1734       1733  
      1602       1603       1614       1613       1723       1724       1735       1734  
      1603       1604       1615       1614       1724       1725       1736       1735  
      1604       1605       1616       1615       1725       1726       1737       1736  
      1605       1606       1617       1616       1726       1727       1738       1737  
      1607       1608       1619       1618       1728       1729       1740       1739  
      1608       1609       1620       1619       1729       1730       1741       1740  
      1609       1610       1621       1620       1730       1731       1742       1741  
      1610       1611       1622       1621       1731       1732       1743       1742  
      1611       1612       1623       1622       1732       1733       1744       1743  
      1612       1613       1624       1623       1733       1734       1745       1744  
      1613       1614       1625       1624       1734       1735       1746       1745  
      1614       1615       1626       1625       1735       1736       1747       1746  
      1615       1616       1627       1626       1736       1737       1748       1747  
      1616       1617       1628       1627       1737       1738       1749       1748  
      1618       1619       1630       1629       1739       1740       1751       1750  
      1619       1620       1631       1630       1740       1741       1752       1751  
      1620       1621       1632       1631       1741       1742       1753       1752  
      1621       1622       1633       1632       1742       1743       1754       1753  
      1622       1623       1634       1633       1743       1744       1755       1754  
      1623       1624       1635       1634       1744       1745       1756       1755  
      1624       1625       1636       1635       1745       1746       1757       1756  
      1625       1626       1637       1636       1746       1747       1758       1757  
      1626       1627       1638       1637       1747       1748       1759       1758  
      1627       1628       1639       1638       1748       1749       1760       1759  
      1629       1630       1641       1640       1750       1751       1762       1761  
      1630       1631       1642       1641       1751       1752       1763       1762  
      1631       1632       1643       1642       1752       1753       1764       1763  
      1632       1633       1644       1643       1753       1754       1765       1764  
      1633       1634       1645       1644       1754       1755       1766       1765  
      1634       1635       1646       1645       1755       1756       1767       1766  
      1635       1636       1647       1646       1756       1757       1768       1767  
      1636       1637       1648       1647       1757       1758       1769       1768  
      1637       1638       1649       1648       1758       1759       1770       1769  
      1638       1639       1650       1649       1759       1760       1771       1770  
      1640       1641       1652       1651       1761       1762       1773       1772  
      1641       1642       1653       1652       1762       1763       1774       1773  
      1642       1643       1654       1653       1763       1764       1775       1774  
      1643       1644       1655       1654       1764       1765       1776       1775  
      1644       1645       1656       1655       1765       1766       1777       1776  
      1645       1646       1657       1656       1766       1767       1778       1777  
      1646       1647       1658       1657       1767       1768       1779       1778  
      1647       1648       1659       1658       1768       1769       1780       1779  
      1648       1649       1660       1659       1769       1770       1781       1780  
      1649       1650       1661       1660       1770       1771       1782       1781  
      1651       1652       1663       1662       1772       1773       1784       1783  
      1652       1653       1664       1663       1773       1774       1785       1784  
      1653       1654       1665       1664       1774       1775       1786       1785  
      1654       1655       1666       1665       1775       1776       1787       1786  
      1655       1656       1667       1666       1776       1777       1788       1787  
      1656       1657       1668       1667       1777       1778       1789       1788  
      1657       1658       1669       1668       1778       1779       1790       1789  
      1658       1659       1670       1669       1779       1780       1791       1790  
      1659       1660       1671       1670       1780       1781       1792       1791  
      1660       1661       1672       1671       1781       1782       1793       1792  
      1662       1663       1674       1673       1783       1784       1795       1794  
      1663       1664       1675       1674       1784       1785       1796       1795  
      1664       1665       1676       1675       1785       1786       1797       1796  
      1665       1666       1677       1676       1786       1787       1798       1797  
      1666       1667       1678       1677       1787       1788       1799       1798  
      1667       1668       1679       1678       1788       1789       1800       1799  
      1668       1669       1680       1679       1789       1790       1801       1800  
      1669       1670       1681       1680       1790       1791       1802       1801  
      1670       1671       1682       1681       1791       1792       1803       1802  
      1671       1672       1683       1682       1792       1793       1804       1803  
      1673       1674       1685       1684       1794       1795       1806       1805  
      1674       1675       1686       1685       1795       1796       1807       1806  
      1675       1676       1687       1686       1796       1797       1808       1807  
      1676       1677       1688       1687       1797       1798       1809       1808  
      1677       1678       1689       1688       1798       1799       1810       1809  
      1678       1679       1690       1689       1799       1800       1811       1810  
      1679       1680       1691       1690       1800       1801       1812       1811  
      1680       1681       1692       1691       1801       1802       1813       1812  
      1681       1682       1693       1692       1802       1803       1814       1813  
      1682       1683       1694       1693       1803       1804       1815       1814  
      1695       1696       1707       1706       1816       1817       1828       1827  
      1696       1697       1708       1707       1817       1818       1829       1828  
      1697       1698       1709       1708       1818       1819       1830       1829  
      1698       1699       1710       1709       1819       1820       1831       1830  
      1699       1700       1711       1710       1820       1821       1832       1831  
      1700       1701       1712       1711       1821       1822       1833       1832  
      1701       1702       1713       1712       1822       1823       1834       1833  
      1702       1703       1714       1713       1823       1824       1835       1834  
      1703       1704       1715       1714       1824       1825       1836       1835  
      1704       1705       1716       1715       1825       1826       1837       1836  
      1706       1707       1718       1717       1827       1828       1839       1838  
      1707       1708       1719       1718       1828       1829       1840       1839  
      1708       1709       1720       1719       1829       1830       1841       1840  
      1709       1710       1721       1720       1830       1831       1842       1841  
      1710       1711       1722       1721       1831       1832       1843       1842  
      1711       1712       1723       1722       1832       1833       1844       1843  
      1712       1713       1724       1723       1833       1834       1845       1844  
      1713       1714       1725       1724       1834       1835       1846       1845  
      1714       1715       1726       1725       1835       1836       1847       1846  
      1715       1716       1727       1726       1836       1837       1848       1847  
      1717       1718       1729       1728       1838       1839       1850       1849  
      1718       1719       1730       1729       1839       1840       1851       1850  
      1719       1720       1731       1730       1840       1841       1852       1851  
      1720       1721       1732       1731       1841       1842       1853       1852  
      1721       1722       1733       1732       1842       1843       1854       1853  
      1722       1723       1734       1733       1843       1844       1855       1854  
      1723       1724       1735       1734       1844       1845       1856       1855  
      1724       1725       1736       1735       1845       1846       1857       1856  
      1725       1726       1737       1736       1846       1847       1858       1857  
      1726       1727       1738       1737       1847       1848       1859       1858  
      1728       1729       1740       1739       1849       1850       1861       1860  
      1729       1730       1741       1740       1850       1851       1862       1861  
      1730       1731       1742       1741       1851       1852       1863       1862  
      1731       1732       1743       1742       1852       1853       1864       1863  
      1732       1733       1744       1743       1853       1854       1865       1864  
      1733       1734       1745       1744       1854       1855       1866       1865  
      1734       1735       1746       1745       1855       1856       1867       1866  
      1735       1736       1747       1746       1856       1857       1868       1867  
      1736       1737       1748       1747       1857       1858       1869       1868  
      1737       1738       1749       1748       1858       1859       1870       1869  
      1739       1740       1751       1750       1860       1861       1872       1871  
      1740       1741       1752       1751       1861       1862       1873       1872  
      1741       1742       1753       1752       1862       1863       1874       1873  
      1742       1743       1754       1753       1863       1864       1875       1874  
      1743       1744       1755       1754       1864       1865       1876       1875  
      1744       1745       1756       1755       1865       1866       1877       1876  
      1745       1746       1757       1756       1866       1867       1878       1877  
      1746       1747       1758       1757       1867       1868       1879       1878  
      1747       1748       1759       1758       1868       1869       1880       1879  
      1748       1749       1760       1759       1869       1870       1881       1880  
      1750       1751       1762       1761       1871       1872       1883       1882  
      1751       1752       1763       1762       1872       1873       1884       1883  
      1752       1753       1764       1763       1873       1874       1885       1884  
      1753       1754       1765       1764       1874       1875       1886       1885  
      1754       1755       1766       1765       1875       1876       1887       1886  
      1755       1756       1767       1766       1876       1877       1888       1887  
      1756       1757       1768       1767       1877       1878       1889       1888  
      1757       1758       1769       1768       1878       1879       1890       1889  
      1758       1759       1770       1769       1879       1880       1891       1890  
      1759       1760       1771       1770       1880       1881       1892       1891  
      1761       1762       1773       1772       1882       1883       1894       1893  
      1762       1763       1774       1773       1883       1884       1895       1894  
      1763       1764       1775       1774       1884       1885       1896       1895  
      1764       1765       1776       1775       1885       1886       1897       1896  
      1765       1766       1777       1776       1886       1887       1898       1897  
      1766       1767       1778       1777       1887       1888       1899       1898  
      1767       1768       1779       1778       1888       1889       1900       1899  
      1768       1769       1780       1779       1889       1890       1901       1900  
      1769       1770       1781       1780       1890       1891       1902       1901  
      1770       1771       1782       1781       1891       1892       1903       1902  
      1772       1773       1784       1783       1893       1894       1905       1904  
      1773       1774       1785       1784       1894       1895       1906       1905  
      1774       1775       1786       1785       1895       1896       1907       1906  
      1775       1776       1787       1786       1896       1897       1908       1907  
      1776       1777       1788       1787       1897       1898       1909       1908  
      1777       1778       1789       1788       1898       1899       1910       1909  
      1778       1779       1790       1789       1899       1900       1911       1910  
      1779       1780       1791       1790       1900       1901       1912       1911  
      1780       1781       1792       1791       1901       1902       1913       1912  
      1781       1782       1793       1792       1902       1903       1914       1913  
      1783       1784       1795       1794       1904       1905       1916       1915  
      1784       1785       1796       1795       1905       1906       1917       1916  
      1785       1786       1797       1796       1906       1907       1918       1917  
      1786       1787       1798       1797       1907       1908       1919       1918  
      1787       1788       1799       1798       1908       1909       1920       1919  
      1788       1789       1800       1799       1909       1910       1921       1920  
      1789       1790       1801       1800       1910       1911       1922       1921  
      1790       1791       1802       1801       1911       1912       1923       1922  
      1791       1792       1803       1802       1912       1913       1924       1923  
      1792       1793       1804       1803       1913       1914       1925       1924  
      1794       1795       1806       1805       1915       1916       1927       1926  
      1795       1796       1807       1806       1916       1917       1928       1927  
      1796       1797       1808       1807       1917       1918       1929       1928  
      1797       1798       1809       1808       1918       1919       1930       1929  
      1798       1799       1810       1809       1919       1920       1931       1930  
      1799       1800       1811       1810       1920       1921       1932       1931  
      1800       1801       1812       1811       1921       1922       1933       1932  
      1801       1802       1813       1812       1922       1923       1934       1933  
      1802       1803       1814       1813       1923       1924       1935       1934  
      1803       1804       1815       1814       1924       1925       1936       1935  
      1816       1817       1828       1827       1937       1938       1949       1948  
      1817       1818       1829       1828       1938       1939       1950       1949  
      1818       1819       1830       1829       1939       1940       1951       1950  
      1819       1820       1831       1830       1940       1941       1952       1951  
      1820       1821       1832       1831       1941       1942       1953       1952  
      1821       1822       1833       1832       1942       1943       1954       1953  
      1822       1823       1834       1833       1943       1944       1955       1954  
      1823       1824       1835       1834       1944       1945       1956       1955  
      1824       1825       1836       1835       1945       1946       1957       1956  
      1825       1826       1837       1836       1946       1947       1958       1957  
      1827       1828       1839       1838       1948       1949       1960       1959  
      1828       1829       1840       1839       1949       1950       1961       1960  
      1829       1830       1841       1840       1950       1951       1962       1961  
      1830       1831       1842       1841       1951       1952       1963       1962  
      1831       1832       1843       1842       1952       1953       1964       1963  
      1832       1833       1844       1843       1953       1954       1965       1964  
      1833       1834       1845       1844       1954       1955       1966       1965  
      1834       1835       1846       1845       1955       1956       1967       1966  
      1835       1836       1847       1846       1956       1957       1968       1967  
      1836       1837       1848       1847       1957       1958       1969       1968  
      1838       1839       1850       1849       1959       1960       1971       1970  
      1839       1840       1851       1850       1960       1961       1972       1971  
      1840       1841       1852       1851       1961       1962       1973       1972  
      1841       1842       1853       1852       1962       1963       1974       1973  
      1842       1843       1854       1853       1963       1964       1975       1974  
      1843       1844       1855       1854       1964       1965       1976       1975  
      1844       1845       1856       1855       1965       1966       1977       1976  
      1845       1846       1857       1856       1966       1967       1978       1977  
      1846       1847       1858       1857       1967       1968       1979       1978  
      1847       1848       1859       1858       1968       1969       1980       1979  
      1849       1850       1861       1860       1970       1971       1982       1981  
      1850       1851       1862       1861       1971       1972       1983       1982  
      1851       1852       1863       1862       1972       1973       1984       1983  
      1852       1853       1864       1863       1973       1974       1985       1984  
      1853       1854       1865       1864       1974       1975       1986       1985  
      1854       1855       1866       1865       1975       1976       1987       1986  
      1855       1856       1867       1866       1976       1977       1988       1987  
      1856       1857       1868       1867       1977       1978       1989       1988  
      1857       1858       1869       1868       1978       1979       1990       1989  
      1858       1859       1870       1869       1979       1980       1991       1990  
      1860       1861       1872       1871       1981       1982       1993       1992  
      1861       1862       1873       1872       1982       1983       1994       1993  
      1862       1863       1874       1873       1983       1984       1995       1994  
      1863       1864       1875       1874       1984       1985       1996       1995  
      1864       1865       1876       1875       1985       1986       1997       1996  
      1865       1866       1877       1876       1986       1987       1998       1997  
      1866       1867       1878       1877       1987       1988       1999       1998  
      1867       1868       1879       1878       1988       1989       2000       1999  
      1868       1869       1880       1879       1989       1990       2001       2000  
      1869       1870       1881       1880       1990       1991       2002       2001  
      1871       1872       1883       1882       1992       1993       2004       2003  
      1872       1873       1884       1883       1993       1994       2005       2004  
      1873       1874       1885       1884       1994       1995       2006       2005  
      1874       1875       1886       1885       1995       1996       2007       2006  
      1875       1876       1887       1886       1996       1997       2008       2007  
      1876       1877       1888       1887       1997       1998       2009       2008  
      1877       1878       1889       1888       1998       1999       2010       2009  
      1878       1879       1890       1889       1999       2000       2011       2010  
      1879       1880       1891       1890       2000       2001       2012       2011  
      1880       1881       1892       1891       2001       2002       2013       2012  
      1882       1883       1894       1893       2003       2004       2015       2014  
      1883       1884       1895       1894       2004       2005       2016       2015  
      1884       1885       1896       1895       2005       2006       2017       2016  
      1885       1886       1897       1896       2006       2007       2018       2017  
      1886       1887       1898       1897       2007       2008       2019       2018  
      1887       1888       1899       1898       2008       2009       2020       2019  
      1888       1889       1900       1899       2009       2010       2021       2020  
      1889       1890       1901       1900       2010       2011       2022       2021  
      1890       1891       1902       1901       2011       2012       2023       2022  
      1891       1892       1903       1902       2012       2013       2024       2023  
      1893       1894       1905       1904       2014       2015       2026       2025  
      1894       1895       1906       1905       2015       2016       2027       2026  
      1895       1896       1907       1906       2016       2017       2028       2027  
      1896       1897       1908       1907       2017       2018       2029       2028  
      1897       1898       1909       1908       2018       2019       2030       2029  
      1898       1899       1910       1909       2019       2020       2031       2030  
      1899       1900       1911       1910       2020       2021       2032       2031  
      1900       1901       1912       1911       2021       2022       2033       2032  
      1901       1902       1913       1912       2022       2023       2034       2033  
      1902       1903       1914       1913       2023       2024       2035       2034  
      1904       1905       1916       1915       2025       2026       2037       2036  
      1905       1906       1917       1916       2026       2027       2038       2037  
      1906       1907       1918       1917       2027       2028       2039       2038  
      1907       1908       1919       1918       2028       2029       2040       2039  
      1908       1909       1920       1919       2029       2030       2041       2040  
      1909       1910       1921       1920       2030       2031       2042       2041  
      1910       1911       1922       1921       2031       2032       2043       2042  
      1911       1912       1923       1922       2032       2033       2044       2043  
      1912       1913       1924       1923       2033       2034       2045       2044  
      1913       1914       1925       1924       2034       2035       2046       2045  
      1915       1916       1927       1926       2036       2037       2048       2047  
      1916       1917       1928       1927       2037       2038       2049       2048  
      1917       1918       1929       1928       2038       2039       2050       2049  
      1918       1919       1930       1929       2039       2040       2051       2050  
      1919       1920       1931       1930       2040       2041       2052       2051  
      1920       1921       1932       1931       2041       2042       2053       2052  
      1921       1922       1933       1932       2042       2043       2054       2053  
      1922       1923       1934       1933       2043       2044       2055       2054  
      1923       1924       1935       1934       2044       2045       2056       2055  
      1924       1925       1936       1935       2045       2046       2057       2056  
      1937       1938       1949       1948       2058       2059       2070       2069  
      1938       1939       1950       1949       2059       2060       2071       2070  
      1939       1940       1951       1950       2060       2061       2072       2071  
      1940       1941       1952       1951       2061       2062       2073       2072  
      1941       1942       1953       1952       2062       2063       2074       2073  
      1942       1943       1954       1953       2063       2064       2075       2074  
      1943       1944       1955       1954       2064       2065       2076       2075  
      1944       1945       1956       1955       2065       2066       2077       2076  
      1945       1946       1957       1956       2066       2067       2078       2077  
      1946       1947       1958       1957       2067       2068       2079       2078  
      1948       1949       1960       1959       2069       2070       2081       2080  
      1949       1950       1961       1960       2070       2071       2082       2081  
      1950       1951       1962       1961       2071       2072       2083       2082  
      1951       1952       1963       1962       2072       2073       2084       2083  
      1952       1953       1964       1963       2073       2074       2085       2084  
      1953       1954       1965       1964       2074       2075       2086       2085  
      1954       1955       1966       1965       2075       2076       2087       2086  
      1955       1956       1967       1966       2076       2077       2088       2087  
      1956       1957       1968       1967       2077       2078       2089       2088  
      1957       1958       1969       1968       2078       2079       2090       2089  
      1959       1960       1971       1970       2080       2081       2092       2091  
      1960       1961       1972       1971       2081       2082       2093       2092  
      1961       1962       1973       1972       2082       2083       2094       2093  
      1962       1963       1974       1973       2083       2084       2095       2094  
      1963       1964       1975       1974       2084       2085       2096       2095  
      1964       1965       1976       1975       2085       2086       2097       2096  
      1965       1966       1977       1976       2086       2087       2098       2097  
      1966       1967       1978       1977       2087       2088       2099       2098  
      1967       1968       1979       1978       2088       2089       2100       2099  
      1968       1969       1980       1979       2089       2090       2101       2100  
      1970       1971       1982       1981       2091       2092       2103       2102  
      1971       1972       1983       1982       2092       2093       2104       2103  
      1972       1973       1984       1983       2093       2094       2105       2104  
      1973       1974       1985       1984       2094       2095       2106       2105  
      1974       1975       1986       1985       2095       2096       2107       2106  
      1975       1976       1987       1986       2096       2097       2108       2107  
      1976       1977       1988       1987       2097       2098       2109       2108  
      1977       1978       1989       1988       2098       2099       2110       2109  
      1978       1979       1990       1989       2099       2100       2111       2110  
      1979       1980       1991       1990       2100       2101       2112       2111  
      1981       1982       1993       1992       2102       2103       2114       2113  
      1982       1983       1994       1993       2103       2104       2115       2114  
      1983       1984       1995       1994       2104       2105       2116       2115  
      1984       1985       1996       1995       2105       2106       2117       2116  
      1985       1986       1997       1996       2106       2107       2118       2117  
      1986       1987       1998       1997       2107       2108       2119       2118  
      1987       1988       1999       1998       2108       2109       2120       2119  
      1988       1989       2000       1999       2109       2110       2121       2120  
      1989       1990       2001       2000       2110       2111       2122       2121  
      1990       1991       2002       2001       2111       2112       2123       2122  
      1992       1993       2004       2003       2113       2114       2125       2124  
      1993       1994       2005       2004       2114       2115       2126       2125  
      1994       1995       2006       2005       2115       2116       2127       2126  
      1995       1996       2007       2006       2116       2117       2128       2127  
      1996       1997       2008       2007       2117       2118       2129       2128  
      1997       1998       2009       2008       2118       2119       2130       2129  
      1998       1999       2010       2009       2119       2120       2131       2130  
      1999       2000       2011       2010       2120       2121       2132       2131  
      2000       2001       2012       2011       2121       2122       2133       2132  
      2001       2002       2013       2012       2122       2123       2134       2133  
      2003       2004       2015       2014       2124       2125       2136       2135  
      2004       2005       2016       2015       2125       2126       2137       2136  
      2005       2006       2017       2016       2126       2127       2138       2137  
      2006       2007       2018       2017       2127       2128       2139       2138  
      2007       2008       2019       2018       2128       2129       2140       2139  
      2008       2009       2020       2019       2129       2130       2141       2140  
      2009       2010       2021       2020       2130       2131       2142       2141  
      2010       2011       2022       2021       2131       2132       2143       2142  
      2011       2012       2023       2022       2132       2133       2144       2143  
      2012       2013       2024       2023       2133       2134       2145       2144  
      2014       2015       2026       2025       2135       2136       2147       2146  
      2015       2016       2027       2026       2136       2137       2148       2147  
      2016       2017       2028       2027       2137       2138       2149       2148  
      2017       2018       2029       2028       2138       2139       2150       2149  
      2018       2019       2030       2029       2139       2140       2151       2150  
      2019       2020       2031       2030       2140       2141       2152       2151  
      2020       2021       2032       2031       2141       2142       2153       2152  
      2021       2022       2033       2032       2142       2143       2154       2153  
      2022       2023       2034       2033       2143       2144       2155       2154  
      2023       2024       2035       2034       2144       2145       2156       2155  
      2025       2026       2037       2036       2146       2147       2158       2157  
      2026       2027       2038       2037       2147       2148       2159       2158  
      2027       2028       2039       2038       2148       2149       2160       2159  
      2028       2029       2040       2039       2149       2150       2161       2160  
      2029       2030       2041       2040       2150       2151       2162       2161  
      2030       2031       2042       2041       2151       2152       2163       2162  
      2031       2032       2043       2042       2152       2153       2164       2163  
      2032       2033       2044       2043       2153       2154       2165       2164  
      2033       2034       2045       2044       2154       2155       2166       2165  
      2034       2035       2046       2045       2155       2156       2167       2166  
      2036       2037       2048       2047       2157       2158       2169       2168  
      2037       2038       2049       2048       2158       2159       2170       2169  
      2038       2039       2050       2049       2159       2160       2171       2170  
      2039       2040       2051       2050       2160       2161       2172       2171  
      2040       2041       2052       2051       2161       2162       2173       2172  
      2041       2042       2053       2052       2162       2163       2174       2173  
      2042       2043       2054       2053       2163       2164       2175       2174  
      2043       2044       2055       2054       2164       2165       2176       2175  
      2044       2045       2056       2055       2165       2166       2177       2176  
      2045       2046       2057       2056       2166       2167       2178       2177  
      2058       2059       2070       2069       2179       2180       2191       2190  
      2059       2060       2071       2070       2180       2181       2192       2191  
      2060       2061       2072       2071       2181       2182       2193       2192  
      2061       2062       2073       2072       2182       2183       2194       2193  
      2062       2063       2074       2073       2183       2184       2195       2194  
      2063       2064       2075       2074       2184       2185       2196       2195  
      2064       2065       2076       2075       2185       2186       2197       2196  
      2065       2066       2077       2076       2186       2187       2198       2197  
      2066       2067       2078       2077       2187       2188       2199       2198  
      2067       2068       2079       2078       2188       2189       2200       2199  
      2069       2070       2081       2080       2190       2191       2202       2201  
      2070       2071       2082       2081       2191       2192       2203       2202  
      2071       2072       2083       2082       2192       2193       2204       2203  
      2072       2073       2084       2083       2193       2194       2205       2204  
      2073       2074       2085       2084       2194       2195       2206       2205  
      2074       2075       2086       2085       2195       2196       2207       2206  
      2075       2076       2087       2086       2196       2197       2208       2207  
      2076       2077       2088       2087       2197       2198       2209       2208  
      2077       2078       2089       2088       2198       2199       2210       2209  
      2078       2079       2090       2089       2199       2200       2211       2210  
      2080       2081       2092       2091       2201       2202       2213       2212  
      2081       2082       2093       2092       2202       2203       2214       2213  
      2082       2083       2094       2093       2203       2204       2215       2214  
      2083       2084       2095       2094       2204       2205       2216       2215  
      2084       2085       2096       2095       2205       2206       2217       2216  
      2085       2086       2097       2096       2206       2207       2218       2217  
      2086       2087       2098       2097       2207       2208       2219       2218  
      2087       2088       2099       2098       2208       2209       2220       2219  
      2088       2089       2100       2099       2209       2210       2221       2220  
      2089       2090       2101       2100       2210       2211       2222       2221  
      2091       2092       2103       2102       2212       2213       2224       2223  
      2092       2093       2104       2103       2213       2214       2225       2224  
      2093       2094       2105       2104       2214       2215       2226       2225  
      2094       2095       2106       2105       2215       2216       2227       2226  
      2095       2096       2107       2106       2216       2217       2228       2227  
      2096       2097       2108       2107       2217       2218       2229       2228  
      2097       2098       2109       2108       2218       2219       2230       2229  
      2098       2099       2110       2109       2219       2220       2231       2230  
      2099       2100       2111       2110       2220       2221       2232       2231  
      2100       2101       2112       2111       2221       2222       2233       2232  
      2102       2103       2114       2113       2223       2224       2235       2234  
      2103       2104       2115       2114       2224       2225       2236       2235  
      2104       2105       2116       2115       2225       2226       2237       2236  
      2105       2106       2117       2116       2226       2227       2238       2237  
      2106       2107       2118       2117       2227       2228       2239       2238  
      2107       2108       2119       2118       2228       2229       2240       2239  
      2108       2109       2120       2119       2229       2230       2241       2240  
      2109       2110       2121       2120       2230       2231       2242       2241  
      2110       2111       2122       2121       2231       2232       2243       2242  
      2111       2112       2123       2122       2232       2233       2244       2243  
      2113       2114       2125       2124       2234       2235       2246       2245  
      2114       2115       2126       2125       2235       2236       2247       2246  
      2115       2116       2127       2126       2236       2237       2248       2247  
      2116       2117       2128       2127       2237       2238       2249       2248  
      2117       2118       2129       2128       2238       2239       2250       2249  
      2118       2119       2130       2129       2239       2240       2251       2250  
      2119       2120       2131       2130       2240       2241       2252       2251  
      2120       2121       2132       2131       2241       2242       2253       2252  
      2121       2122       2133       2132       2242       2243       2254       2253  
      2122       2123       2134       2133       2243       2244       2255       2254  
      2124       2125       2136       2135       2245       2246       2257       2256  
      2125       2126       2137       2136       2246       2247       2258       2257  
      2126       2127       2138       2137       2247       2248       2259       2258  
      2127       2128       2139       2138       2248       2249       2260       2259  
      2128       2129       2140       2139       2249       2250       2261       2260  
      2129       2130       2141       2140       2250       2251       2262       2261  
      2130       2131       2142       2141       2251       2252       2263       2262  
      2131       2132       2143       2142       2252       2253       2264       2263  
      2132       2133       2144       2143       2253       2254       2265       2264  
      2133       2134       2145       2144       2254       2255       2266       2265  
      2135       2136       2147       2146       2256       2257       2268       2267  
      2136       2137       2148       2147       2257       2258       2269       2268  
      2137       2138       2149       2148       2258       2259       2270       2269  
      2138       2139       2150       2149       2259       2260       2271       2270  
      2139       2140       2151       2150       2260       2261       2272       2271  
      2140       2141       2152       2151       2261       2262       2273       2272  
      2141       2142       2153       2152       2262       2263       2274       2273  
      2142       2143       2154       2153       2263       2264       2275       2274  
      2143       2144       2155       2154       2264       2265       2276       2275  
      2144       2145       2156       2155       2265       2266       2277       2276  
      2146       2147       2158       2157       2267       2268       2279       2278  
      2147       2148       2159       2158       2268       2269       2280       2279  
      2148       2149       2160       2159       2269       2270       2281       2280  
      2149       2150       2161       2160       2270       2271       2282       2281  
      2150       2151       2162       2161       2271       2272       2283       2282  
      2151       2152       2163       2162       2272       2273       2284       2283  
      2152       2153       2164       2163       2273       2274       2285       2284  
      2153       2154       2165       2164       2274       2275       2286       2285  
      2154       2155       2166       2165       2275       2276       2287       2286  
      2155       2156       2167       2166       2276       2277       2288       2287  
      2157       2158       2169       2168       2278       2279       2290       2289  
      2158       2159       2170       2169       2279       2280       2291       2290  
      2159       2160       2171       2170       2280       2281       2292       2291  
      2160       2161       2172       2171       2281       2282       2293       2292  
      2161       2162       2173       2172       2282       2283       2294       2293  
      2162       2163       2174       2173       2283       2284       2295       2294  
      2163       2164       2175       2174       2284       2285       2296       2295  
      2164       2165       2176       2175       2285       2286       2297       2296  
      2165       2166       2177       2176       2286       2287       2298       2297  
      2166       2167       2178       2177       2287       2288       2299       2298  
      2179       2180       2191       2190       2300       2301       2312       2311  
      2180       2181       2192       2191       2301       2302       2313       2312  
      2181       2182       2193       2192       2302       2303       2314       2313  
      2182       2183       2194       2193       2303       2304       2315       2314  
      2183       2184       2195       2194       2304       2305       2316       2315  
      2184       2185       2196       2195       2305       2306       2317       2316  
      2185       2186       2197       2196       2306       2307       2318       2317  
      2186       2187       2198       2197       2307       2308       2319       2318  
      2187       2188       2199       2198       2308       2309       2320       2319  
      2188       2189       2200       2199       2309       2310       2321       2320  
      2190       2191       2202       2201       2311       2312       2323       2322  
      2191       2192       2203       2202       2312       2313       2324       2323  
      2192       2193       2204       2203       2313       2314       2325       2324  
      2193       2194       2205       2204       2314       2315       2326       2325  
      2194       2195       2206       2205       2315       2316       2327       2326  
      2195       2196       2207       2206       2316       2317       2328       2327  
      2196       2197       2208       2207       2317       2318       2329       2328  
      2197       2198       2209       2208       2318       2319       2330       2329  
      2198       2199       2210       2209       2319       2320       2331       2330  
      2199       2200       2211       2210       2320       2321       2332       2331  
      2201       2202       2213       2212       2322       2323       2334       2333  
      2202       2203       2214       2213       2323       2324       2335       2334  
      2203       2204       2215       2214       2324       2325       2336       2335  
      2204       2205       2216       2215       2325       2326       2337       2336  
      2205       2206       2217       2216       2326       2327       2338       2337  
      2206       2207       2218       2217       2327       2328       2339       2338  
      2207       2208       2219       2218       2328       2329       2340       2339  
      2208       2209       2220       2219       2329       2330       2341       2340  
      2209       2210       2221       2220       2330       2331       2342       2341  
      2210       2211       2222       2221       2331       2332       2343       2342  
      2212       2213       2224       2223       2333       2334       2345       2344  
      2213       2214       2225       2224       2334       2335       2346       2345  
      2214       2215       2226       2225       2335       2336       2347       2346  
      2215       2216       2227       2226       2336       2337       2348       2347  
      2216       2217       2228       2227       2337       2338       2349       2348  
      2217       2218       2229       2228       2338       2339       2350       2349  
      2218       2219       2230       2229       2339       2340       2351       2350  
      2219       2220       2231       2230       2340       2341       2352       2351  
      2220       2221       2232       2231       2341       2342       2353       2352  
      2221       2222       2233       2232       2342       2343       2354       2353  
      2223       2224       2235       2234       2344       2345       2356       2355  
      2224       2225       2236       2235       2345       2346       2357       2356  
      2225       2226       2237       2236       2346       2347       2358       2357  
      2226       2227       2238       2237       2347       2348       2359       2358  
      2227       2228       2239       2238       2348       2349       2360       2359  
      2228       2229       2240       2239       2349       2350       2361       2360  
      2229       2230       2241       2240       2350       2351       2362       2361  
      2230       2231       2242       2241       2351       2352       2363       2362  
      2231       2232       2243       2242       2352       2353       2364       2363  
      2232       2233       2244       2243       2353       2354       2365       2364  
      2234       2235       2246       2245       2355       2356       2367       2366  
      2235       2236       2247       2246       2356       2357       2368       2367  
      2236       2237       2248       2247       2357       2358       2369       2368  
      2237       2238       2249       2248       2358       2359       2370       2369  
      2238       2239       2250       2249       2359       2360       2371       2370  
      2239       2240       2251       2250       2360       2361       2372       2371  
      2240       2241       2252       2251       2361       2362       2373       2372  
      2241       2242       2253       2252       2362       2363       2374       2373  
      2242       2243       2254       2253       2363       2364       2375       2374  
      2243       2244       2255       2254       2364       2365       2376       2375  
      2245       2246       2257       2256       2366       2367       2378       2377  
      2246       2247       2258       2257       2367       2368       2379       2378  
      2247       2248       2259       2258       2368       2369       2380       2379  
      2248       2249       2260       2259       2369       2370       2381       2380  
      2249       2250       2261       2260       2370       2371       2382       2381  
      2250       2251       2262       2261       2371       2372       2383       2382  
      2251       2252       2263       2262       2372       2373       2384       2383  
      2252       2253       2264       2263       2373       2374       2385       2384  
      2253       2254       2265       2264       2374       2375       2386       2385  
      2254       2255       2266       2265       2375       2376       2387       2386  
      2256       2257       2268       2267       2377       2378       2389       2388  
      2257       2258       2269       2268       2378       2379       2390       2389  
      2258       2259       2270       2269       2379       2380       2391       2390  
      2259       2260       2271       2270       2380       2381       2392       2391  
      2260       2261       2272       2271       2381       2382       2393       2392  
      2261       2262       2273       2272       2382       2383       2394       2393  
      2262       2263       2274       2273       2383       2384       2395       2394  
      2263       2264       2275       2274       2384       2385       2396       2395  
      2264       2265       2276       2275       2385       2386       2397       2396  
      2265       2266       2277       2276       2386       2387       2398       2397  
      2267       2268       2279       2278       2388       2389       2400       2399  
      2268       2269       2280       2279       2389       2390       2401       2400  
      2269       2270       2281       2280       2390       2391       2402       2401  
      2270       2271       2282       2281       2391       2392       2403       2402  
      2271       2272       2283       2282       2392       2393       2404       2403  
      2272       2273       2284       2283       2393       2394       2405       2404  
      2273       2274       2285       2284       2394       2395       2406       2405  
      2274       2275       2286       2285       2395       2396       2407       2406  
      2275       2276       2287       2286       2396       2397       2408       2407  
      2276       2277       2288       2287       2397       2398       2409       2408  
      2278       2279       2290       2289       2399       2400       2411       2410  
      2279       2280       2291       2290       2400       2401       2412       2411  
      2280       2281       2292       2291       2401       2402       2413       2412  
      2281       2282       2293       2292       2402       2403       2414       2413  
      2282       2283       2294       2293       2403       2404       2415       2414  
      2283       2284       2295       2294       2404       2405       2416       2415  
      2284       2285       2296       2295       2405       2406       2417       2416  
      2285       2286       2297       2296       2406       2407       2418       2417  
      2286       2287       2298       2297       2407       2408       2419       2418  
      2287       2288       2299       2298       2408       2409       2420       2419  
      2300       2301       2312       2311       2421       2422       2433       2432  
      2301       2302       2313       2312       2422       2423       2434       2433  
      2302       2303       2314       2313       2423       2424       2435       2434  
      2303       2304       2315       2314       2424       2425       2436       2435  
      2304       2305       2316       2315       2425       2426       2437       2436  
      2305       2306       2317       2316       2426       2427       2438       2437  
      2306       2307       2318       2317       2427       2428       2439       2438  
      2307       2308       2319       2318       2428       2429       2440       2439  
      2308       2309       2320       2319       2429       2430       2441       2440  
      2309       2310       2321       2320       2430       2431       2442       2441  
      2311       2312       2323       2322       2432       2433       2444       2443  
      2312       2313       2324       2323       2433       2434       2445       2444  
      2313       2314       2325       2324       2434       2435       2446       2445  
      2314       2315       2326       2325       2435       2436       2447       2446  
      2315       2316       2327       2326       2436       2437       2448       2447  
      2316       2317       2328       2327       2437       2438       2449       2448  
      2317       2318       2329       2328       2438       2439       2450       2449  
      2318       2319       2330       2329       2439       2440       2451       2450  
      2319       2320       2331       2330       2440       2441       2452       2451  
      2320       2321       2332       2331       2441       2442       2453       2452  
      2322       2323       2334       2333       2443       2444       2455       2454  
      2323       2324       2335       2334       2444       2445       2456       2455  
      2324       2325       2336       2335       2445       2446       2457       2456  
      2325       2326       2337       2336       2446       2447       2458       2457  
      2326       2327       2338       2337       2447       2448       2459       2458  
      2327       2328       2339       2338       2448       2449       2460       2459  
      2328       2329       2340       2339       2449       2450       2461       2460  
      2329       2330       2341       2340       2450       2451       2462       2461  
      2330       2331       2342       2341       2451       2452       2463       2462  
      2331       2332       2343       2342       2452       2453       2464       2463  
      2333       2334       2345       2344       2454       2455       2466       2465  
      2334       2335       2346       2345       2455       2456       2467       2466  
      2335       2336       2347       2346       2456       2457       2468       2467  
      2336       2337       2348       2347       2457       2458       2469       2468  
      2337       2338       2349       2348       2458       2459       2470       2469  
      2338       2339       2350       2349       2459       2460       2471       2470  
      2339       2340       2351       2350       2460       2461       2472       2471  
      2340       2341       2352       2351       2461       2462       2473       2472  
      2341       2342       2353       2352       2462       2463       2474       2473  
      2342       2343       2354       2353       2463       2464       2475       2474  
      2344       2345       2356       2355       2465       2466       2477       2476  
      2345       2346       2357       2356       2466       2467       2478       2477  
      2346       2347       2358       2357       2467       2468       2479       2478  
      2347       2348       2359       2358       2468       2469       2480       2479  
      2348       2349       2360       2359       2469       2470       2481       2480  
      2349       2350       2361       2360       2470       2471       2482       2481  
      2350       2351       2362       2361       2471       2472       2483       2482  
      2351       2352       2363       2362       2472       2473       2484       2483  
      2352       2353       2364       2363       2473       2474       2485       2484  
      2353       2354       2365       2364       2474       2475       2486       2485  
      2355       2356       2367       2366       2476       2477       2488       2487  
      2356       2357       2368       2367       2477       2478       2489       2488  
      2357       2358       2369       2368       2478       2479       2490       2489  
      2358       2359       2370       2369       2479       2480       2491       2490  
      2359       2360       2371       2370       2480       2481       2492       2491  
      2360       2361       2372       2371       2481       2482       2493       2492  
      2361       2362       2373       2372       2482       2483       2494       2493  
      2362       2363       2374       2373       2483       2484       2495       2494  
      2363       2364       2375       2374       2484       2485       2496       2495  
      2364       2365       2376       2375       2485       2486       2497       2496  
      2366       2367       2378       2377       2487       2488       2499       2498  
      2367       2368       2379       2378       2488       2489       2500       2499  
      2368       2369       2380       2379       2489       2490       2501       2500  
      2369       2370       2381       2380       2490       2491       2502       2501  
      2370       2371       2382       2381       2491       2492       2503       2502  
      2371       2372       2383       2382       2492       2493       2504       2503  
      2372       2373       2384       2383       2493       2494       2505       2504  
      2373       2374       2385       2384       2494       2495       2506       2505  
      2374       2375       2386       2385       2495       2496       2507       2506  
      2375       2376       2387       2386       2496       2497       2508       2507  
      2377       2378       2389       2388       2498       2499       2510       2509  
      2378       2379       2390       2389       2499       2500       2511       2510  
      2379       2380       2391       2390       2500       2501       2512       2511  
      2380       2381       2392       2391       2501       2502       2513       2512  
      2381       2382       2393       2392       2502       2503       2514       2513  
      2382       2383       2394       2393       2503       2504       2515       2514  
      2383       2384       2395       2394       2504       2505       2516       2515  
      2384       2385       2396       2395       2505       2506       2517       2516  
      2385       2386       2397       2396       2506       2507       2518       2517  
      2386       2387       2398       2397       2507       2508       2519       2518  
      2388       2389       2400       2399       2509       2510       2521       2520  
      2389       2390       2401       2400       2510       2511       2522       2521  
      2390       2391       2402       2401       2511       2512       2523       2522  
      2391       2392       2403       2402       2512       2513       2524       2523  
      2392       2393       2404       2403       2513       2514       2525       2524  
      2393       2394       2405       2404       2514       2515       2526       2525  
      2394       2395       2406       2405       2515       2516       2527       2526  
      2395       2396       2407       2406       2516       2517       2528       2527  
      2396       2397       2408       2407       2517       2518       2529       2528  
      2397       2398       2409       2408       2518       2519       2530       2529  
      2399       2400       2411       2410       2520       2521       2532       2531  
      2400       2401       2412       2411       2521       2522       2533       2532  
      2401       2402       2413       2412       2522       2523       2534       2533  
      2402       2403       2414       2413       2523       2524       2535       2534  
      2403       2404       2415       2414       2524       2525       2536       2535  
      2404       2405       2416       2415       2525       2526       2537       2536  
      2405       2406       2417       2416       2526       2527       2538       2537  
      2406       2407       2418       2417       2527       2528       2539       2538  
      2407       2408       2419       2418       2528       2529       2540       2539  
      2408       2409       2420       2419       2529       2530       2541       2540  
      2421       2422       2433       2432       2542       2543       2554       2553  
      2422       2423       2434       2433       2543       2544       2555       2554  
      2423       2424       2435       2434       2544       2545       2556       2555  
      2424       2425       2436       2435       2545       2546       2557       2556  
      2425       2426       2437       2436       2546       2547       2558       2557  
      2426       2427       2438       2437       2547       2548       2559       2558  
      2427       2428       2439       2438       2548       2549       2560       2559  
      2428       2429       2440       2439       2549       2550       2561       2560  
      2429       2430       2441       2440       2550       2551       2562       2561  
      2430       2431       2442       2441       2551       2552       2563       2562  
      2432       2433       2444       2443       2553       2554       2565       2564  
      2433       2434       2445       2444       2554       2555       2566       2565  
      2434       2435       2446       2445       2555       2556       2567       2566  
      2435       2436       2447       2446       2556       2557       2568       2567  
      2436       2437       2448       2447       2557       2558       2569       2568  
      2437       2438       2449       2448       2558       2559       2570       2569  
      2438       2439       2450       2449       2559       2560       2571       2570  
      2439       2440       2451       2450       2560       2561       2572       2571  
      2440       2441       2452       2451       2561       2562       2573       2572  
      2441       2442       2453       2452       2562       2563       2574       2573  
      2443       2444       2455       2454       2564       2565       2576       2575  
      2444       2445       2456       2455       2565       2566       2577       2576  
      2445       2446       2457       2456       2566       2567       2578       2577  
      2446       2447       2458       2457       2567       2568       2579       2578  
      2447       2448       2459       2458       2568       2569       2580       2579  
      2448       2449       2460       2459       2569       2570       2581       2580  
      2449       2450       2461       2460       2570       2571       2582       2581  
      2450       2451       2462       2461       2571       2572       2583       2582  
      2451       2452       2463       2462       2572       2573       2584       2583  
      2452       2453       2464       2463       2573       2574       2585       2584  
      2454       2455       2466       2465       2575       2576       2587       2586  
      2455       2456       2467       2466       2576       2577       2588       2587  
      2456       2457       2468       2467       2577       2578       2589       2588  
      2457       2458       2469       2468       2578       2579       2590       2589  
      2458       2459       2470       2469       2579       2580       2591       2590  
      2459       2460       2471       2470       2580       2581       2592       2591  
      2460       2461       2472       2471       2581       2582       2593       2592  
      2461       2462       2473       2472       2582       2583       2594       2593  
      2462       2463       2474       2473       2583       2584       2595       2594  
      2463       2464       2475       2474       2584       2585       2596       2595  
      2465       2466       2477       2476       2586       2587       2598       2597  
      2466       2467       2478       2477       2587       2588       2599       2598  
      2467       2468       2479       2478       2588       2589       2600       2599  
      2468       2469       2480       2479       2589       2590       2601       2600  
      2469       2470       2481       2480       2590       2591       2602       2601  
      2470       2471       2482       2481       2591       2592       2603       2602  
      2471       2472       2483       2482       2592       2593       2604       2603  
      2472       2473       2484       2483       2593       2594       2605       2604  
      2473       2474       2485       2484       2594       2595       2606       2605  
      2474       2475       2486       2485       2595       2596       2607       2606  
      2476       2477       2488       2487       2597       2598       2609       2608  
      2477       2478       2489       2488       2598       2599       2610       2609  
      2478       2479       2490       2489       2599       2600       2611       2610  
      2479       2480       2491       2490       2600       2601       2612       2611  
      2480       2481       2492       2491       2601       2602       2613       2612  
      2481       2482       2493       2492       2602       2603       2614       2613  
      2482       2483       2494       2493       2603       2604       2615       2614  
      2483       2484       2495       2494       2604       2605       2616       2615  
      2484       2485       2496       2495       2605       2606       2617       2616  
      2485       2486       2497       2496       2606       2607       2618       2617  
      2487       2488       2499       2498       2608       2609       2620       2619  
      2488       2489       2500       2499       2609       2610       2621       2620  
      2489       2490       2501       2500       2610       2611       2622       2621  
      2490       2491       2502       2501       2611       2612       2623       2622  
      2491       2492       2503       2502       2612       2613       2624       2623  
      2492       2493       2504       2503       2613       2614       2625       2624  
      2493       2494       2505       2504       2614       2615       2626       2625  
      2494       2495       2506       2505       2615       2616       2627       2626  
      2495       2496       2507       2506       2616       2617       2628       2627  
      2496       2497       2508       2507       2617       2618       2629       2628  
      2498       2499       2510       2509       2619       2620       2631       2630  
      2499       2500       2511       2510       2620       2621       2632       2631  
      2500       2501       2512       2511       2621       2622       2633       2632  
      2501       2502       2513       2512       2622       2623       2634       2633  
      2502       2503       2514       2513       2623       2624       2635       2634  
      2503       2504       2515       2514       2624       2625       2636       2635  
      2504       2505       2516       2515       2625       2626       2637       2636  
      2505       2506       2517       2516       2626       2627       2638       2637  
      2506       2507       2518       2517       2627       2628       2639       2638  
      2507       2508       2519       2518       2628       2629       2640       2639  
      2509       2510       2521       2520       2630       2631       2642       2641  
      2510       2511       2522       2521       2631       2632       2643       2642  
      2511       2512       2523       2522       2632       2633       2644       2643  
      2512       2513       2524       2523       2633       2634       2645       2644  
      2513       2514       2525       2524       2634       2635       2646       2645  
      2514       2515       2526       2525       2635       2636       2647       2646  
      2515       2516       2527       2526       2636       2637       2648       2647  
      2516       2517       2528       2527       2637       2638       2649       2648  
      2517       2518       2529       2528       2638       2639       2650       2649  
      2518       2519       2530       2529       2639       2640       2651       2650  
      2520       2521       2532       2531       2641       2642       2653       2652  
      2521       2522       2533       2532       2642       2643       2654       2653  
      2522       2523       2534       2533       2643       2644       2655       2654  
      2523       2524       2535       2534       2644       2645       2656       2655  
      2524       2525       2536       2535       2645       2646       2657       2656  
      2525       2526       2537       2536       2646       2647       2658       2657  
      2526       2527       2538       2537       2647       2648       2659       2658  
      2527       2528       2539       2538       2648       2649       2660       2659  
      2528       2529       2540       2539       2649       2650       2661       2660  
      2529       2530       2541       2540       2650       2651       2662       2661  
      2542       2543       2554       2553       2663       2664       2675       2674  
      2543       2544       2555       2554       2664       2665       2676       2675  
      2544       2545       2556       2555       2665       2666       2677       2676  
      2545       2546       2557       2556       2666       2667       2678       2677  
      2546       2547       2558       2557       2667       2668       2679       2678  
      2547       2548       2559       2558       2668       2669       2680       2679  
      2548       2549       2560       2559       2669       2670       2681       2680  
      2549       2550       2561       2560       2670       2671       2682       2681  
      2550       2551       2562       2561       2671       2672       2683       2682  
      2551       2552       2563       2562       2672       2673       2684       2683  
      2553       2554       2565       2564       2674       2675       2686       2685  
      2554       2555       2566       2565       2675       2676       2687       2686  
      2555       2556       2567       2566       2676       2677       2688       2687  
      2556       2557       2568       2567       2677       2678       2689       2688  
      2557       2558       2569       2568       2678       2679       2690       2689  
      2558       2559       2570       2569       2679       2680       2691       2690  
      2559       2560       2571       2570       2680       2681       2692       2691  
      2560       2561       2572       2571       2681       2682       2693       2692  
      2561       2562       2573       2572       2682       2683       2694       2693  
      2562       2563       2574       2573       2683       2684       2695       2694  
      2564       2565       2576       2575       2685       2686       2697       2696  
      2565       2566       2577       2576       2686       2687       2698       2697  
      2566       2567       2578       2577       2687       2688       2699       2698  
      2567       2568       2579       2578       2688       2689       2700       2699  
      2568       2569       2580       2579       2689       2690       2701       2700  
      2569       2570       2581       2580       2690       2691       2702       2701  
      2570       2571       2582       2581       2691       2692       2703       2702  
      2571       2572       2583       2582       2692       2693       2704       2703  
      2572       2573       2584       2583       2693       2694       2705       2704  
      2573       2574       2585       2584       2694       2695       2706       2705  
      2575       2576       2587       2586       2696       2697       2708       2707  
      2576       2577       2588       2587       2697       2698       2709       2708  
      2577       2578       2589       2588       2698       2699       2710       2709  
      2578       2579       2590       2589       2699       2700       2711       2710  
      2579       2580       2591       2590       2700       2701       2712       2711  
      2580       2581       2592       2591       2701       2702       2713       2712  
      2581       2582       2593       2592       2702       2703       2714       2713  
      2582       2583       2594       2593       2703       2704       2715       2714  
      2583       2584       2595       2594       2704       2705       2716       2715  
      2584       2585       2596       2595       2705       2706       2717       2716  
      2586       2587       2598       2597       2707       2708       2719       2718  
      2587       2588       2599       2598       2708       2709       2720       2719  
      2588       2589       2600       2599       2709       2710       2721       2720  
      2589       2590       2601       2600       2710       2711       2722       2721  
      2590       2591       2602       2601       2711       2712       2723       2722  
      2591       2592       2603       2602       2712       2713       2724       2723  
      2592       2593       2604       2603       2713       2714       2725       2724  
      2593       2594       2605       2604       2714       2715       2726       2725  
      2594       2595       2606       2605       2715       2716       2727       2726  
      2595       2596       2607       2606       2716       2717       2728       2727  
      2597       2598       2609       2608       2718       2719       2730       2729  
      2598       2599       2610       2609       2719       2720       2731       2730  
      2599       2600       2611       2610       2720       2721       2732       2731  
      2600       2601       2612       2611       2721       2722       2733       2732  
      2601       2602       2613       2612       2722       2723       2734       2733  
      2602       2603       2614       2613       2723       2724       2735       2734  
      2603       2604       2615       2614       2724       2725       2736       2735  
      2604       2605       2616       2615       2725       2726       2737       2736  
      2605       2606       2617       2616       2726       2727       2738       2737  
      2606       2607       2618       2617       2727       2728       2739       2738  
      2608       2609       2620       2619       2729       2730       2741       2740  
      2609       2610       2621       2620       2730       2731       2742       2741  
      2610       2611       2622       2621       2731       2732       2743       2742  
      2611       2612       2623       2622       2732       2733       2744       2743  
      2612       2613       2624       2623       2733       2734       2745       2744  
      2613       2614       2625       2624       2734       2735       2746       2745  
      2614       2615       2626       2625       2735       2736       2747       2746  
      2615       2616       2627       2626       2736       2737       2748       2747  
      2616       2617       2628       2627       2737       2738       2749       2748  
      2617       2618       2629       2628       2738       2739       2750       2749  
      2619       2620       2631       2630       2740       2741       2752       2751  
      2620       2621       2632       2631       2741       2742       2753       2752  
      2621       2622       2633       2632       2742       2743       2754       2753  
      2622       2623       2634       2633       2743       2744       2755       2754  
      2623       2624       2635       2634       2744       2745       2756       2755  
      2624       2625       2636       2635       2745       2746       2757       2756  
      2625       2626       2637       2636       2746       2747       2758       2757  
      2626       2627       2638       2637       2747       2748       2759       2758  
      2627       2628       2639       2638       2748       2749       2760       2759  
      2628       2629       2640       2639       2749       2750       2761       2760  
      2630       2631       2642       2641       2751       2752       2763       2762  
      2631       2632       2643       2642       2752       2753       2764       2763  
      2632       2633       2644       2643       2753       2754       2765       2764  
      2633       2634       2645       2644       2754       2755       2766       2765  
      2634       2635       2646       2645       2755       2756       2767       2766  
      2635       2636       2647       2646       2756       2757       2768       2767  
      2636       2637       2648       2647       2757       2758       2769       2768  
      2637       2638       2649       2648       2758       2759       2770       2769  
      2638       2639       2650       2649       2759       2760       2771       2770  
      2639       2640       2651       2650       2760       2761       2772       2771  
      2641       2642       2653       2652       2762       2763       2774       2773  
      2642       2643       2654       2653       2763       2764       2775       2774  
      2643       2644       2655       2654       2764       2765       2776       2775  
      2644       2645       2656       2655       2765       2766       2777       2776  
      2645       2646       2657       2656       2766       2767       2778       2777  
      2646       2647       2658       2657       2767       2768       2779       2778  
      2647       2648       2659       2658       2768       2769       2780       2779  
      2648       2649       2660       2659       2769       2770       2781       2780  
      2649       2650       2661       2660       2770       2771       2782       2781  
      2650       2651       2662       2661       2771       2772       2783       2782  
      2663       2664       2675       2674       2784       2785       2796       2795  
      2664       2665       2676       2675       2785       2786       2797       2796  
      2665       2666       2677       2676       2786       2787       2798       2797  
      2666       2667       2678       2677       2787       2788       2799       2798  
      2667       2668       2679       2678       2788       2789       2800       2799  
      2668       2669       2680       2679       2789       2790       2801       2800  
      2669       2670       2681       2680       2790       2791       2802       2801  
      2670       2671       2682       2681       2791       2792       2803       2802  
      2671       2672       2683       2682       2792       2793       2804       2803  
      2672       2673       2684       2683       2793       2794       2805       2804  
      2674       2675       2686       2685       2795       2796       2807       2806  
      2675       2676       2687       2686       2796       2797       2808       2807  
      2676       2677       2688       2687       2797       2798       2809       2808  
      2677       2678       2689       2688       2798       2799       2810       2809  
      2678       2679       2690       2689       2799       2800       2811       2810  
      2679       2680       2691       2690       2800       2801       2812       2811  
      2680       2681       2692       2691       2801       2802       2813       2812  
      2681       2682       2693       2692       2802       2803       2814       2813  
      2682       2683       2694       2693       2803       2804       2815       2814  
      2683       2684       2695       2694       2804       2805       2816       2815  
      2685       2686       2697       2696       2806       2807       2818       2817  
      2686       2687       2698       2697       2807       2808       2819       2818  
      2687       2688       2699       2698       2808       2809       2820       2819  
      2688       2689       2700       2699       2809       2810       2821       2820  
      2689       2690       2701       2700       2810       2811       2822       2821  
      2690       2691       2702       2701       2811       2812       2823       2822  
      2691       2692       2703       2702       2812       2813       2824       2823  
      2692       2693       2704       2703       2813       2814       2825       2824  
      2693       2694       2705       2704       2814       2815       2826       2825  
      2694       2695       2706       2705       2815       2816       2827       2826  
      2696       2697       2708       2707       2817       2818       2829       2828  
      2697       2698       2709       2708       2818       2819       2830       2829  
      2698       2699       2710       2709       2819       2820       2831       2830  
      2699       2700       2711       2710       2820       2821       2832       2831  
      2700       2701       2712       2711       2821       2822       2833       2832  
      2701       2702       2713       2712       2822       2823       2834       2833  
      2702       2703       2714       2713       2823       2824       2835       2834  
      2703       2704       2715       2714       2824       2825       2836       2835  
      2704       2705       2716       2715       2825       2826       2837       2836  
      2705       2706       2717       2716       2826       2827       2838       2837  
      2707       2708       2719       2718       2828       2829       2840       2839  
      2708       2709       2720       2719       2829       2830       2841       2840  
      2709       2710       2721       2720       2830       2831       2842       2841  
      2710       2711       2722       2721       2831       2832       2843       2842  
      2711       2712       2723       2722       2832       2833       2844       2843  
      2712       2713       2724       2723       2833       2834       2845       2844  
      2713       2714       2725       2724       2834       2835       2846       2845  
      2714       2715       2726       2725       2835       2836       2847       2846  
      2715       2716       2727       2726       2836       2837       2848       2847  
      2716       2717       2728       2727       2837       2838       2849       2848  
      2718       2719       2730       2729       2839       2840       2851       2850  
      2719       2720       2731       2730       2840       2841       2852       2851  
      2720       2721       2732       2731       2841       2842       2853       2852  
      2721       2722       2733       2732       2842       2843       2854       2853  
      2722       2723       2734       2733       2843       2844       2855       2854  
      2723       2724       2735       2734       2844       2845       2856       2855  
      2724       2725       2736       2735       2845       2846       2857       2856  
      2725       2726       2737       2736       2846       2847       2858       2857  
      2726       2727       2738       2737       2847       2848       2859       2858  
      2727       2728       2739       2738       2848       2849       2860       2859  
      2729       2730       2741       2740       2850       2851       2862       2861  
      2730       2731       2742       2741       2851       2852       2863       2862  
      2731       2732       2743       2742       2852       2853       2864       2863  
      2732       2733       2744       2743       2853       2854       2865       2864  
      2733       2734       2745       2744       2854       2855       2866       2865  
      2734       2735       2746       2745       2855       2856       2867       2866  
      2735       2736       2747       2746       2856       2857       2868       2867  
      2736       2737       2748       2747       2857       2858       2869       2868  
      2737       2738       2749       2748       2858       2859       2870       2869  
      2738       2739       2750       2749       2859       2860       2871       2870  
      2740       2741       2752       2751       2861       2862       2873       2872  
      2741       2742       2753       2752       2862       2863       2874       2873  
      2742       2743       2754       2753       2863       2864       2875       2874  
      2743       2744       2755       2754       2864       2865       2876       2875  
      2744       2745       2756       2755       2865       2866       2877       2876  
      2745       2746       2757       2756       2866       2867       2878       2877  
      2746       2747       2758       2757       2867       2868       2879       2878  
      2747       2748       2759       2758       2868       2869       2880       2879  
      2748       2749       2760       2759       2869       2870       2881       2880  
      2749       2750       2761       2760       2870       2871       2882       2881  
      2751       2752       2763       2762       2872       2873       2884       2883  
      2752       2753       2764       2763       2873       2874       2885       2884  
      2753       2754       2765       2764       2874       2875       2886       2885  
      2754       2755       2766       2765       2875       2876       2887       2886  
      2755       2756       2767       2766       2876       2877       2888       2887  
      2756       2757       2768       2767       2877       2878       2889       2888  
      2757       2758       2769       2768       2878       2879       2890       2889  
      2758       2759       2770       2769       2879       2880       2891       2890  
      2759       2760       2771       2770       2880       2881       2892       2891  
      2760       2761       2772       2771       2881       2882       2893       2892  
      2762       2763       2774       2773       2883       2884       2895       2894  
      2763       2764       2775       2774       2884       2885       2896       2895  
      2764       2765       2776       2775       2885       2886       2897       2896  
      2765       2766       2777       2776       2886       2887       2898       2897  
      2766       2767       2778       2777       2887       2888       2899       2898  
      2767       2768       2779       2778       2888       2889       2900       2899  
      2768       2769       2780       2779       2889       2890       2901       2900  
      2769       2770       2781       2780       2890       2891       2902       2901  
      2770       2771       2782       2781       2891       2892       2903       2902  
      2771       2772       2783       2782       2892       2893       2904       2903  
      2784       2785       2796       2795       2905       2906       2917       2916  
      2785       2786       2797       2796       2906       2907       2918       2917  
      2786       2787       2798       2797       2907       2908       2919       2918  
      2787       2788       2799       2798       2908       2909       2920       2919  
      2788       2789       2800       2799       2909       2910       2921       2920  
      2789       2790       2801       2800       2910       2911       2922       2921  
      2790       2791       2802       2801       2911       2912       2923       2922  
      2791       2792       2803       2802       2912       2913       2924       2923  
      2792       2793       2804       2803       2913       2914       2925       2924  
      2793       2794       2805       2804       2914       2915       2926       2925  
      2795       2796       2807       2806       2916       2917       2928       2927  
      2796       2797       2808       2807       2917       2918       2929       2928  
      2797       2798       2809       2808       2918       2919       2930       2929  
      2798       2799       2810       2809       2919       2920       2931       2930  
      2799       2800       2811       2810       2920       2921       2932       2931  
      2800       2801       2812       2811       2921       2922       2933       2932  
      2801       2802       2813       2812       2922       2923       2934       2933  
      2802       2803       2814       2813       2923       2924       2935       2934  
      2803       2804       2815       2814       2924       2925       2936       2935  
      2804       2805       2816       2815       2925       2926       2937       2936  
      2806       2807       2818       2817       2927       2928       2939       2938  
      2807       2808       2819       2818       2928       2929       2940       2939  
      2808       2809       2820       2819       2929       2930       2941       2940  
      2809       2810       2821       2820       2930       2931       2942       2941  
      2810       2811       2822       2821       2931       2932       2943       2942  
      2811       2812       2823       2822       2932       2933       2944       2943  
      2812       2813       2824       2823       2933       2934       2945       2944  
      2813       2814       2825       2824       2934       2935       2946       2945  
      2814       2815       2826       2825       2935       2936       2947       2946  
      2815       2816       2827       2826       2936       2937       2948       2947  
      2817       2818       2829       2828       2938       2939       2950       2949  
      2818       2819       2830       2829       2939       2940       2951       2950  
      2819       2820       2831       2830       2940       2941       2952       2951  
      2820       2821       2832       2831       2941       2942       2953       2952  
      2821       2822       2833       2832       2942       2943       2954       2953  
      2822       2823       2834       2833       2943       2944       2955       2954  
      2823       2824       2835       2834       2944       2945       2956       2955  
      2824       2825       2836       2835       2945       2946       2957       2956  
      2825       2826       2837       2836       2946       2947       2958       2957  
      2826       2827       2838       2837       2947       2948       2959       2958  
      2828       2829       2840       2839       2949       2950       2961       2960  
      2829       2830       2841       2840       2950       2951       2962       2961  
      2830       2831       2842       2841       2951       2952       2963       2962  
      2831       2832       2843       2842       2952       2953       2964       2963  
      2832       2833       2844       2843       2953       2954       2965       2964  
      2833       2834       2845       2844       2954       2955       2966       2965  
      2834       2835       2846       2845       2955       2956       2967       2966  
      2835       2836       2847       2846       2956       2957       2968       2967  
      2836       2837       2848       2847       2957       2958       2969       2968  
      2837       2838       2849       2848       2958       2959       2970       2969  
      2839       2840       2851       2850       2960       2961       2972       2971  
      2840       2841       2852       2851       2961       2962       2973       2972  
      2841       2842       2853       2852       2962       2963       2974       2973  
      2842       2843       2854       2853       2963       2964       2975       2974  
      2843       2844       2855       2854       2964       2965       2976       2975  
      2844       2845       2856       2855       2965       2966       2977       2976  
      2845       2846       2857       2856       2966       2967       2978       2977  
      2846       2847       2858       2857       2967       2968       2979       2978  
      2847       2848       2859       2858       2968       2969       2980       2979  
      2848       2849       2860       2859       2969       2970       2981       2980  
      2850       2851       2862       2861       2971       2972       2983       2982  
      2851       2852       2863       2862       2972       2973       2984       2983  
      2852       2853       2864       2863       2973       2974       2985       2984  
      2853       2854       2865       2864       2974       2975       2986       2985  
      2854       2855       2866       2865       2975       2976       2987       2986  
      2855       2856       2867       2866       2976       2977       2988       2987  
      2856       2857       2868       2867       2977       2978       2989       2988  
      2857       2858       2869       2868       2978       2979       2990       2989  
      2858       2859       2870       2869       2979       2980       2991       2990  
      2859       2860       2871       2870       2980       2981       2992       2991  
      2861       2862       2873       2872       2982       2983       2994       2993  
      2862       2863       2874       2873       2983       2984       2995       2994  
      2863       2864       2875       2874       2984       2985       2996       2995  
      2864       2865       2876       2875       2985       2986       2997       2996  
      2865       2866       2877       2876       2986       2987       2998       2997  
      2866       2867       2878       2877       2987       2988       2999       2998  
      2867       2868       2879       2878       2988       2989       3000       2999  
      2868       2869       2880       2879       2989       2990       3001       3000  
      2869       2870       2881       2880       2990       2991       3002       3001  
      2870       2871       2882       2881       2991       2992       3003       3002  
      2872       2873       2884       2883       2993       2994       3005       3004  
      2873       2874       2885       2884       2994       2995       3006       3005  
      2874       2875       2886       2885       2995       2996       3007       3006  
      2875       2876       2887       2886       2996       2997       3008       3007  
      2876       2877       2888       2887       2997       2998       3009       3008  
      2877       2878       2889       2888       2998       2999       3010       3009  
      2878       2879       2890       2889       2999       3000       3011       3010  
      2879       2880       2891       2890       3000       3001       3012       3011  
      2880       2881       2892       2891       3001       3002       3013       3012  
      2881       2882       2893       2892       3002       3003       3014       3013  
      2883       2884       2895       2894       3004       3005       3016       3015  
      2884       2885       2896       2895       3005       3006       3017       3016  
      2885       2886       2897       2896       3006       3007       3018       3017  
      2886       2887       2898       2897       3007       3008       3019       3018  
      2887       2888       2899       2898       3008       3009       3020       3019  
      2888       2889       2900       2899       3009       3010       3021       3020  
      2889       2890       2901       2900       3010       3011       3022       3021  
      2890       2891       2902       2901       3011       3012       3023       3022  
      2891       2892       2903       2902       3012       3013       3024       3023  
      2892       2893       2904       2903       3013       3014       3025       3024  
      2905       2906       2917       2916       3026       3027       3038       3037  
      2906       2907       2918       2917       3027       3028       3039       3038  
      2907       2908       2919       2918       3028       3029       3040       3039  
      2908       2909       2920       2919       3029       3030       3041       3040  
      2909       2910       2921       2920       3030       3031       3042       3041  
      2910       2911       2922       2921       3031       3032       3043       3042  
      2911       2912       2923       2922       3032       3033       3044       3043  
      2912       2913       2924       2923       3033       3034       3045       3044  
      2913       2914       2925       2924       3034       3035       3046       3045  
      2914       2915       2926       2925       3035       3036       3047       3046  
      2916       2917       2928       2927       3037       3038       3049       3048  
      2917       2918       2929       2928       3038       3039       3050       3049  
      2918       2919       2930       2929       3039       3040       3051       3050  
      2919       2920       2931       2930       3040       3041       3052       3051  
      2920       2921       2932       2931       3041       3042       3053       3052  
      2921       2922       2933       2932       3042       3043       3054       3053  
      2922       2923       2934       2933       3043       3044       3055       3054  
      2923       2924       2935       2934       3044       3045       3056       3055  
      2924       2925       2936       2935       3045       3046       3057       3056  
      2925       2926       2937       2936       3046       3047       3058       3057  
      2927       2928       2939       2938       3048       3049       3060       3059  
      2928       2929       2940       2939       3049       3050       3061       3060  
      2929       2930       2941       2940       3050       3051       3062       3061  
      2930       2931       2942       2941       3051       3052       3063       3062  
      2931       2932       2943       2942       3052       3053       3064       3063  
      2932       2933       2944       2943       3053       3054       3065       3064  
      2933       2934       2945       2944       3054       3055       3066       3065  
      2934       2935       2946       2945       3055       3056       3067       3066  
      2935       2936       2947       2946       3056       3057       3068       3067  
      2936       2937       2948       2947       3057       3058       3069       3068  
      2938       2939       2950       2949       3059       3060       3071       3070  
      2939       2940       2951       2950       3060       3061       3072       3071  
      2940       2941       2952       2951       3061       3062       3073       3072  
      2941       2942       2953       2952       3062       3063       3074       3073  
      2942       2943       2954       2953       3063       3064       3075       3074  
      2943       2944       2955       2954       3064       3065       3076       3075  
      2944       2945       2956       2955       3065       3066       3077       3076  
      2945       2946       2957       2956       3066       3067       3078       3077  
      2946       2947       2958       2957       3067       3068       3079       3078  
      2947       2948       2959       2958       3068       3069       3080       3079  
      2949       2950       2961       2960       3070       3071       3082       3081  
      2950       2951       2962       2961       3071       3072       3083       3082  
      2951       2952       2963       2962       3072       3073       3084       3083  
      2952       2953       2964       2963       3073       3074       3085       3084  
      2953       2954       2965       2964       3074       3075       3086       3085  
      2954       2955       2966       2965       3075       3076       3087       3086  
      2955       2956       2967       2966       3076       3077       3088       3087  
      2956       2957       2968       2967       3077       3078       3089       3088  
      2957       2958       2969       2968       3078       3079       3090       3089  
      2958       2959       2970       2969       3079       3080       3091       3090  
      2960       2961       2972       2971       3081       3082       3093       3092  
      2961       2962       2973       2972       3082       3083       3094       3093  
      2962       2963       2974       2973       3083       3084       3095       3094  
      2963       2964       2975       2974       3084       3085       3096       3095  
      2964       2965       2976       2975       3085       3086       3097       3096  
      2965       2966       2977       2976       3086       3087       3098       3097  
      2966       2967       2978       2977       3087       3088       3099       3098  
      2967       2968       2979       2978       3088       3089       3100       3099  
      2968       2969       2980       2979       3089       3090       3101       3100  
      2969       2970       2981       2980       3090       3091       3102       3101  
      2971       2972       2983       2982       3092       3093       3104       3103  
      2972       2973       2984       2983       3093       3094       3105       3104  
      2973       2974       2985       2984       3094       3095       3106       3105  
      2974       2975       2986       2985       3095       3096       3107       3106  
      2975       2976       2987       2986       3096       3097       3108       3107  
      2976       2977       2988       2987       3097       3098       3109       3108  
      2977       2978       2989       2988       3098       3099       3110       3109  
      2978       2979       2990       2989       3099       3100       3111       3110  
      2979       2980       2991       2990       3100       3101       3112       3111  
      2980       2981       2992       2991       3101       3102       3113       3112  
      2982       2983       2994       2993       3103       3104       3115       3114  
      2983       2984       2995       2994       3104       3105       3116       3115  
      2984       2985       2996       2995       3105       3106       3117       3116  
      2985       2986       2997       2996       3106       3107       3118       3117  
      2986       2987       2998       2997       3107       3108       3119       3118  
      2987       2988       2999       2998       3108       3109       3120       3119  
      2988       2989       3000       2999       3109       3110       3121       3120  
      2989       2990       3001       3000       3110       3111       3122       3121  
      2990       2991       3002       3001       3111       3112       3123       3122  
      2991       2992       3003       3002       3112       3113       3124       3123  
      2993       2994       3005       3004       3114       3115       3126       3125  
      2994       2995       3006       3005       3115       3116       3127       3126  
      2995       2996       3007       3006       3116       3117       3128       3127  
      2996       2997       3008       3007       3117       3118       3129       3128  
      2997       2998       3009       3008       3118       3119       3130       3129  
      2998       2999       3010       3009       3119       3120       3131       3130  
      2999       3000       3011       3010       3120       3121       3132       3131  
      3000       3001       3012       3011       3121       3122       3133       3132  
      3001       3002       3013       3012       3122       3123       3134       3133  
      3002       3003       3014       3013       3123       3124       3135       3134  
      3004       3005       3016       3015       3125       3126       3137       3136  
      3005       3006       3017       3016       3126       3127       3138       3137  
      3006       3007       3018       3017       3127       3128       3139       3138  
      3007       3008       3019       3018       3128       3129       3140       3139  
      3008       3009       3020       3019       3129       3130       3141       3140  
      3009       3010       3021       3020       3130       3131       3142       3141  
      3010       3011       3022       3021       3131       3132       3143       3142  
      3011       3012       3023       3022       3132       3133       3144       3143  
      3012       3013       3024       3023       3133       3134       3145       3144  
      3013       3014       3025       3024       3134       3135       3146       3145  
      3026       3027       3038       3037       3147       3148       3159       3158  
      3027       3028       3039       3038       3148       3149       3160       3159  
      3028       3029       3040       3039       3149       3150       3161       3160  
      3029       3030       3041       3040       3150       3151       3162       3161  
      3030       3031       3042       3041       3151       3152       3163       3162  
      3031       3032       3043       3042       3152       3153       3164       3163  
      3032       3033       3044       3043       3153       3154       3165       3164  
      3033       3034       3045       3044       3154       3155       3166       3165  
      3034       3035       3046       3045       3155       3156       3167       3166  
      3035       3036       3047       3046       3156       3157       3168       3167  
      3037       3038       3049       3048       3158       3159       3170       3169  
      3038       3039       3050       3049       3159       3160       3171       3170  
      3039       3040       3051       3050       3160       3161       3172       3171  
      3040       3041       3052       3051       3161       3162       3173       3172  
      3041       3042       3053       3052       3162       3163       3174       3173  
      3042       3043       3054       3053       3163       3164       3175       3174  
      3043       3044       3055       3054       3164       3165       3176       3175  
      3044       3045       3056       3055       3165       3166       3177       3176  
      3045       3046       3057       3056       3166       3167       3178       3177  
      3046       3047       3058       3057       3167       3168       3179       3178  
      3048       3049       3060       3059       3169       3170       3181       3180  
      3049       3050       3061       3060       3170       3171       3182       3181  
      3050       3051       3062       3061       3171       3172       3183       3182  
      3051       3052       3063       3062       3172       3173       3184       3183  
      3052       3053       3064       3063       3173       3174       3185       3184  
      3053       3054       3065       3064       3174       3175       3186       3185  
      3054       3055       3066       3065       3175       3176       3187       3186  
      3055       3056       3067       3066       3176       3177       3188       3187  
      3056       3057       3068       3067       3177       3178       3189       3188  
      3057       3058       3069       3068       3178       3179       3190       3189  
      3059       3060       3071       3070       3180       3181       3192       3191  
      3060       3061       3072       3071       3181       3182       3193       3192  
      3061       3062       3073       3072       3182       3183       3194       3193  
      3062       3063       3074       3073       3183       3184       3195       3194  
      3063       3064       3075       3074       3184       3185       3196       3195  
      3064       3065       3076       3075       3185       3186       3197       3196  
      3065       3066       3077       3076       3186       3187       3198       3197  
      3066       3067       3078       3077       3187       3188       3199       3198  
      3067       3068       3079       3078       3188       3189       3200       3199  
      3068       3069       3080       3079       3189       3190       3201       3200  
      3070       3071       3082       3081       3191       3192       3203       3202  
      3071       3072       3083       3082       3192       3193       3204       3203  
      3072       3073       3084       3083       3193       3194       3205       3204  
      3073       3074       3085       3084       3194       3195       3206       3205  
      3074       3075       3086       3085       3195       3196       3207       3206  
      3075       3076       3087       3086       3196       3197       3208       3207  
      3076       3077       3088       3087       3197       3198       3209       3208  
      3077       3078       3089       3088       3198       3199       3210       3209  
      3078       3079       3090       3089       3199       3200       3211       3210  
      3079       3080       3091       3090       3200       3201       3212       3211  
      3081       3082       3093       3092       3202       3203       3214       3213  
      3082       3083       3094       3093       3203       3204       3215       3214  
      3083       3084       3095       3094       3204       3205       3216       3215  
      3084       3085       3096       3095       3205       3206       3217       3216  
      3085       3086       3097       3096       3206       3207       3218       3217  
      3086       3087       3098       3097       3207       3208       3219       3218  
      3087       3088       3099       3098       3208       3209       3220       3219  
      3088       3089       3100       3099       3209       3210       3221       3220  
      3089       3090       3101       3100       3210       3211       3222       3221  
      3090       3091       3102       3101       3211       3212       3223       3222  
      3092       3093       3104       3103       3213       3214       3225       3224  
      3093       3094       3105       3104       3214       3215       3226       3225  
      3094       3095       3106       3105       3215       3216       3227       3226  
      3095       3096       3107       3106       3216       3217       3228       3227  
      3096       3097       3108       3107       3217       3218       3229       3228  
      3097       3098       3109       3108       3218       3219       3230       3229  
      3098       3099       3110       3109       3219       3220       3231       3230  
      3099       3100       3111       3110       3220       3221       3232       3231  
      3100       3101       3112       3111       3221       3222       3233       3232  
      3101       3102       3113       3112       3222       3223       3234       3233  
      3103       3104       3115       3114       3224       3225       3236       3235  
      3104       3105       3116       3115       3225       3226       3237       3236  
      3105       3106       3117       3116       3226       3227       3238       3237  
      3106       3107       3118       3117       3227       3228       3239       3238  
      3107       3108       3119       3118       3228       3229       3240       3239  
      3108       3109       3120       3119       3229       3230       3241       3240  
      3109       3110       3121       3120       3230       3231       3242       3241  
      3110       3111       3122       3121       3231       3232       3243       3242  
      3111       3112       3123       3122       3232       3233       3244       3243  
      3112       3113       3124       3123       3233       3234       3245       3244  
      3114       3115       3126       3125       3235       3236       3247       3246  
      3115       3116       3127       3126       3236       3237       3248       3247  
      3116       3117       3128       3127       3237       3238       3249       3248  
      3117       3118       3129       3128       3238       3239       3250       3249  
      3118       3119       3130       3129       3239       3240       3251       3250  
      3119       3120       3131       3130       3240       3241       3252       3251  
      3120       3121       3132       3131       3241       3242       3253       3252  
      3121       3122       3133       3132       3242       3243       3254       3253  
      3122       3123       3134       3133       3243       3244       3255       3254  
      3123       3124       3135       3134       3244       3245       3256       3255  
      3125       3126       3137       3136       3246       3247       3258       3257  
      3126       3127       3138       3137       3247       3248       3259       3258  
      3127       3128       3139       3138       3248       3249       3260       3259  
      3128       3129       3140       3139       3249       3250       3261       3260  
      3129       3130       3141       3140       3250       3251       3262       3261  
      3130       3131       3142       3141       3251       3252       3263       3262  
      3131       3132       3143       3142       3252       3253       3264       3263  
      3132       3133       3144       3143       3253       3254       3265       3264  
      3133       3134       3145       3144       3254       3255       3266       3265  
      3134       3135       3146       3145       3255       3256       3267       3266  
      3147       3148       3159       3158       3268       3269       3280       3279  
      3148       3149       3160       3159       3269       3270       3281       3280  
      3149       3150       3161       3160       3270       3271       3282       3281  
      3150       3151       3162       3161       3271       3272       3283       3282  
      3151       3152       3163       3162       3272       3273       3284       3283  
      3152       3153       3164       3163       3273       3274       3285       3284  
      3153       3154       3165       3164       3274       3275       3286       3285  
      3154       3155       3166       3165       3275       3276       3287       3286  
      3155       3156       3167       3166       3276       3277       3288       3287  
      3156       3157       3168       3167       3277       3278       3289       3288  
      3158       3159       3170       3169       3279       3280       3291       3290  
      3159       3160       3171       3170       3280       3281       3292       3291  
      3160       3161       3172       3171       3281       3282       3293       3292  
      3161       3162       3173       3172       3282       3283       3294       3293  
      3162       3163       3174       3173       3283       3284       3295       3294  
      3163       3164       3175       3174       3284       3285       3296       3295  
      3164       3165       3176       3175       3285       3286       3297       3296  
      3165       3166       3177       3176       3286       3287       3298       3297  
      3166       3167       3178       3177       3287       3288       3299       3298  
      3167       3168       3179       3178       3288       3289       3300       3299  
      3169       3170       3181       3180       3290       3291       3302       3301  
      3170       3171       3182       3181       3291       3292       3303       3302  
      3171       3172       3183       3182       3292       3293       3304       3303  
      3172       3173       3184       3183       3293       3294       3305       3304  
      3173       3174       3185       3184       3294       3295       3306       3305  
      3174       3175       3186       3185       3295       3296       3307       3306  
      3175       3176       3187       3186       3296       3297       3308       3307  
      3176       3177       3188       3187       3297       3298       3309       3308  
      3177       3178       3189       3188       3298       3299       3310       3309  
      3178       3179       3190       3189       3299       3300       3311       3310  
      3180       3181       3192       3191       3301       3302       3313       3312  
      3181       3182       3193       3192       3302       3303       3314       3313  
      3182       3183       3194       3193       3303       3304       3315       3314  
      3183       3184       3195       3194       3304       3305       3316       3315  
      3184       3185       3196       3195       3305       3306       3317       3316  
      3185       3186       3197       3196       3306       3307       3318       3317  
      3186       3187       3198       3197       3307       3308       3319       3318  
      3187       3188       3199       3198       3308       3309       3320       3319  
      3188       3189       3200       3199       3309       3310       3321       3320  
      3189       3190       3201       3200       3310       3311       3322       3321  
      3191       3192       3203       3202       3312       3313       3324       3323  
      3192       3193       3204       3203       3313       3314       3325       3324  
      3193       3194       3205       3204       3314       3315       3326       3325  
      3194       3195       3206       3205       3315       3316       3327       3326  
      3195       3196       3207       3206       3316       3317       3328       3327  
      3196       3197       3208       3207       3317       3318       3329       3328  
      3197       3198       3209       3208       3318       3319       3330       3329  
      3198       3199       3210       3209       3319       3320       3331       3330  
      3199       3200       3211       3210       3320       3321       3332       3331  
      3200       3201       3212       3211       3321       3322       3333       3332  
      3202       3203       3214       3213       3323       3324       3335       3334  
      3203       3204       3215       3214       3324       3325       3336       3335  
      3204       3205       3216       3215       3325       3326       3337       3336  
      3205       3206       3217       3216       3326       3327       3338       3337  
      3206       3207       3218       3217       3327       3328       3339       3338  
      3207       3208       3219       3218       3328       3329       3340       3339  
      3208       3209       3220       3219       3329       3330       3341       3340  
      3209       3210       3221       3220       3330       3331       3342       3341  
      3210       3211       3222       3221       3331       3332       3343       3342  
      3211       3212       3223       3222       3332       3333       3344       3343  
      3213       3214       3225       3224       3334       3335       3346       3345  
      3214       3215       3226       3225       3335       3336       3347       3346  
      3215       3216       3227       3226       3336       3337       3348       3347  
      3216       3217       3228       3227       3337       3338       3349       3348  
      3217       3218       3229       3228       3338       3339       3350       3349  
      3218       3219       3230       3229       3339       3340       3351       3350  
      3219       3220       3231       3230       3340       3341       3352       3351  
      3220       3221       3232       3231       3341       3342       3353       3352  
      3221       3222       3233       3232       3342       3343       3354       3353  
      3222       3223       3234       3233       3343       3344       3355       3354  
      3224       3225       3236       3235       3345       3346       3357       3356  
      3225       3226       3237       3236       3346       3347       3358       3357  
      3226       3227       3238       3237       3347       3348       3359       3358  
      3227       3228       3239       3238       3348       3349       3360       3359  
      3228       3229       3240       3239       3349       3350       3361       3360  
      3229       3230       3241       3240       3350       3351       3362       3361  
      3230       3231       3242       3241       3351       3352       3363       3362  
      3231       3232       3243       3242       3352       3353       3364       3363  
      3232       3233       3244       3243       3353       3354       3365       3364  
      3233       3234       3245       3244       3354       3355       3366       3365  
      3235       3236       3247       3246       3356       3357       3368       3367  
      3236       3237       3248       3247       3357       3358       3369       3368  
      3237       3238       3249       3248       3358       3359       3370       3369  
      3238       3239       3250       3249       3359       3360       3371       3370  
      3239       3240       3251       3250       3360       3361       3372       3371  
      3240       3241       3252       3251       3361       3362       3373       3372  
      3241       3242       3253       3252       3362       3363       3374       3373  
      3242       3243       3254       3253       3363       3364       3375       3374  
      3243       3244       3255       3254       3364       3365       3376       3375  
      3244       3245       3256       3255       3365       3366       3377       3376  
      3246       3247       3258       3257       3367       3368       3379       3378  
      3247       3248       3259       3258       3368       3369       3380       3379  
      3248       3249       3260       3259       3369       3370       3381       3380  
      3249       3250       3261       3260       3370       3371       3382       3381  
      3250       3251       3262       3261       3371       3372       3383       3382  
      3251       3252       3263       3262       3372       3373       3384       3383  
      3252       3253       3264       3263       3373       3374       3385       3384  
      3253       3254       3265       3264       3374       3375       3386       3385  
      3254       3255       3266       3265       3375       3376       3387       3386  
      3255       3256       3267       3266       3376       3377       3388       3387  
      3268       3269       3280       3279       3389       3390       3401       3400  
      3269       3270       3281       3280       3390       3391       3402       3401  
      3270       3271       3282       3281       3391       3392       3403       3402  
      3271       3272       3283       3282       3392       3393       3404       3403  
      3272       3273       3284       3283       3393       3394       3405       3404  
      3273       3274       3285       3284       3394       3395       3406       3405  
      3274       3275       3286       3285       3395       3396       3407       3406  
      3275       3276       3287       3286       3396       3397       3408       3407  
      3276       3277       3288       3287       3397       3398       3409       3408  
      3277       3278       3289       3288       3398       3399       3410       3409  
      3279       3280       3291       3290       3400       3401       3412       3411  
      3280       3281       3292       3291       3401       3402       3413       3412  
      3281       3282       3293       3292       3402       3403       3414       3413  
      3282       3283       3294       3293       3403       3404       3415       3414  
      3283       3284       3295       3294       3404       3405       3416       3415  
      3284       3285       3296       3295       3405       3406       3417       3416  
      3285       3286       3297       3296       3406       3407       3418       3417  
      3286       3287       3298       3297       3407       3408       3419       3418  
      3287       3288       3299       3298       3408       3409       3420       3419  
      3288       3289       3300       3299       3409       3410       3421       3420  
      3290       3291       3302       3301       3411       3412       3423       3422  
      3291       3292       3303       3302       3412       3413       3424       3423  
      3292       3293       3304       3303       3413       3414       3425       3424  
      3293       3294       3305       3304       3414       3415       3426       3425  
      3294       3295       3306       3305       3415       3416       3427       3426  
      3295       3296       3307       3306       3416       3417       3428       3427  
      3296       3297       3308       3307       3417       3418       3429       3428  
      3297       3298       3309       3308       3418       3419       3430       3429  
      3298       3299       3310       3309       3419       3420       3431       3430  
      3299       3300       3311       3310       3420       3421       3432       3431  
      3301       3302       3313       3312       3422       3423       3434       3433  
      3302       3303       3314       3313       3423       3424       3435       3434  
      3303       3304       3315       3314       3424       3425       3436       3435  
      3304       3305       3316       3315       3425       3426       3437       3436  
      3305       3306       3317       3316       3426       3427       3438       3437  
      3306       3307       3318       3317       3427       3428       3439       3438  
      3307       3308       3319       3318       3428       3429       3440       3439  
      3308       3309       3320       3319       3429       3430       3441       3440  
      3309       3310       3321       3320       3430       3431       3442       3441  
      3310       3311       3322       3321       3431       3432       3443       3442  
      3312       3313       3324       3323       3433       3434       3445       3444  
      3313       3314       3325       3324       3434       3435       3446       3445  
      3314       3315       3326       3325       3435       3436       3447       3446  
      3315       3316       3327       3326       3436       3437       3448       3447  
      3316       3317       3328       3327       3437       3438       3449       3448  
      3317       3318       3329       3328       3438       3439       3450       3449  
      3318       3319       3330       3329       3439       3440       3451       3450  
      3319       3320       3331       3330       3440       3441       3452       3451  
      3320       3321       3332       3331       3441       3442       3453       3452  
      3321       3322       3333       3332       3442       3443       3454       3453  
      3323       3324       3335       3334       3444       3445       3456       3455  
      3324       3325       3336       3335       3445       3446       3457       3456  
      3325       3326       3337       3336       3446       3447       3458       3457  
      3326       3327       3338       3337       3447       3448       3459       3458  
      3327       3328       3339       3338       3448       3449       3460       3459  
      3328       3329       3340       3339       3449       3450       3461       3460  
      3329       3330       3341       3340       3450       3451       3462       3461  
      3330       3331       3342       3341       3451       3452       3463       3462  
      3331       3332       3343       3342       3452       3453       3464       3463  
      3332       3333       3344       3343       3453       3454       3465       3464  
      3334       3335       3346       3345       3455       3456       3467       3466  
      3335       3336       3347       3346       3456       3457       3468       3467  
      3336       3337       3348       3347       3457       3458       3469       3468  
      3337       3338       3349       3348       3458       3459       3470       3469  
      3338       3339       3350       3349       3459       3460       3471       3470  
      3339       3340       3351       3350       3460       3461       3472       3471  
      3340       3341       3352       3351       3461       3462       3473       3472  
      3341       3342       3353       3352       3462       3463       3474       3473  
      3342       3343       3354       3353       3463       3464       3475       3474  
      3343       3344       3355       3354       3464       3465       3476       3475  
      3345       3346       3357       3356       3466       3467       3478       3477  
      3346       3347       3358       3357       3467       3468       3479       3478  
      3347       3348       3359       3358       3468       3469       3480       3479  
      3348       3349       3360       3359       3469       3470       3481       3480  
      3349       3350       3361       3360       3470       3471       3482       3481  
      3350       3351       3362       3361       3471       3472       3483       3482  
      3351       3352       3363       3362       3472       3473       3484       3483  
      3352       3353       3364       3363       3473       3474       3485       3484  
      3353       3354       3365       3364       3474       3475       3486       3485  
      3354       3355       3366       3365       3475       3476       3487       3486  
      3356       3357       3368       3367       3477       3478       3489       3488  
      3357       3358       3369       3368       3478       3479       3490       3489  
      3358       3359       3370       3369       3479       3480       3491       3490  
      3359       3360       3371       3370       3480       3481       3492       3491  
      3360       3361       3372       3371       3481       3482       3493       3492  
      3361       3362       3373       3372       3482       3483       3494       3493  
      3362       3363       3374       3373       3483       3484       3495       3494  
      3363       3364       3375       3374       3484       3485       3496       3495  
      3364       3365       3376       3375       3485       3486       3497       3496  
      3365       3366       3377       3376       3486       3487       3498       3497  
      3367       3368       3379       3378       3488       3489       3500       3499  
      3368       3369       3380       3379       3489       3490       3501       3500  
      3369       3370       3381       3380       3490       3491       3502       3501  
      3370       3371       3382       3381       3491       3492       3503       3502  
      3371       3372       3383       3382       3492       3493       3504       3503  
      3372       3373       3384       3383       3493       3494       3505       3504  
      3373       3374       3385       3384       3494       3495       3506       3505  
      3374       3375       3386       3385       3495       3496       3507       3506  
      3375       3376       3387       3386       3496       3497       3508       3507  
      3376       3377       3388       3387       3497       3498       3509       3508  
      3389       3390       3401       3400       3510       3511       3522       3521  
      3390       3391       3402       3401       3511       3512       3523       3522  
      3391       3392       3403       3402       3512       3513       3524       3523  
      3392       3393       3404       3403       3513       3514       3525       3524  
      3393       3394       3405       3404       3514       3515       3526       3525  
      3394       3395       3406       3405       3515       3516       3527       3526  
      3395       3396       3407       3406       3516       3517       3528       3527  
      3396       3397       3408       3407       3517       3518       3529       3528  
      3397       3398       3409       3408       3518       3519       3530       3529  
      3398       3399       3410       3409       3519       3520       3531       3530  
      3400       3401       3412       3411       3521       3522       3533       3532  
      3401       3402       3413       3412       3522       3523       3534       3533  
      3402       3403       3414       3413       3523       3524       3535       3534  
      3403       3404       3415       3414       3524       3525       3536       3535  
      3404       3405       3416       3415       3525       3526       3537       3536  
      3405       3406       3417       3416       3526       3527       3538       3537  
      3406       3407       3418       3417       3527       3528       3539       3538  
      3407       3408       3419       3418       3528       3529       3540       3539  
      3408       3409       3420       3419       3529       3530       3541       3540  
      3409       3410       3421       3420       3530       3531       3542       3541  
      3411       3412       3423       3422       3532       3533       3544       3543  
      3412       3413       3424       3423       3533       3534       3545       3544  
      3413       3414       3425       3424       3534       3535       3546       3545  
      3414       3415       3426       3425       3535       3536       3547       3546  
      3415       3416       3427       3426       3536       3537       3548       3547  
      3416       3417       3428       3427       3537       3538       3549       3548  
      3417       3418       3429       3428       3538       3539       3550       3549  
      3418       3419       3430       3429       3539       3540       3551       3550  
      3419       3420       3431       3430       3540       3541       3552       3551  
      3420       3421       3432       3431       3541       3542       3553       3552  
      3422       3423       3434       3433       3543       3544       3555       3554  
      3423       3424       3435       3434       3544       3545       3556       3555  
      3424       3425       3436       3435       3545       3546       3557       3556  
      3425       3426       3437       3436       3546       3547       3558       3557  
      3426       3427       3438       3437       3547       3548       3559       3558  
      3427       3428       3439       3438       3548       3549       3560       3559  
      3428       3429       3440       3439       3549       3550       3561       3560  
      3429       3430       3441       3440       3550       3551       3562       3561  
      3430       3431       3442       3441       3551       3552       3563       3562  
      3431       3432       3443       3442       3552       3553       3564       3563  
      3433       3434       3445       3444       3554       3555       3566       3565  
      3434       3435       3446       3445       3555       3556       3567       3566  
      3435       3436       3447       3446       3556       3557       3568       3567  
      3436       3437       3448       3447       3557       3558       3569       3568  
      3437       3438       3449       3448       3558       3559       3570       3569  
      3438       3439       3450       3449       3559       3560       3571       3570  
      3439       3440       3451       3450       3560       3561       3572       3571  
      3440       3441       3452       3451       3561       3562       3573       3572  
      3441       3442       3453       3452       3562       3563       3574       3573  
      3442       3443       3454       3453       3563       3564       3575       3574  
      3444       3445       3456       3455       3565       3566       3577       3576  
      3445       3446       3457       3456       3566       3567       3578       3577  
      3446       3447       3458       3457       3567       3568       3579       3578  
      3447       3448       3459       3458       3568       3569       3580       3579  
      3448       3449       3460       3459       3569       3570       3581       3580  
      3449       3450       3461       3460       3570       3571       3582       3581  
      3450       3451       3462       3461       3571       3572       3583       3582  
      3451       3452       3463       3462       3572       3573       3584       3583  
      3452       3453       3464       3463       3573       3574       3585       3584  
      3453       3454       3465       3464       3574       3575       3586       3585  
      3455       3456       3467       3466       3576       3577       3588       3587  
      3456       3457       3468       3467       3577       3578       3589       3588  
      3457       3458       3469       3468       3578       3579       3590       3589  
      3458       3459       3470       3469       3579       3580       3591       3590  
      3459       3460       3471       3470       3580       3581       3592       3591  
      3460       3461       3472       3471       3581       3582       3593       3592  
      3461       3462       3473       3472       3582       3583       3594       3593  
      3462       3463       3474       3473       3583       3584       3595       3594  
      3463       3464       3475       3474       3584       3585       3596       3595  
      3464       3465       3476       3475       3585       3586       3597       3596  
      3466       3467       3478       3477       3587       3588       3599       3598  
      3467       3468       3479       3478       3588       3589       3600       3599  
      3468       3469       3480       3479       3589       3590       3601       3600  
      3469       3470       3481       3480       3590       3591       3602       3601  
      3470       3471       3482       3481       3591       3592       3603       3602  
      3471       3472       3483       3482       3592       3593       3604       3603  
      3472       3473       3484       3483       3593       3594       3605       3604  
      3473       3474       3485       3484       3594       3595       3606       3605  
      3474       3475       3486       3485       3595       3596       3607       3606  
      3475       3476       3487       3486       3596       3597       3608       3607  
      3477       3478       3489       3488       3598       3599       3610       3609  
      3478       3479       3490       3489       3599       3600       3611       3610  
      3479       3480       3491       3490       3600       3601       3612       3611  
      3480       3481       3492       3491       3601       3602       3613       3612  
      3481       3482       3493       3492       3602       3603       3614       3613  
      3482       3483       3494       3493       3603       3604       3615       3614  
      3483       3484       3495       3494       3604       3605       3616       3615  
      3484       3485       3496       3495       3605       3606       3617       3616  
      3485       3486       3497       3496       3606       3607       3618       3617  
      3486       3487       3498       3497       3607       3608       3619       3618  
      3488       3489       3500       3499       3609       3610       3621       3620  
      3489       3490       3501       3500       3610       3611       3622       3621  
      3490       3491       3502       3501       3611       3612       3623       3622  
      3491       3492       3503       3502       3612       3613       3624       3623  
      3492       3493       3504       3503       3613       3614       3625       3624  
      3493       3494       3505       3504       3614       3615       3626       3625  
      3494       3495       3506       3505       3615       3616       3627       3626  
      3495       3496       3507       3506       3616       3617       3628       3627  
      3496       3497       3508       3507       3617       3618       3629       3628  
      3497       3498       3509       3508       3618       3619       3630       3629  
      3510       3511       3522       3521       3631       3632       3643       3642  
      3511       3512       3523       3522       3632       3633       3644       3643  
      3512       3513       3524       3523       3633       3634       3645       3644  
      3513       3514       3525       3524       3634       3635       3646       3645  
      3514       3515       3526       3525       3635       3636       3647       3646  
      3515       3516       3527       3526       3636       3637       3648       3647  
      3516       3517       3528       3527       3637       3638       3649       3648  
      3517       3518       3529       3528       3638       3639       3650       3649  
      3518       3519       3530       3529       3639       3640       3651       3650  
      3519       3520       3531       3530       3640       3641       3652       3651  
      3521       3522       3533       3532       3642       3643       3654       3653  
      3522       3523       3534       3533       3643       3644       3655       3654  
      3523       3524       3535       3534       3644       3645       3656       3655  
      3524       3525       3536       3535       3645       3646       3657       3656  
      3525       3526       3537       3536       3646       3647       3658       3657  
      3526       3527       3538       3537       3647       3648       3659       3658  
      3527       3528       3539       3538       3648       3649       3660       3659  
      3528       3529       3540       3539       3649       3650       3661       3660  
      3529       3530       3541       3540       3650       3651       3662       3661  
      3530       3531       3542       3541       3651       3652       3663       3662  
      3532       3533       3544       3543       3653       3654       3665       3664  
      3533       3534       3545       3544       3654       3655       3666       3665  
      3534       3535       3546       3545       3655       3656       3667       3666  
      3535       3536       3547       3546       3656       3657       3668       3667  
      3536       3537       3548       3547       3657       3658       3669       3668  
      3537       3538       3549       3548       3658       3659       3670       3669  
      3538       3539       3550       3549       3659       3660       3671       3670  
      3539       3540       3551       3550       3660       3661       3672       3671  
      3540       3541       3552       3551       3661       3662       3673       3672  
      3541       3542       3553       3552       3662       3663       3674       3673  
      3543       3544       3555       3554       3664       3665       3676       3675  
      3544       3545       3556       3555       3665       3666       3677       3676  
      3545       3546       3557       3556       3666       3667       3678       3677  
      3546       3547       3558       3557       3667       3668       3679       3678  
      3547       3548       3559       3558       3668       3669       3680       3679  
      3548       3549       3560       3559       3669       3670       3681       3680  
      3549       3550       3561       3560       3670       3671       3682       3681  
      3550       3551       3562       3561       3671       3672       3683       3682  
      3551       3552       3563       3562       3672       3673       3684       3683  
      3552       3553       3564       3563       3673       3674       3685       3684  
      3554       3555       3566       3565       3675       3676       3687       3686  
      3555       3556       3567       3566       3676       3677       3688       3687  
      3556       3557       3568       3567       3677       3678       3689       3688  
      3557       3558       3569       3568       3678       3679       3690       3689  
      3558       3559       3570       3569       3679       3680       3691       3690  
      3559       3560       3571       3570       3680       3681       3692       3691  
      3560       3561       3572       3571       3681       3682       3693       3692  
      3561       3562       3573       3572       3682       3683       3694       3693  
      3562       3563       3574       3573       3683       3684       3695       3694  
      3563       3564       3575       3574       3684       3685       3696       3695  
      3565       3566       3577       3576       3686       3687       3698       3697  
      3566       3567       3578       3577       3687       3688       3699       3698  
      3567       3568       3579       3578       3688       3689       3700       3699  
      3568       3569       3580       3579       3689       3690       3701       3700  
      3569       3570       3581       3580       3690       3691       3702       3701  
      3570       3571       3582       3581       3691       3692       3703       3702  
      3571       3572       3583       3582       3692       3693       3704       3703  
      3572       3573       3584       3583       3693       3694       3705       3704  
      3573       3574       3585       3584       3694       3695       3706       3705  
      3574       3575       3586       3585       3695       3696       3707       3706  
      3576       3577       3588       3587       3697       3698       3709       3708  
      3577       3578       3589       3588       3698       3699       3710       3709  
      3578       3579       3590       3589       3699       3700       3711       3710  
      3579       3580       3591       3590       3700       3701       3712       3711  
      3580       3581       3592       3591       3701       3702       3713       3712  
      3581       3582       3593       3592       3702       3703       3714       3713  
      3582       3583       3594       3593       3703       3704       3715       3714  
      3583       3584       3595       3594       3704       3705       3716       3715  
      3584       3585       3596       3595       3705       3706       3717       3716  
      3585       3586       3597       3596       3706       3707       3718       3717  
      3587       3588       3599       3598       3708       3709       3720       3719  
      3588       3589       3600       3599       3709       3710       3721       3720  
      3589       3590       3601       3600       3710       3711       3722       3721  
      3590       3591       3602       3601       3711       3712       3723       3722  
      3591       3592       3603       3602       3712       3713       3724       3723  
      3592       3593       3604       3603       3713       3714       3725       3724  
      3593       3594       3605       3604       3714       3715       3726       3725  
      3594       3595       3606       3605       3715       3716       3727       3726  
      3595       3596       3607       3606       3716       3717       3728       3727  
      3596       3597       3608       3607       3717       3718       3729       3728  
      3598       3599       3610       3609       3719       3720       3731       3730  
      3599       3600       3611       3610       3720       3721       3732       3731  
      3600       3601       3612       3611       3721       3722       3733       3732  
      3601       3602       3613       3612       3722       3723       3734       3733  
      3602       3603       3614       3613       3723       3724       3735       3734  
      3603       3604       3615       3614       3724       3725       3736       3735  
      3604       3605       3616       3615       3725       3726       3737       3736  
      3605       3606       3617       3616       3726       3727       3738       3737  
      3606       3607       3618       3617       3727       3728       3739       3738  
      3607       3608       3619       3618       3728       3729       3740       3739  
      3609       3610       3621       3620       3730       3731       3742       3741  
      3610       3611       3622       3621       3731       3732       3743       3742  
      3611       3612       3623       3622       3732       3733       3744       3743  
      3612       3613       3624       3623       3733       3734       3745       3744  
      3613       3614       3625       3624       3734       3735       3746       3745  
      3614       3615       3626       3625       3735       3736       3747       3746  
      3615       3616       3627       3626       3736       3737       3748       3747  
      3616       3617       3628       3627       3737       3738       3749       3748  
      3617       3618       3629       3628       3738       3739       3750       3749  
      3618       3619       3630       3629       3739       3740       3751       3750  
      3631       3632       3643       3642       3752       3753       3764       3763  
      3632       3633       3644       3643       3753       3754       3765       3764  
      3633       3634       3645       3644       3754       3755       3766       3765  
      3634       3635       3646       3645       3755       3756       3767       3766  
      3635       3636       3647       3646       3756       3757       3768       3767  
      3636       3637       3648       3647       3757       3758       3769       3768  
      3637       3638       3649       3648       3758       3759       3770       3769  
      3638       3639       3650       3649       3759       3760       3771       3770  
      3639       3640       3651       3650       3760       3761       3772       3771  
      3640       3641       3652       3651       3761       3762       3773       3772  
      3642       3643       3654       3653       3763       3764       3775       3774  
      3643       3644       3655       3654       3764       3765       3776       3775  
      3644       3645       3656       3655       3765       3766       3777       3776  
      3645       3646       3657       3656       3766       3767       3778       3777  
      3646       3647       3658       3657       3767       3768       3779       3778  
      3647       3648       3659       3658       3768       3769       3780       3779  
      3648       3649       3660       3659       3769       3770       3781       3780  
      3649       3650       3661       3660       3770       3771       3782       3781  
      3650       3651       3662       3661       3771       3772       3783       3782  
      3651       3652       3663       3662       3772       3773       3784       3783  
      3653       3654       3665       3664       3774       3775       3786       3785  
      3654       3655       3666       3665       3775       3776       3787       3786  
      3655       3656       3667       3666       3776       3777       3788       3787  
      3656       3657       3668       3667       3777       3778       3789       3788  
      3657       3658       3669       3668       3778       3779       3790       3789  
      3658       3659       3670       3669       3779       3780       3791       3790  
      3659       3660       3671       3670       3780       3781       3792       3791  
      3660       3661       3672       3671       3781       3782       3793       3792  
      3661       3662       3673       3672       3782       3783       3794       3793  
      3662       3663       3674       3673       3783       3784       3795       3794  
      3664       3665       3676       3675       3785       3786       3797       3796  
      3665       3666       3677       3676       3786       3787       3798       3797  
      3666       3667       3678       3677       3787       3788       3799       3798  
      3667       3668       3679       3678       3788       3789       3800       3799  
      3668       3669       3680       3679       3789       3790       3801       3800  
      3669       3670       3681       3680       3790       3791       3802       3801  
      3670       3671       3682       3681       3791       3792       3803       3802  
      3671       3672       3683       3682       3792       3793       3804       3803  
      3672       3673       3684       3683       3793       3794       3805       3804  
      3673       3674       3685       3684       3794       3795       3806       3805  
      3675       3676       3687       3686       3796       3797       3808       3807  
      3676       3677       3688       3687       3797       3798       3809       3808  
      3677       3678       3689       3688       3798       3799       3810       3809  
      3678       3679       3690       3689       3799       3800       3811       3810  
      3679       3680       3691       3690       3800       3801       3812       3811  
      3680       3681       3692       3691       3801       3802       3813       3812  
      3681       3682       3693       3692       3802       3803       3814       3813  
      3682       3683       3694       3693       3803       3804       3815       3814  
      3683       3684       3695       3694       3804       3805       3816       3815  
      3684       3685       3696       3695       3805       3806       3817       3816  
      3686       3687       3698       3697       3807       3808       3819       3818  
      3687       3688       3699       3698       3808       3809       3820       3819  
      3688       3689       3700       3699       3809       3810       3821       3820  
      3689       3690       3701       3700       3810       3811       3822       3821  
      3690       3691       3702       3701       3811       3812       3823       3822  
      3691       3692       3703       3702       3812       3813       3824       3823  
      3692       3693       3704       3703       3813       3814       3825       3824  
      3693       3694       3705       3704       3814       3815       3826       3825  
      3694       3695       3706       3705       3815       3816       3827       3826  
      3695       3696       3707       3706       3816       3817       3828       3827  
      3697       3698       3709       3708       3818       3819       3830       3829  
      3698       3699       3710       3709       3819       3820       3831       3830  
      3699       3700       3711       3710       3820       3821       3832       3831  
      3700       3701       3712       3711       3821       3822       3833       3832  
      3701       3702       3713       3712       3822       3823       3834       3833  
      3702       3703       3714       3713       3823       3824       3835       3834  
      3703       3704       3715       3714       3824       3825       3836       3835  
      3704       3705       3716       3715       3825       3826       3837       3836  
      3705       3706       3717       3716       3826       3827       3838       3837  
      3706       3707       3718       3717       3827       3828       3839       3838  
      3708       3709       3720       3719       3829       3830       3841       3840  
      3709       3710       3721       3720       3830       3831       3842       3841  
      3710       3711       3722       3721       3831       3832       3843       3842  
      3711       3712       3723       3722       3832       3833       3844       3843  
      3712       3713       3724       3723       3833       3834       3845       3844  
      3713       3714       3725       3724       3834       3835       3846       3845  
      3714       3715       3726       3725       3835       3836       3847       3846  
      3715       3716       3727       3726       3836       3837       3848       3847  
      3716       3717       3728       3727       3837       3838       3849       3848  
      3717       3718       3729       3728       3838       3839       3850       3849  
      3719       3720       3731       3730       3840       3841       3852       3851  
      3720       3721       3732       3731       3841       3842       3853       3852  
      3721       3722       3733       3732       3842       3843       3854       3853  
      3722       3723       3734       3733       3843       3844       3855       3854  
      3723       3724       3735       3734       3844       3845       3856       3855  
      3724       3725       3736       3735       3845       3846       3857       3856  
      3725       3726       3737       3736       3846       3847       3858       3857  
      3726       3727       3738       3737       3847       3848       3859       3858  
      3727       3728       3739       3738       3848       3849       3860       3859  
      3728       3729       3740       3739       3849       3850       3861       3860  
      3730       3731       3742       3741       3851       3852       3863       3862  
      3731       3732       3743       3742       3852       3853       3864       3863  
      3732       3733       3744       3743       3853       3854       3865       3864  
      3733       3734       3745       3744       3854       3855       3866       3865  
      3734       3735       3746       3745       3855       3856       3867       3866  
      3735       3736       3747       3746       3856       3857       3868       3867  
      3736       3737       3748       3747       3857       3858       3869       3868  
      3737       3738       3749       3748       3858       3859       3870       3869  
      3738       3739       3750       3749       3859       3860       3871       3870  
      3739       3740       3751       3750       3860       3861       3872       3871  
      3752       3753       3764       3763       3873       3874       3885       3884  
      3753       3754       3765       3764       3874       3875       3886       3885  
      3754       3755       3766       3765       3875       3876       3887       3886  
      3755       3756       3767       3766       3876       3877       3888       3887  
      3756       3757       3768       3767       3877       3878       3889       3888  
      3757       3758       3769       3768       3878       3879       3890       3889  
      3758       3759       3770       3769       3879       3880       3891       3890  
      3759       3760       3771       3770       3880       3881       3892       3891  
      3760       3761       3772       3771       3881       3882       3893       3892  
      3761       3762       3773       3772       3882       3883       3894       3893  
      3763       3764       3775       3774       3884       3885       3896       3895  
      3764       3765       3776       3775       3885       3886       3897       3896  
      3765       3766       3777       3776       3886       3887       3898       3897  
      3766       3767       3778       3777       3887       3888       3899       3898  
      3767       3768       3779       3778       3888       3889       3900       3899  
      3768       3769       3780       3779       3889       3890       3901       3900  
      3769       3770       3781       3780       3890       3891       3902       3901  
      3770       3771       3782       3781       3891       3892       3903       3902  
      3771       3772       3783       3782       3892       3893       3904       3903  
      3772       3773       3784       3783       3893       3894       3905       3904  
      3774       3775       3786       3785       3895       3896       3907       3906  
      3775       3776       3787       3786       3896       3897       3908       3907  
      3776       3777       3788       3787       3897       3898       3909       3908  
      3777       3778       3789       3788       3898       3899       3910       3909  
      3778       3779       3790       3789       3899       3900       3911       3910  
      3779       3780       3791       3790       3900       3901       3912       3911  
      3780       3781       3792       3791       3901       3902       3913       3912  
      3781       3782       3793       3792       3902       3903       3914       3913  
      3782       3783       3794       3793       3903       3904       3915       3914  
      3783       3784       3795       3794       3904       3905       3916       3915  
      3785       3786       3797       3796       3906       3907       3918       3917  
      3786       3787       3798       3797       3907       3908       3919       3918  
      3787       3788       3799       3798       3908       3909       3920       3919  
      3788       3789       3800       3799       3909       3910       3921       3920  
      3789       3790       3801       3800       3910       3911       3922       3921  
      3790       3791       3802       3801       3911       3912       3923       3922  
      3791       3792       3803       3802       3912       3913       3924       3923  
      3792       3793       3804       3803       3913       3914       3925       3924  
      3793       3794       3805       3804       3914       3915       3926       3925  
      3794       3795       3806       3805       3915       3916       3927       3926  
      3796       3797       3808       3807       3917       3918       3929       3928  
      3797       3798       3809       3808       3918       3919       3930       3929  
      3798       3799       3810       3809       3919       3920       3931       3930  
      3799       3800       3811       3810       3920       3921       3932       3931  
      3800       3801       3812       3811       3921       3922       3933       3932  
      3801       3802       3813       3812       3922       3923       3934       3933  
      3802       3803       3814       3813       3923       3924       3935       3934  
      3803       3804       3815       3814       3924       3925       3936       3935  
      3804       3805       3816       3815       3925       3926       3937       3936  
      3805       3806       3817       3816       3926       3927       3938       3937  
      3807       3808       3819       3818       3928       3929       3940       3939  
      3808       3809       3820       3819       3929       3930       3941       3940  
      3809       3810       3821       3820       3930       3931       3942       3941  
      3810       3811       3822       3821       3931       3932       3943       3942  
      3811       3812       3823       3822       3932       3933       3944       3943  
      3812       3813       3824       3823       3933       3934       3945       3944  
      3813       3814       3825       3824       3934       3935       3946       3945  
      3814       3815       3826       3825       3935       3936       3947       3946  
      3815       3816       3827       3826       3936       3937       3948       3947  
      3816       3817       3828       3827       3937       3938       3949       3948  
      3818       3819       3830       3829       3939       3940       3951       3950  
      3819       3820       3831       3830       3940       3941       3952       3951  
      3820       3821       3832       3831       3941       3942       3953       3952  
      3821       3822       3833       3832       3942       3943       3954       3953  
      3822       3823       3834       3833       3943       3944       3955       3954  
      3823       3824       3835       3834       3944       3945       3956       3955  
      3824       3825       3836       3835       3945       3946       3957       3956  
      3825       3826       3837       3836       3946       3947       3958       3957  
      3826       3827       3838       3837       3947       3948       3959       3958  
      3827       3828       3839       3838       3948       3949       3960       3959  
      3829       3830       3841       3840       3950       3951       3962       3961  
      3830       3831       3842       3841       3951       3952       3963       3962  
      3831       3832       3843       3842       3952       3953       3964       3963  
      3832       3833       3844       3843       3953       3954       3965       3964  
      3833       3834       3845       3844       3954       3955       3966       3965  
      3834       3835       3846       3845       3955       3956       3967       3966  
      3835       3836       3847       3846       3956       3957       3968       3967  
      3836       3837       3848       3847       3957       3958       3969       3968  
      3837       3838       3849       3848       3958       3959       3970       3969  
      3838       3839       3850       3849       3959       3960       3971       3970  
      3840       3841       3852       3851       3961       3962       3973       3972  
      3841       3842       3853       3852       3962       3963       3974       3973  
      3842       3843       3854       3853       3963       3964       3975       3974  
      3843       3844       3855       3854       3964       3965       3976       3975  
      3844       3845       3856       3855       3965       3966       3977       3976  
      3845       3846       3857       3856       3966       3967       3978       3977  
      3846       3847       3858       3857       3967       3968       3979       3978  
      3847       3848       3859       3858       3968       3969       3980       3979  
      3848       3849       3860       3859       3969       3970       3981       3980  
      3849       3850       3861       3860       3970       3971       3982       3981  
      3851       3852       3863       3862       3972       3973       3984       3983  
      3852       3853       3864       3863       3973       3974       3985       3984  
      3853       3854       3865       3864       3974       3975       3986       3985  
      3854       3855       3866       3865       3975       3976       3987       3986  
      3855       3856       3867       3866       3976       3977       3988       3987  
      3856       3857       3868       3867       3977       3978       3989       3988  
      3857       3858       3869       3868       3978       3979       3990       3989  
      3858       3859       3870       3869       3979       3980       3991       3990  
      3859       3860       3871       3870       3980       3981       3992       3991  
      3860       3861       3872       3871       3981       3982       3993       3992  
      3873       3874       3885       3884       3994       3995       4006       4005  
      3874       3875       3886       3885       3995       3996       4007       4006  
      3875       3876       3887       3886       3996       3997       4008       4007  
      3876       3877       3888       3887       3997       3998       4009       4008  
      3877       3878       3889       3888       3998       3999       4010       4009  
      3878       3879       3890       3889       3999       4000       4011       4010  
      3879       3880       3891       3890       4000       4001       4012       4011  
      3880       3881       3892       3891       4001       4002       4013       4012  
      3881       3882       3893       3892       4002       4003       4014       4013  
      3882       3883       3894       3893       4003       4004       4015       4014  
      3884       3885       3896       3895       4005       4006       4017       4016  
      3885       3886       3897       3896       4006       4007       4018       4017  
      3886       3887       3898       3897       4007       4008       4019       4018  
      3887       3888       3899       3898       4008       4009       4020       4019  
      3888       3889       3900       3899       4009       4010       4021       4020  
      3889       3890       3901       3900       4010       4011       4022       4021  
      3890       3891       3902       3901       4011       4012       4023       4022  
      3891       3892       3903       3902       4012       4013       4024       4023  
      3892       3893       3904       3903       4013       4014       4025       4024  
      3893       3894       3905       3904       4014       4015       4026       4025  
      3895       3896       3907       3906       4016       4017       4028       4027  
      3896       3897       3908       3907       4017       4018       4029       4028  
      3897       3898       3909       3908       4018       4019       4030       4029  
      3898       3899       3910       3909       4019       4020       4031       4030  
      3899       3900       3911       3910       4020       4021       4032       4031  
      3900       3901       3912       3911       4021       4022       4033       4032  
      3901       3902       3913       3912       4022       4023       4034       4033  
      3902       3903       3914       3913       4023       4024       4035       4034  
      3903       3904       3915       3914       4024       4025       4036       4035  
      3904       3905       3916       3915       4025       4026       4037       4036  
      3906       3907       3918       3917       4027       4028       4039       4038  
      3907       3908       3919       3918       4028       4029       4040       4039  
      3908       3909       3920       3919       4029       4030       4041       4040  
      3909       3910       3921       3920       4030       4031       4042       4041  
      3910       3911       3922       3921       4031       4032       4043       4042  
      3911       3912       3923       3922       4032       4033       4044       4043  
      3912       3913       3924       3923       4033       4034       4045       4044  
      3913       3914       3925       3924       4034       4035       4046       4045  
      3914       3915       3926       3925       4035       4036       4047       4046  
      3915       3916       3927       3926       4036       4037       4048       4047  
      3917       3918       3929       3928       4038       4039       4050       4049  
      3918       3919       3930       3929       4039       4040       4051       4050  
      3919       3920       3931       3930       4040       4041       4052       4051  
      3920       3921       3932       3931       4041       4042       4053       4052  
      3921       3922       3933       3932       4042       4043       4054       4053  
      3922       3923       3934       3933       4043       4044       4055       4054  
      3923       3924       3935       3934       4044       4045       4056       4055  
      3924       3925       3936       3935       4045       4046       4057       4056  
      3925       3926       3937       3936       4046       4047       4058       4057  
      3926       3927       3938       3937       4047       4048       4059       4058  
      3928       3929       3940       3939       4049       4050       4061       4060  
      3929       3930       3941       3940       4050       4051       4062       4061  
      3930       3931       3942       3941       4051       4052       4063       4062  
      3931       3932       3943       3942       4052       4053       4064       4063  
      3932       3933       3944       3943       4053       4054       4065       4064  
      3933       3934       3945       3944       4054       4055       4066       4065  
      3934       3935       3946       3945       4055       4056       4067       4066  
      3935       3936       3947       3946       4056       4057       4068       4067  
      3936       3937       3948       3947       4057       4058       4069       4068  
      3937       3938       3949       3948       4058       4059       4070       4069  
      3939       3940       3951       3950       4060       4061       4072       4071  
      3940       3941       3952       3951       4061       4062       4073       4072  
      3941       3942       3953       3952       4062       4063       4074       4073  
      3942       3943       3954       3953       4063       4064       4075       4074  
      3943       3944       3955       3954       4064       4065       4076       4075  
      3944       3945       3956       3955       4065       4066       4077       4076  
      3945       3946       3957       3956       4066       4067       4078       4077  
      3946       3947       3958       3957       4067       4068       4079       4078  
      3947       3948       3959       3958       4068       4069       4080       4079  
      3948       3949       3960       3959       4069       4070       4081       4080  
      3950       3951       3962       3961       4071       4072       4083       4082  
      3951       3952       3963       3962       4072       4073       4084       4083  
      3952       3953       3964       3963       4073       4074       4085       4084  
      3953       3954       3965       3964       4074       4075       4086       4085  
      3954       3955       3966       3965       4075       4076       4087       4086  
      3955       3956       3967       3966       4076       4077       4088       4087  
      3956       3957       3968       3967       4077       4078       4089       4088  
      3957       3958       3969       3968       4078       4079       4090       4089  
      3958       3959       3970       3969       4079       4080       4091       4090  
      3959       3960       3971       3970       4080       4081       4092       4091  
      3961       3962       3973       3972       4082       4083       4094       4093  
      3962       3963       3974       3973       4083       4084       4095       4094  
      3963       3964       3975       3974       4084       4085       4096       4095  
      3964       3965       3976       3975       4085       4086       4097       4096  
      3965       3966       3977       3976       4086       4087       4098       4097  
      3966       3967       3978       3977       4087       4088       4099       4098  
      3967       3968       3979       3978       4088       4089       4100       4099  
      3968       3969       3980       3979       4089       4090       4101       4100  
      3969       3970       3981       3980       4090       4091       4102       4101  
      3970       3971       3982       3981       4091       4092       4103       4102  
      3972       3973       3984       3983       4093       4094       4105       4104  
      3973       3974       3985       3984       4094       4095       4106       4105  
      3974       3975       3986       3985       4095       4096       4107       4106  
      3975       3976       3987       3986       4096       4097       4108       4107  
      3976       3977       3988       3987       4097       4098       4109       4108  
      3977       3978       3989       3988       4098       4099       4110       4109  
      3978       3979       3990       3989       4099       4100       4111       4110  
      3979       3980       3991       3990       4100       4101       4112       4111  
      3980       3981       3992       3991       4101       4102       4113       4112  
      3981       3982       3993       3992       4102       4103       4114       4113  
      3994       3995       4006       4005       4115       4116       4127       4126  
      3995       3996       4007       4006       4116       4117       4128       4127  
      3996       3997       4008       4007       4117       4118       4129       4128  
      3997       3998       4009       4008       4118       4119       4130       4129  
      3998       3999       4010       4009       4119       4120       4131       4130  
      3999       4000       4011       4010       4120       4121       4132       4131  
      4000       4001       4012       4011       4121       4122       4133       4132  
      4001       4002       4013       4012       4122       4123       4134       4133  
      4002       4003       4014       4013       4123       4124       4135       4134  
      4003       4004       4015       4014       4124       4125       4136       4135  
      4005       4006       4017       4016       4126       4127       4138       4137  
      4006       4007       4018       4017       4127       4128       4139       4138  
      4007       4008       4019       4018       4128       4129       4140       4139  
      4008       4009       4020       4019       4129       4130       4141       4140  
      4009       4010       4021       4020       4130       4131       4142       4141  
      4010       4011       4022       4021       4131       4132       4143       4142  
      4011       4012       4023       4022       4132       4133       4144       4143  
      4012       4013       4024       4023       4133       4134       4145       4144  
      4013       4014       4025       4024       4134       4135       4146       4145  
      4014       4015       4026       4025       4135       4136       4147       4146  
      4016       4017       4028       4027       4137       4138       4149       4148  
      4017       4018       4029       4028       4138       4139       4150       4149  
      4018       4019       4030       4029       4139       4140       4151       4150  
      4019       4020       4031       4030       4140       4141       4152       4151  
      4020       4021       4032       4031       4141       4142       4153       4152  
      4021       4022       4033       4032       4142       4143       4154       4153  
      4022       4023       4034       4033       4143       4144       4155       4154  
      4023       4024       4035       4034       4144       4145       4156       4155  
      4024       4025       4036       4035       4145       4146       4157       4156  
      4025       4026       4037       4036       4146       4147       4158       4157  
      4027       4028       4039       4038       4148       4149       4160       4159  
      4028       4029       4040       4039       4149       4150       4161       4160  
      4029       4030       4041       4040       4150       4151       4162       4161  
      4030       4031       4042       4041       4151       4152       4163       4162  
      4031       4032       4043       4042       4152       4153       4164       4163  
      4032       4033       4044       4043       4153       4154       4165       4164  
      4033       4034       4045       4044       4154       4155       4166       4165  
      4034       4035       4046       4045       4155       4156       4167       4166  
      4035       4036       4047       4046       4156       4157       4168       4167  
      4036       4037       4048       4047       4157       4158       4169       4168  
      4038       4039       4050       4049       4159       4160       4171       4170  
      4039       4040       4051       4050       4160       4161       4172       4171  
      4040       4041       4052       4051       4161       4162       4173       4172  
      4041       4042       4053       4052       4162       4163       4174       4173  
      4042       4043       4054       4053       4163       4164       4175       4174  
      4043       4044       4055       4054       4164       4165       4176       4175  
      4044       4045       4056       4055       4165       4166       4177       4176  
      4045       4046       4057       4056       4166       4167       4178       4177  
      4046       4047       4058       4057       4167       4168       4179       4178  
      4047       4048       4059       4058       4168       4169       4180       4179  
      4049       4050       4061       4060       4170       4171       4182       4181  
      4050       4051       4062       4061       4171       4172       4183       4182  
      4051       4052       4063       4062       4172       4173       4184       4183  
      4052       4053       4064       4063       4173       4174       4185       4184  
      4053       4054       4065       4064       4174       4175       4186       4185  
      4054       4055       4066       4065       4175       4176       4187       4186  
      4055       4056       4067       4066       4176       4177       4188       4187  
      4056       4057       4068       4067       4177       4178       4189       4188  
      4057       4058       4069       4068       4178       4179       4190       4189  
      4058       4059       4070       4069       4179       4180       4191       4190  
      4060       4061       4072       4071       4181       4182       4193       4192  
      4061       4062       4073       4072       4182       4183       4194       4193  
      4062       4063       4074       4073       4183       4184       4195       4194  
      4063       4064       4075       4074       4184       4185       4196       4195  
      4064       4065       4076       4075       4185       4186       4197       4196  
      4065       4066       4077       4076       4186       4187       4198       4197  
      4066       4067       4078       4077       4187       4188       4199       4198  
      4067       4068       4079       4078       4188       4189       4200       4199  
      4068       4069       4080       4079       4189       4190       4201       4200  
      4069       4070       4081       4080       4190       4191       4202       4201  
      4071       4072       4083       4082       4192       4193       4204       4203  
      4072       4073       4084       4083       4193       4194       4205       4204  
      4073       4074       4085       4084       4194       4195       4206       4205  
      4074       4075       4086       4085       4195       4196       4207       4206  
      4075       4076       4087       4086       4196       4197       4208       4207  
      4076       4077       4088       4087       4197       4198       4209       4208  
      4077       4078       4089       4088       4198       4199       4210       4209  
      4078       4079       4090       4089       4199       4200       4211       4210  
      4079       4080       4091       4090       4200       4201       4212       4211  
      4080       4081       4092       4091       4201       4202       4213       4212  
      4082       4083       4094       4093       4203       4204       4215       4214  
      4083       4084       4095       4094       4204       4205       4216       4215  
      4084       4085       4096       4095       4205       4206       4217       4216  
      4085       4086       4097       4096       4206       4207       4218       4217  
      4086       4087       4098       4097       4207       4208       4219       4218  
      4087       4088       4099       4098       4208       4209       4220       4219  
      4088       4089       4100       4099       4209       4210       4221       4220  
      4089       4090       4101       4100       4210       4211       4222       4221  
      4090       4091       4102       4101       4211       4212       4223       4222  
      4091       4092       4103       4102       4212       4213       4224       4223  
      4093       4094       4105       4104       4214       4215       4226       4225  
      4094       4095       4106       4105       4215       4216       4227       4226  
      4095       4096       4107       4106       4216       4217       4228       4227  
      4096       4097       4108       4107       4217       4218       4229       4228  
      4097       4098       4109       4108       4218       4219       4230       4229  
      4098       4099       4110       4109       4219       4220       4231       4230  
      4099       4100       4111       4110       4220       4221       4232       4231  
      4100       4101       4112       4111       4221       4222       4233       4232  
      4101       4102       4113       4112       4222       4223       4234       4233  
      4102       4103       4114       4113       4223       4224       4235       4234  
      4115       4116       4127       4126       4236       4237       4248       4247  
      4116       4117       4128       4127       4237       4238       4249       4248  
      4117       4118       4129       4128       4238       4239       4250       4249  
      4118       4119       4130       4129       4239       4240       4251       4250  
      4119       4120       4131       4130       4240       4241       4252       4251  
      4120       4121       4132       4131       4241       4242       4253       4252  
      4121       4122       4133       4132       4242       4243       4254       4253  
      4122       4123       4134       4133       4243       4244       4255       4254  
      4123       4124       4135       4134       4244       4245       4256       4255  
      4124       4125       4136       4135       4245       4246       4257       4256  
      4126       4127       4138       4137       4247       4248       4259       4258  
      4127       4128       4139       4138       4248       4249       4260       4259  
      4128       4129       4140       4139       4249       4250       4261       4260  
      4129       4130       4141       4140       4250       4251       4262       4261  
      4130       4131       4142       4141       4251       4252       4263       4262  
      4131       4132       4143       4142       4252       4253       4264       4263  
      4132       4133       4144       4143       4253       4254       4265       4264  
      4133       4134       4145       4144       4254       4255       4266       4265  
      4134       4135       4146       4145       4255       4256       4267       4266  
      4135       4136       4147       4146       4256       4257       4268       4267  
      4137       4138       4149       4148       4258       4259       4270       4269  
      4138       4139       4150       4149       4259       4260       4271       4270  
      4139       4140       4151       4150       4260       4261       4272       4271  
      4140       4141       4152       4151       4261       4262       4273       4272  
      4141       4142       4153       4152       4262       4263       4274       4273  
      4142       4143       4154       4153       4263       4264       4275       4274  
      4143       4144       4155       4154       4264       4265       4276       4275  
      4144       4145       4156       4155       4265       4266       4277       4276  
      4145       4146       4157       4156       4266       4267       4278       4277  
      4146       4147       4158       4157       4267       4268       4279       4278  
      4148       4149       4160       4159       4269       4270       4281       4280  
      4149       4150       4161       4160       4270       4271       4282       4281  
      4150       4151       4162       4161       4271       4272       4283       4282  
      4151       4152       4163       4162       4272       4273       4284       4283  
      4152       4153       4164       4163       4273       4274       4285       4284  
      4153       4154       4165       4164       4274       4275       4286       4285  
      4154       4155       4166       4165       4275       4276       4287       4286  
      4155       4156       4167       4166       4276       4277       4288       4287  
      4156       4157       4168       4167       4277       4278       4289       4288  
      4157       4158       4169       4168       4278       4279       4290       4289  
      4159       4160       4171       4170       4280       4281       4292       4291  
      4160       4161       4172       4171       4281       4282       4293       4292  
      4161       4162       4173       4172       4282       4283       4294       4293  
      4162       4163       4174       4173       4283       4284       4295       4294  
      4163       4164       4175       4174       4284       4285       4296       4295  
      4164       4165       4176       4175       4285       4286       4297       4296  
      4165       4166       4177       4176       4286       4287       4298       4297  
      4166       4167       4178       4177       4287       4288       4299       4298  
      4167       4168       4179       4178       4288       4289       4300       4299  
      4168       4169       4180       4179       4289       4290       4301       4300  
      4170       4171       4182       4181       4291       4292       4303       4302  
      4171       4172       4183       4182       4292       4293       4304       4303  
      4172       4173       4184       4183       4293       4294       4305       4304  
      4173       4174       4185       4184       4294       4295       4306       4305  
      4174       4175       4186       4185       4295       4296       4307       4306  
      4175       4176       4187       4186       4296       4297       4308       4307  
      4176       4177       4188       4187       4297       4298       4309       4308  
      4177       4178       4189       4188       4298       4299       4310       4309  
      4178       4179       4190       4189       4299       4300       4311       4310  
      4179       4180       4191       4190       4300       4301       4312       4311  
      4181       4182       4193       4192       4302       4303       4314       4313  
      4182       4183       4194       4193       4303       4304       4315       4314  
      4183       4184       4195       4194       4304       4305       4316       4315  
      4184       4185       4196       4195       4305       4306       4317       4316  
      4185       4186       4197       4196       4306       4307       4318       4317  
      4186       4187       4198       4197       4307       4308       4319       4318  
      4187       4188       4199       4198       4308       4309       4320       4319  
      4188       4189       4200       4199       4309       4310       4321       4320  
      4189       4190       4201       4200       4310       4311       4322       4321  
      4190       4191       4202       4201       4311       4312       4323       4322  
      4192       4193       4204       4203       4313       4314       4325       4324  
      4193       4194       4205       4204       4314       4315       4326       4325  
      4194       4195       4206       4205       4315       4316       4327       4326  
      4195       4196       4207       4206       4316       4317       4328       4327  
      4196       4197       4208       4207       4317       4318       4329       4328  
      4197       4198       4209       4208       4318       4319       4330       4329  
      4198       4199       4210       4209       4319       4320       4331       4330  
      4199       4200       4211       4210       4320       4321       4332       4331  
      4200       4201       4212       4211       4321       4322       4333       4332  
      4201       4202       4213       4212       4322       4323       4334       4333  
      4203       4204       4215       4214       4324       4325       4336       4335  
      4204       4205       4216       4215       4325       4326       4337       4336  
      4205       4206       4217       4216       4326       4327       4338       4337  
      4206       4207       4218       4217       4327       4328       4339       4338  
      4207       4208       4219       4218       4328       4329       4340       4339  
      4208       4209       4220       4219       4329       4330       4341       4340  
      4209       4210       4221       4220       4330       4331       4342       4341  
      4210       4211       4222       4221       4331       4332       4343       4342  
      4211       4212       4223       4222       4332       4333       4344       4343  
      4212       4213       4224       4223       4333       4334       4345       4344  
      4214       4215       4226       4225       4335       4336       4347       4346  
      4215       4216       4227       4226       4336       4337       4348       4347  
      4216       4217       4228       4227       4337       4338       4349       4348  
      4217       4218       4229       4228       4338       4339       4350       4349  
      4218       4219       4230       4229       4339       4340       4351       4350  
      4219       4220       4231       4230       4340       4341       4352       4351  
      4220       4221       4232       4231       4341       4342       4353       4352  
      4221       4222       4233       4232       4342       4343       4354       4353  
      4222       4223       4234       4233       4343       4344       4355       4354  
      4223       4224       4235       4234       4344       4345       4356       4355  
      4236       4237       4248       4247       4357       4358       4369       4368  
      4237       4238       4249       4248       4358       4359       4370       4369  
      4238       4239       4250       4249       4359       4360       4371       4370  
      4239       4240       4251       4250       4360       4361       4372       4371  
      4240       4241       4252       4251       4361       4362       4373       4372  
      4241       4242       4253       4252       4362       4363       4374       4373  
      4242       4243       4254       4253       4363       4364       4375       4374  
      4243       4244       4255       4254       4364       4365       4376       4375  
      4244       4245       4256       4255       4365       4366       4377       4376  
      4245       4246       4257       4256       4366       4367       4378       4377  
      4247       4248       4259       4258       4368       4369       4380       4379  
      4248       4249       4260       4259       4369       4370       4381       4380  
      4249       4250       4261       4260       4370       4371       4382       4381  
      4250       4251       4262       4261       4371       4372       4383       4382  
      4251       4252       4263       4262       4372       4373       4384       4383  
      4252       4253       4264       4263       4373       4374       4385       4384  
      4253       4254       4265       4264       4374       4375       4386       4385  
      4254       4255       4266       4265       4375       4376       4387       4386  
      4255       4256       4267       4266       4376       4377       4388       4387  
      4256       4257       4268       4267       4377       4378       4389       4388  
      4258       4259       4270       4269       4379       4380       4391       4390  
      4259       4260       4271       4270       4380       4381       4392       4391  
      4260       4261       4272       4271       4381       4382       4393       4392  
      4261       4262       4273       4272       4382       4383       4394       4393  
      4262       4263       4274       4273       4383       4384       4395       4394  
      4263       4264       4275       4274       4384       4385       4396       4395  
      4264       4265       4276       4275       4385       4386       4397       4396  
      4265       4266       4277       4276       4386       4387       4398       4397  
      4266       4267       4278       4277       4387       4388       4399       4398  
      4267       4268       4279       4278       4388       4389       4400       4399  
      4269       4270       4281       4280       4390       4391       4402       4401  
      4270       4271       4282       4281       4391       4392       4403       4402  
      4271       4272       4283       4282       4392       4393       4404       4403  
      4272       4273       4284       4283       4393       4394       4405       4404  
      4273       4274       4285       4284       4394       4395       4406       4405  
      4274       4275       4286       4285       4395       4396       4407       4406  
      4275       4276       4287       4286       4396       4397       4408       4407  
      4276       4277       4288       4287       4397       4398       4409       4408  
      4277       4278       4289       4288       4398       4399       4410       4409  
      4278       4279       4290       4289       4399       4400       4411       4410  
      4280       4281       4292       4291       4401       4402       4413       4412  
      4281       4282       4293       4292       4402       4403       4414       4413  
      4282       4283       4294       4293       4403       4404       4415       4414  
      4283       4284       4295       4294       4404       4405       4416       4415  
      4284       4285       4296       4295       4405       4406       4417       4416  
      4285       4286       4297       4296       4406       4407       4418       4417  
      4286       4287       4298       4297       4407       4408       4419       4418  
      4287       4288       4299       4298       4408       4409       4420       4419  
      4288       4289       4300       4299       4409       4410       4421       4420  
      4289       4290       4301       4300       4410       4411       4422       4421  
      4291       4292       4303       4302       4412       4413       4424       4423  
      4292       4293       4304       4303       4413       4414       4425       4424  
      4293       4294       4305       4304       4414       4415       4426       4425  
      4294       4295       4306       4305       4415       4416       4427       4426  
      4295       4296       4307       4306       4416       4417       4428       4427  
      4296       4297       4308       4307       4417       4418       4429       4428  
      4297       4298       4309       4308       4418       4419       4430       4429  
      4298       4299       4310       4309       4419       4420       4431       4430  
      4299       4300       4311       4310       4420       4421       4432       4431  
      4300       4301       4312       4311       4421       4422       4433       4432  
      4302       4303       4314       4313       4423       4424       4435       4434  
      4303       4304       4315       4314       4424       4425       4436       4435  
      4304       4305       4316       4315       4425       4426       4437       4436  
      4305       4306       4317       4316       4426       4427       4438       4437  
      4306       4307       4318       4317       4427       4428       4439       4438  
      4307       4308       4319       4318       4428       4429       4440       4439  
      4308       4309       4320       4319       4429       4430       4441       4440  
      4309       4310       4321       4320       4430       4431       4442       4441  
      4310       4311       4322       4321       4431       4432       4443       4442  
      4311       4312       4323       4322       4432       4433       4444       4443  
      4313       4314       4325       4324       4434       4435       4446       4445  
      4314       4315       4326       4325       4435       4436       4447       4446  
      4315       4316       4327       4326       4436       4437       4448       4447  
      4316       4317       4328       4327       4437       4438       4449       4448  
      4317       4318       4329       4328       4438       4439       4450       4449  
      4318       4319       4330       4329       4439       4440       4451       4450  
      4319       4320       4331       4330       4440       4441       4452       4451  
      4320       4321       4332       4331       4441       4442       4453       4452  
      4321       4322       4333       4332       4442       4443       4454       4453  
      4322       4323       4334       4333       4443       4444       4455       4454  
      4324       4325       4336       4335       4445       4446       4457       4456  
      4325       4326       4337       4336       4446       4447       4458       4457  
      4326       4327       4338       4337       4447       4448       4459       4458  
      4327       4328       4339       4338       4448       4449       4460       4459  
      4328       4329       4340       4339       4449       4450       4461       4460  
      4329       4330       4341       4340       4450       4451       4462       4461  
      4330       4331       4342       4341       4451       4452       4463       4462  
      4331       4332       4343       4342       4452       4453       4464       4463  
      4332       4333       4344       4343       4453       4454       4465       4464  
      4333       4334       4345       4344       4454       4455       4466       4465  
      4335       4336       4347       4346       4456       4457       4468       4467  
      4336       4337       4348       4347       4457       4458       4469       4468  
      4337       4338       4349       4348       4458       4459       4470       4469  
      4338       4339       4350       4349       4459       4460       4471       4470  
      4339       4340       4351       4350       4460       4461       4472       4471  
      4340       4341       4352       4351       4461       4462       4473       4472  
      4341       4342       4353       4352       4462       4463       4474       4473  
      4342       4343       4354       4353       4463       4464       4475       4474  
      4343       4344       4355       4354       4464       4465       4476       4475  
      4344       4345       4356       4355       4465       4466       4477       4476  
      4357       4358       4369       4368       4478       4479       4490       4489  
      4358       4359       4370       4369       4479       4480       4491       4490  
      4359       4360       4371       4370       4480       4481       4492       4491  
      4360       4361       4372       4371       4481       4482       4493       4492  
      4361       4362       4373       4372       4482       4483       4494       4493  
      4362       4363       4374       4373       4483       4484       4495       4494  
      4363       4364       4375       4374       4484       4485       4496       4495  
      4364       4365       4376       4375       4485       4486       4497       4496  
      4365       4366       4377       4376       4486       4487       4498       4497  
      4366       4367       4378       4377       4487       4488       4499       4498  
      4368       4369       4380       4379       4489       4490       4501       4500  
      4369       4370       4381       4380       4490       4491       4502       4501  
      4370       4371       4382       4381       4491       4492       4503       4502  
      4371       4372       4383       4382       4492       4493       4504       4503  
      4372       4373       4384       4383       4493       4494       4505       4504  
      4373       4374       4385       4384       4494       4495       4506       4505  
      4374       4375       4386       4385       4495       4496       4507       4506  
      4375       4376       4387       4386       4496       4497       4508       4507  
      4376       4377       4388       4387       4497       4498       4509       4508  
      4377       4378       4389       4388       4498       4499       4510       4509  
      4379       4380       4391       4390       4500       4501       4512       4511  
      4380       4381       4392       4391       4501       4502       4513       4512  
      4381       4382       4393       4392       4502       4503       4514       4513  
      4382       4383       4394       4393       4503       4504       4515       4514  
      4383       4384       4395       4394       4504       4505       4516       4515  
      4384       4385       4396       4395       4505       4506       4517       4516  
      4385       4386       4397       4396       4506       4507       4518       4517  
      4386       4387       4398       4397       4507       4508       4519       4518  
      4387       4388       4399       4398       4508       4509       4520       4519  
      4388       4389       4400       4399       4509       4510       4521       4520  
      4390       4391       4402       4401       4511       4512       4523       4522  
      4391       4392       4403       4402       4512       4513       4524       4523  
      4392       4393       4404       4403       4513       4514       4525       4524  
      4393       4394       4405       4404       4514       4515       4526       4525  
      4394       4395       4406       4405       4515       4516       4527       4526  
      4395       4396       4407       4406       4516       4517       4528       4527  
      4396       4397       4408       4407       4517       4518       4529       4528  
      4397       4398       4409       4408       4518       4519       4530       4529  
      4398       4399       4410       4409       4519       4520       4531       4530  
      4399       4400       4411       4410       4520       4521       4532       4531  
      4401       4402       4413       4412       4522       4523       4534       4533  
      4402       4403       4414       4413       4523       4524       4535       4534  
      4403       4404       4415       4414       4524       4525       4536       4535  
      4404       4405       4416       4415       4525       4526       4537       4536  
      4405       4406       4417       4416       4526       4527       4538       4537  
      4406       4407       4418       4417       4527       4528       4539       4538  
      4407       4408       4419       4418       4528       4529       4540       4539  
      4408       4409       4420       4419       4529       4530       4541       4540  
      4409       4410       4421       4420       4530       4531       4542       4541  
      4410       4411       4422       4421       4531       4532       4543       4542  
      4412       4413       4424       4423       4533       4534       4545       4544  
      4413       4414       4425       4424       4534       4535       4546       4545  
      4414       4415       4426       4425       4535       4536       4547       4546  
      4415       4416       4427       4426       4536       4537       4548       4547  
      4416       4417       4428       4427       4537       4538       4549       4548  
      4417       4418       4429       4428       4538       4539       4550       4549  
      4418       4419       4430       4429       4539       4540       4551       4550  
      4419       4420       4431       4430       4540       4541       4552       4551  
      4420       4421       4432       4431       4541       4542       4553       4552  
      4421       4422       4433       4432       4542       4543       4554       4553  
      4423       4424       4435       4434       4544       4545       4556       4555  
      4424       4425       4436       4435       4545       4546       4557       4556  
      4425       4426       4437       4436       4546       4547       4558       4557  
      4426       4427       4438       4437       4547       4548       4559       4558  
      4427       4428       4439       4438       4548       4549       4560       4559  
      4428       4429       4440       4439       4549       4550       4561       4560  
      4429       4430       4441       4440       4550       4551       4562       4561  
      4430       4431       4442       4441       4551       4552       4563       4562  
      4431       4432       4443       4442       4552       4553       4564       4563  
      4432       4433       4444       4443       4553       4554       4565       4564  
      4434       4435       4446       4445       4555       4556       4567       4566  
      4435       4436       4447       4446       4556       4557       4568       4567  
      4436       4437       4448       4447       4557       4558       4569       4568  
      4437       4438       4449       4448       4558       4559       4570       4569  
      4438       4439       4450       4449       4559       4560       4571       4570  
      4439       4440       4451       4450       4560       4561       4572       4571  
      4440       4441       4452       4451       4561       4562       4573       4572  
      4441       4442       4453       4452       4562       4563       4574       4573  
      4442       4443       4454       4453       4563       4564       4575       4574  
      4443       4444       4455       4454       4564       4565       4576       4575  
      4445       4446       4457       4456       4566       4567       4578       4577  
      4446       4447       4458       4457       4567       4568       4579       4578  
      4447       4448       4459       4458       4568       4569       4580       4579  
      4448       4449       4460       4459       4569       4570       4581       4580  
      4449       4450       4461       4460       4570       4571       4582       4581  
      4450       4451       4462       4461       4571       4572       4583       4582  
      4451       4452       4463       4462       4572       4573       4584       4583  
      4452       4453       4464       4463       4573       4574       4585       4584  
      4453       4454       4465       4464       4574       4575       4586       4585  
      4454       4455       4466       4465       4575       4576       4587       4586  
      4456       4457       4468       4467       4577       4578       4589       4588  
      4457       4458       4469       4468       4578       4579       4590       4589  
      4458       4459       4470       4469       4579       4580       4591       4590  
      4459       4460       4471       4470       4580       4581       4592       4591  
      4460       4461       4472       4471       4581       4582       4593       4592  
      4461       4462       4473       4472       4582       4583       4594       4593  
      4462       4463       4474       4473       4583       4584       4595       4594  
      4463       4464       4475       4474       4584       4585       4596       4595  
      4464       4465       4476       4475       4585       4586       4597       4596  
      4465       4466       4477       4476       4586       4587       4598       4597  
      4478       4479       4490       4489       4599       4600       4611       4610  
      4479       4480       4491       4490       4600       4601       4612       4611  
      4480       4481       4492       4491       4601       4602       4613       4612  
      4481       4482       4493       4492       4602       4603       4614       4613  
      4482       4483       4494       4493       4603       4604       4615       4614  
      4483       4484       4495       4494       4604       4605       4616       4615  
      4484       4485       4496       4495       4605       4606       4617       4616  
      4485       4486       4497       4496       4606       4607       4618       4617  
      4486       4487       4498       4497       4607       4608       4619       4618  
      4487       4488       4499       4498       4608       4609       4620       4619  
      4489       4490       4501       4500       4610       4611       4622       4621  
      4490       4491       4502       4501       4611       4612       4623       4622  
      4491       4492       4503       4502       4612       4613       4624       4623  
      4492       4493       4504       4503       4613       4614       4625       4624  
      4493       4494       4505       4504       4614       4615       4626       4625  
      4494       4495       4506       4505       4615       4616       4627       4626  
      4495       4496       4507       4506       4616       4617       4628       4627  
      4496       4497       4508       4507       4617       4618       4629       4628  
      4497       4498       4509       4508       4618       4619       4630       4629  
      4498       4499       4510       4509       4619       4620       4631       4630  
      4500       4501       4512       4511       4621       4622       4633       4632  
      4501       4502       4513       4512       4622       4623       4634       4633  
      4502       4503       4514       4513       4623       4624       4635       4634  
      4503       4504       4515       4514       4624       4625       4636       4635  
      4504       4505       4516       4515       4625       4626       4637       4636  
      4505       4506       4517       4516       4626       4627       4638       4637  
      4506       4507       4518       4517       4627       4628       4639       4638  
      4507       4508       4519       4518       4628       4629       4640       4639  
      4508       4509       4520       4519       4629       4630       4641       4640  
      4509       4510       4521       4520       4630       4631       4642       4641  
      4511       4512       4523       4522       4632       4633       4644       4643  
      4512       4513       4524       4523       4633       4634       4645       4644  
      4513       4514       4525       4524       4634       4635       4646       4645  
      4514       4515       4526       4525       4635       4636       4647       4646  
      4515       4516       4527       4526       4636       4637       4648       4647  
      4516       4517       4528       4527       4637       4638       4649       4648  
      4517       4518       4529       4528       4638       4639       4650       4649  
      4518       4519       4530       4529       4639       4640       4651       4650  
      4519       4520       4531       4530       4640       4641       4652       4651  
      4520       4521       4532       4531       4641       4642       4653       4652  
      4522       4523       4534       4533       4643       4644       4655       4654  
      4523       4524       4535       4534       4644       4645       4656       4655  
      4524       4525       4536       4535       4645       4646       4657       4656  
      4525       4526       4537       4536       4646       4647       4658       4657  
      4526       4527       4538       4537       4647       4648       4659       4658  
      4527       4528       4539       4538       4648       4649       4660       4659  
      4528       4529       4540       4539       4649       4650       4661       4660  
      4529       4530       4541       4540       4650       4651       4662       4661  
      4530       4531       4542       4541       4651       4652       4663       4662  
      4531       4532       4543       4542       4652       4653       4664       4663  
      4533       4534       4545       4544       4654       4655       4666       4665  
      4534       4535       4546       4545       4655       4656       4667       4666  
      4535       4536       4547       4546       4656       4657       4668       4667  
      4536       4537       4548       4547       4657       4658       4669       4668  
      4537       4538       4549       4548       4658       4659       4670       4669  
      4538       4539       4550       4549       4659       4660       4671       4670  
      4539       4540       4551       4550       4660       4661       4672       4671  
      4540       4541       4552       4551       4661       4662       4673       4672  
      4541       4542       4553       4552       4662       4663       4674       4673  
      4542       4543       4554       4553       4663       4664       4675       4674  
      4544       4545       4556       4555       4665       4666       4677       4676  
      4545       4546       4557       4556       4666       4667       4678       4677  
      4546       4547       4558       4557       4667       4668       4679       4678  
      4547       4548       4559       4558       4668       4669       4680       4679  
      4548       4549       4560       4559       4669       4670       4681       4680  
      4549       4550       4561       4560       4670       4671       4682       4681  
      4550       4551       4562       4561       4671       4672       4683       4682  
      4551       4552       4563       4562       4672       4673       4684       4683  
      4552       4553       4564       4563       4673       4674       4685       4684  
      4553       4554       4565       4564       4674       4675       4686       4685  
      4555       4556       4567       4566       4676       4677       4688       4687  
      4556       4557       4568       4567       4677       4678       4689       4688  
      4557       4558       4569       4568       4678       4679       4690       4689  
      4558       4559       4570       4569       4679       4680       4691       4690  
      4559       4560       4571       4570       4680       4681       4692       4691  
      4560       4561       4572       4571       4681       4682       4693       4692  
      4561       4562       4573       4572       4682       4683       4694       4693  
      4562       4563       4574       4573       4683       4684       4695       4694  
      4563       4564       4575       4574       4684       4685       4696       4695  
      4564       4565       4576       4575       4685       4686       4697       4696  
      4566       4567       4578       4577       4687       4688       4699       4698  
      4567       4568       4579       4578       4688       4689       4700       4699  
      4568       4569       4580       4579       4689       4690       4701       4700  
      4569       4570       4581       4580       4690       4691       4702       4701  
      4570       4571       4582       4581       4691       4692       4703       4702  
      4571       4572       4583       4582       4692       4693       4704       4703  
      4572       4573       4584       4583       4693       4694       4705       4704  
      4573       4574       4585       4584       4694       4695       4706       4705  
      4574       4575       4586       4585       4695       4696       4707       4706  
      4575       4576       4587       4586       4696       4697       4708       4707  
      4577       4578       4589       4588       4698       4699       4710       4709  
      4578       4579       4590       4589       4699       4700       4711       4710  
      4579       4580       4591       4590       4700       4701       4712       4711  
      4580       4581       4592       4591       4701       4702       4713       4712  
      4581       4582       4593       4592       4702       4703       4714       4713  
      4582       4583       4594       4593       4703       4704       4715       4714  
      4583       4584       4595       4594       4704       4705       4716       4715  
      4584       4585       4596       4595       4705       4706       4717       4716  
      4585       4586       4597       4596       4706       4707       4718       4717  
      4586       4587       4598       4597       4707       4708       4719       4718  
      4599       4600       4611       4610       4720       4721       4732       4731  
      4600       4601       4612       4611       4721       4722       4733       4732  
      4601       4602       4613       4612       4722       4723       4734       4733  
      4602       4603       4614       4613       4723       4724       4735       4734  
      4603       4604       4615       4614       4724       4725       4736       4735  
      4604       4605       4616       4615       4725       4726       4737       4736  
      4605       4606       4617       4616       4726       4727       4738       4737  
      4606       4607       4618       4617       4727       4728       4739       4738  
      4607       4608       4619       4618       4728       4729       4740       4739  
      4608       4609       4620       4619       4729       4730       4741       4740  
      4610       4611       4622       4621       4731       4732       4743       4742  
      4611       4612       4623       4622       4732       4733       4744       4743  
      4612       4613       4624       4623       4733       4734       4745       4744  
      4613       4614       4625       4624       4734       4735       4746       4745  
      4614       4615       4626       4625       4735       4736       4747       4746  
      4615       4616       4627       4626       4736       4737       4748       4747  
      4616       4617       4628       4627       4737       4738       4749       4748  
      4617       4618       4629       4628       4738       4739       4750       4749  
      4618       4619       4630       4629       4739       4740       4751       4750  
      4619       4620       4631       4630       4740       4741       4752       4751  
      4621       4622       4633       4632       4742       4743       4754       4753  
      4622       4623       4634       4633       4743       4744       4755       4754  
      4623       4624       4635       4634       4744       4745       4756       4755  
      4624       4625       4636       4635       4745       4746       4757       4756  
      4625       4626       4637       4636       4746       4747       4758       4757  
      4626       4627       4638       4637       4747       4748       4759       4758  
      4627       4628       4639       4638       4748       4749       4760       4759  
      4628       4629       4640       4639       4749       4750       4761       4760  
      4629       4630       4641       4640       4750       4751       4762       4761  
      4630       4631       4642       4641       4751       4752       4763       4762  
      4632       4633       4644       4643       4753       4754       4765       4764  
      4633       4634       4645       4644       4754       4755       4766       4765  
      4634       4635       4646       4645       4755       4756       4767       4766  
      4635       4636       4647       4646       4756       4757       4768       4767  
      4636       4637       4648       4647       4757       4758       4769       4768  
      4637       4638       4649       4648       4758       4759       4770       4769  
      4638       4639       4650       4649       4759       4760       4771       4770  
      4639       4640       4651       4650       4760       4761       4772       4771  
      4640       4641       4652       4651       4761       4762       4773       4772  
      4641       4642       4653       4652       4762       4763       4774       4773  
      4643       4644       4655       4654       4764       4765       4776       4775  
      4644       4645       4656       4655       4765       4766       4777       4776  
      4645       4646       4657       4656       4766       4767       4778       4777  
      4646       4647       4658       4657       4767       4768       4779       4778  
      4647       4648       4659       4658       4768       4769       4780       4779  
      4648       4649       4660       4659       4769       4770       4781       4780  
      4649       4650       4661       4660       4770       4771       4782       4781  
      4650       4651       4662       4661       4771       4772       4783       4782  
      4651       4652       4663       4662       4772       4773       4784       4783  
      4652       4653       4664       4663       4773       4774       4785       4784  
      4654       4655       4666       4665       4775       4776       4787       4786  
      4655       4656       4667       4666       4776       4777       4788       4787  
      4656       4657       4668       4667       4777       4778       4789       4788  
      4657       4658       4669       4668       4778       4779       4790       4789  
      4658       4659       4670       4669       4779       4780       4791       4790  
      4659       4660       4671       4670       4780       4781       4792       4791  
      4660       4661       4672       4671       4781       4782       4793       4792  
      4661       4662       4673       4672       4782       4783       4794       4793  
      4662       4663       4674       4673       4783       4784       4795       4794  
      4663       4664       4675       4674       4784       4785       4796       4795  
      4665       4666       4677       4676       4786       4787       4798       4797  
      4666       4667       4678       4677       4787       4788       4799       4798  
      4667       4668       4679       4678       4788       4789       4800       4799  
      4668       4669       4680       4679       4789       4790       4801       4800  
      4669       4670       4681       4680       4790       4791       4802       4801  
      4670       4671       4682       4681       4791       4792       4803       4802  
      4671       4672       4683       4682       4792       4793       4804       4803  
      4672       4673       4684       4683       4793       4794       4805       4804  
      4673       4674       4685       4684       4794       4795       4806       4805  
      4674       4675       4686       4685       4795       4796       4807       4806  
      4676       4677       4688       4687       4797       4798       4809       4808  
      4677       4678       4689       4688       4798       4799       4810       4809  
      4678       4679       4690       4689       4799       4800       4811       4810  
      4679       4680       4691       4690       4800       4801       4812       4811  
      4680       4681       4692       4691       4801       4802       4813       4812  
      4681       4682       4693       4692       4802       4803       4814       4813  
      4682       4683       4694       4693       4803       4804       4815       4814  
      4683       4684       4695       4694       4804       4805       4816       4815  
      4684       4685       4696       4695       4805       4806       4817       4816  
      4685       4686       4697       4696       4806       4807       4818       4817  
      4687       4688       4699       4698       4808       4809       4820       4819  
      4688       4689       4700       4699       4809       4810       4821       4820  
      4689       4690       4701       4700       4810       4811       4822       4821  
      4690       4691       4702       4701       4811       4812       4823       4822  
      4691       4692       4703       4702       4812       4813       4824       4823  
      4692       4693       4704       4703       4813       4814       4825       4824  
      4693       4694       4705       4704       4814       4815       4826       4825  
      4694       4695       4706       4705       4815       4816       4827       4826  
      4695       4696       4707       4706       4816       4817       4828       4827  
      4696       4697       4708       4707       4817       4818       4829       4828  
      4698       4699       4710       4709       4819       4820       4831       4830  
      4699       4700       4711       4710       4820       4821       4832       4831  
      4700       4701       4712       4711       4821       4822       4833       4832  
      4701       4702       4713       4712       4822       4823       4834       4833  
      4702       4703       4714       4713       4823       4824       4835       4834  
      4703       4704       4715       4714       4824       4825       4836       4835  
      4704       4705       4716       4715       4825       4826       4837       4836  
      4705       4706       4717       4716       4826       4827       4838       4837  
      4706       4707       4718       4717       4827       4828       4839       4838  
      4707       4708       4719       4718       4828       4829       4840       4839  
      4720       4721       4732       4731       4841       4842       4853       4852  
      4721       4722       4733       4732       4842       4843       4854       4853  
      4722       4723       4734       4733       4843       4844       4855       4854  
      4723       4724       4735       4734       4844       4845       4856       4855  
      4724       4725       4736       4735       4845       4846       4857       4856  
      4725       4726       4737       4736       4846       4847       4858       4857  
      4726       4727       4738       4737       4847       4848       4859       4858  
      4727       4728       4739       4738       4848       4849       4860       4859  
      4728       4729       4740       4739       4849       4850       4861       4860  
      4729       4730       4741       4740       4850       4851       4862       4861  
      4731       4732       4743       4742       4852       4853       4864       4863  
      4732       4733       4744       4743       4853       4854       4865       4864  
      4733       4734       4745       4744       4854       4855       4866       4865  
      4734       4735       4746       4745       4855       4856       4867       4866  
      4735       4736       4747       4746       4856       4857       4868       4867  
      4736       4737       4748       4747       4857       4858       4869       4868  
      4737       4738       4749       4748       4858       4859       4870       4869  
      4738       4739       4750       4749       4859       4860       4871       4870  
      4739       4740       4751       4750       4860       4861       4872       4871  
      4740       4741       4752       4751       4861       4862       4873       4872  
      4742       4743       4754       4753       4863       4864       4875       4874  
      4743       4744       4755       4754       4864       4865       4876       4875  
      4744       4745       4756       4755       4865       4866       4877       4876  
      4745       4746       4757       4756       4866       4867       4878       4877  
      4746       4747       4758       4757       4867       4868       4879       4878  
      4747       4748       4759       4758       4868       4869       4880       4879  
      4748       4749       4760       4759       4869       4870       4881       4880  
      4749       4750       4761       4760       4870       4871       4882       4881  
      4750       4751       4762       4761       4871       4872       4883       4882  
      4751       4752       4763       4762       4872       4873       4884       4883  
      4753       4754       4765       4764       4874       4875       4886       4885  
      4754       4755       4766       4765       4875       4876       4887       4886  
      4755       4756       4767       4766       4876       4877       4888       4887  
      4756       4757       4768       4767       4877       4878       4889       4888  
      4757       4758       4769       4768       4878       4879       4890       4889  
      4758       4759       4770       4769       4879       4880       4891       4890  
      4759       4760       4771       4770       4880       4881       4892       4891  
      4760       4761       4772       4771       4881       4882       4893       4892  
      4761       4762       4773       4772       4882       4883       4894       4893  
      4762       4763       4774       4773       4883       4884       4895       4894  
      4764       4765       4776       4775       4885       4886       4897       4896  
      4765       4766       4777       4776       4886       4887       4898       4897  
      4766       4767       4778       4777       4887       4888       4899       4898  
      4767       4768       4779       4778       4888       4889       4900       4899  
      4768       4769       4780       4779       4889       4890       4901       4900  
      4769       4770       4781       4780       4890       4891       4902       4901  
      4770       4771       4782       4781       4891       4892       4903       4902  
      4771       4772       4783       4782       4892       4893       4904       4903  
      4772       4773       4784       4783       4893       4894       4905       4904  
      4773       4774       4785       4784       4894       4895       4906       4905  
      4775       4776       4787       4786       4896       4897       4908       4907  
      4776       4777       4788       4787       4897       4898       4909       4908  
      4777       4778       4789       4788       4898       4899       4910       4909  
      4778       4779       4790       4789       4899       4900       4911       4910  
      4779       4780       4791       4790       4900       4901       4912       4911  
      4780       4781       4792       4791       4901       4902       4913       4912  
      4781       4782       4793       4792       4902       4903       4914       4913  
      4782       4783       4794       4793       4903       4904       4915       4914  
      4783       4784       4795       4794       4904       4905       4916       4915  
      4784       4785       4796       4795       4905       4906       4917       4916  
      4786       4787       4798       4797       4907       4908       4919       4918  
      4787       4788       4799       4798       4908       4909       4920       4919  
      4788       4789       4800       4799       4909       4910       4921       4920  
      4789       4790       4801       4800       4910       4911       4922       4921  
      4790       4791       4802       4801       4911       4912       4923       4922  
      4791       4792       4803       4802       4912       4913       4924       4923  
      4792       4793       4804       4803       4913       4914       4925       4924  
      4793       4794       4805       4804       4914       4915       4926       4925  
      4794       4795       4806       4805       4915       4916       4927       4926  
      4795       4796       4807       4806       4916       4917       4928       4927  
      4797       4798       4809       4808       4918       4919       4930       4929  
      4798       4799       4810       4809       4919       4920       4931       4930  
      4799       4800       4811       4810       4920       4921       4932       4931  
      4800       4801       4812       4811       4921       4922       4933       4932  
      4801       4802       4813       4812       4922       4923       4934       4933  
      4802       4803       4814       4813       4923       4924       4935       4934  
      4803       4804       4815       4814       4924       4925       4936       4935  
      4804       4805       4816       4815       4925       4926       4937       4936  
      4805       4806       4817       4816       4926       4927       4938       4937  
      4806       4807       4818       4817       4927       4928       4939       4938  
      4808       4809       4820       4819       4929       4930       4941       4940  
      4809       4810       4821       4820       4930       4931       4942       4941  
      4810       4811       4822       4821       4931       4932       4943       4942  
      4811       4812       4823       4822       4932       4933       4944       4943  
      4812       4813       4824       4823       4933       4934       4945       4944  
      4813       4814       4825       4824       4934       4935       4946       4945  
      4814       4815       4826       4825       4935       4936       4947       4946  
      4815       4816       4827       4826       4936       4937       4948       4947  
      4816       4817       4828       4827       4937       4938       4949       4948  
      4817       4818       4829       4828       4938       4939       4950       4949  
      4819       4820       4831       4830       4940       4941       4952       4951  
      4820       4821       4832       4831       4941       4942       4953       4952  
      4821       4822       4833       4832       4942       4943       4954       4953  
      4822       4823       4834       4833       4943       4944       4955       4954  
      4823       4824       4835       4834       4944       4945       4956       4955  
      4824       4825       4836       4835       4945       4946       4957       4956  
      4825       4826       4837       4836       4946       4947       4958       4957  
      4826       4827       4838       4837       4947       4948       4959       4958  
      4827       4828       4839       4838       4948       4949       4960       4959  
      4828       4829       4840       4839       4949       4950       4961       4960  
      4841       4842       4853       4852       4962       4963       4974       4973  
      4842       4843       4854       4853       4963       4964       4975       4974  
      4843       4844       4855       4854       4964       4965       4976       4975  
      4844       4845       4856       4855       4965       4966       4977       4976  
      4845       4846       4857       4856       4966       4967       4978       4977  
      4846       4847       4858       4857       4967       4968       4979       4978  
      4847       4848       4859       4858       4968       4969       4980       4979  
      4848       4849       4860       4859       4969       4970       4981       4980  
      4849       4850       4861       4860       4970       4971       4982       4981  
      4850       4851       4862       4861       4971       4972       4983       4982  
      4852       4853       4864       4863       4973       4974       4985       4984  
      4853       4854       4865       4864       4974       4975       4986       4985  
      4854       4855       4866       4865       4975       4976       4987       4986  
      4855       4856       4867       4866       4976       4977       4988       4987  
      4856       4857       4868       4867       4977       4978       4989       4988  
      4857       4858       4869       4868       4978       4979       4990       4989  
      4858       4859       4870       4869       4979       4980       4991       4990  
      4859       4860       4871       4870       4980       4981       4992       4991  
      4860       4861       4872       4871       4981       4982       4993       4992  
      4861       4862       4873       4872       4982       4983       4994       4993  
      4863       4864       4875       4874       4984       4985       4996       4995  
      4864       4865       4876       4875       4985       4986       4997       4996  
      4865       4866       4877       4876       4986       4987       4998       4997  
      4866       4867       4878       4877       4987       4988       4999       4998  
      4867       4868       4879       4878       4988       4989       5000       4999  
      4868       4869       4880       4879       4989       4990       5001       5000  
      4869       4870       4881       4880       4990       4991       5002       5001  
      4870       4871       4882       4881       4991       4992       5003       5002  
      4871       4872       4883       4882       4992       4993       5004       5003  
      4872       4873       4884       4883       4993       4994       5005       5004  
      4874       4875       4886       4885       4995       4996       5007       5006  
      4875       4876       4887       4886       4996       4997       5008       5007  
      4876       4877       4888       4887       4997       4998       5009       5008  
      4877       4878       4889       4888       4998       4999       5010       5009  
      4878       4879       4890       4889       4999       5000       5011       5010  
      4879       4880       4891       4890       5000       5001       5012       5011  
      4880       4881       4892       4891       5001       5002       5013       5012  
      4881       4882       4893       4892       5002       5003       5014       5013  
      4882       4883       4894       4893       5003       5004       5015       5014  
      4883       4884       4895       4894       5004       5005       5016       5015  
      4885       4886       4897       4896       5006       5007       5018       5017  
      4886       4887       4898       4897       5007       5008       5019       5018  
      4887       4888       4899       4898       5008       5009       5020       5019  
      4888       4889       4900       4899       5009       5010       5021       5020  
      4889       4890       4901       4900       5010       5011       5022       5021  
      4890       4891       4902       4901       5011       5012       5023       5022  
      4891       4892       4903       4902       5012       5013       5024       5023  
      4892       4893       4904       4903       5013       5014       5025       5024  
      4893       4894       4905       4904       5014       5015       5026       5025  
      4894       4895       4906       4905       5015       5016       5027       5026  
      4896       4897       4908       4907       5017       5018       5029       5028  
      4897       4898       4909       4908       5018       5019       5030       5029  
      4898       4899       4910       4909       5019       5020       5031       5030  
      4899       4900       4911       4910       5020       5021       5032       5031  
      4900       4901       4912       4911       5021       5022       5033       5032  
      4901       4902       4913       4912       5022       5023       5034       5033  
      4902       4903       4914       4913       5023       5024       5035       5034  
      4903       4904       4915       4914       5024       5025       5036       5035  
      4904       4905       4916       4915       5025       5026       5037       5036  
      4905       4906       4917       4916       5026       5027       5038       5037  
      4907       4908       4919       4918       5028       5029       5040       5039  
      4908       4909       4920       4919       5029       5030       5041       5040  
      4909       4910       4921       4920       5030       5031       5042       5041  
      4910       4911       4922       4921       5031       5032       5043       5042  
      4911       4912       4923       4922       5032       5033       5044       5043  
      4912       4913       4924       4923       5033       5034       5045       5044  
      4913       4914       4925       4924       5034       5035       5046       5045  
      4914       4915       4926       4925       5035       5036       5047       5046  
      4915       4916       4927       4926       5036       5037       5048       5047  
      4916       4917       4928       4927       5037       5038       5049       5048  
      4918       4919       4930       4929       5039       5040       5051       5050  
      4919       4920       4931       4930       5040       5041       5052       5051  
      4920       4921       4932       4931       5041       5042       5053       5052  
      4921       4922       4933       4932       5042       5043       5054       5053  
      4922       4923       4934       4933       5043       5044       5055       5054  
      4923       4924       4935       4934       5044       5045       5056       5055  
      4924       4925       4936       4935       5045       5046       5057       5056  
      4925       4926       4937       4936       5046       5047       5058       5057  
      4926       4927       4938       4937       5047       5048       5059       5058  
      4927       4928       4939       4938       5048       5049       5060       5059  
      4929       4930       4941       4940       5050       5051       5062       5061  
      4930       4931       4942       4941       5051       5052       5063       5062  
      4931       4932       4943       4942       5052       5053       5064       5063  
      4932       4933       4944       4943       5053       5054       5065       5064  
      4933       4934       4945       4944       5054       5055       5066       5065  
      4934       4935       4946       4945       5055       5056       5067       5066  
      4935       4936       4947       4946       5056       5057       5068       5067  
      4936       4937       4948       4947       5057       5058       5069       5068  
      4937       4938       4949       4948       5058       5059       5070       5069  
      4938       4939       4950       4949       5059       5060       5071       5070  
      4940       4941       4952       4951       5061       5062       5073       5072  
      4941       4942       4953       4952       5062       5063       5074       5073  
      4942       4943       4954       4953       5063       5064       5075       5074  
      4943       4944       4955       4954       5064       5065       5076       5075  
      4944       4945       4956       4955       5065       5066       5077       5076  
      4945       4946       4957       4956       5066       5067       5078       5077  
      4946       4947       4958       4957       5067       5068       5079       5078  
      4947       4948       4959       4958       5068       5069       5080       5079  
      4948       4949       4960       4959       5069       5070       5081       5080  
      4949       4950       4961       4960       5070       5071       5082       5081  
      4962       4963       4974       4973       5083       5084       5095       5094  
      4963       4964       4975       4974       5084       5085       5096       5095  
      4964       4965       4976       4975       5085       5086       5097       5096  
      4965       4966       4977       4976       5086       5087       5098       5097  
      4966       4967       4978       4977       5087       5088       5099       5098  
      4967       4968       4979       4978       5088       5089       5100       5099  
      4968       4969       4980       4979       5089       5090       5101       5100  
      4969       4970       4981       4980       5090       5091       5102       5101  
      4970       4971       4982       4981       5091       5092       5103       5102  
      4971       4972       4983       4982       5092       5093       5104       5103  
      4973       4974       4985       4984       5094       5095       5106       5105  
      4974       4975       4986       4985       5095       5096       5107       5106  
      4975       4976       4987       4986       5096       5097       5108       5107  
      4976       4977       4988       4987       5097       5098       5109       5108  
      4977       4978       4989       4988       5098       5099       5110       5109  
      4978       4979       4990       4989       5099       5100       5111       5110  
      4979       4980       4991       4990       5100       5101       5112       5111  
      4980       4981       4992       4991       5101       5102       5113       5112  
      4981       4982       4993       4992       5102       5103       5114       5113  
      4982       4983       4994       4993       5103       5104       5115       5114  
      4984       4985       4996       4995       5105       5106       5117       5116  
      4985       4986       4997       4996       5106       5107       5118       5117  
      4986       4987       4998       4997       5107       5108       5119       5118  
      4987       4988       4999       4998       5108       5109       5120       5119  
      4988       4989       5000       4999       5109       5110       5121       5120  
      4989       4990       5001       5000       5110       5111       5122       5121  
      4990       4991       5002       5001       5111       5112       5123       5122  
      4991       4992       5003       5002       5112       5113       5124       5123  
      4992       4993       5004       5003       5113       5114       5125       5124  
      4993       4994       5005       5004       5114       5115       5126       5125  
      4995       4996       5007       5006       5116       5117       5128       5127  
      4996       4997       5008       5007       5117       5118       5129       5128  
      4997       4998       5009       5008       5118       5119       5130       5129  
      4998       4999       5010       5009       5119       5120       5131       5130  
      4999       5000       5011       5010       5120       5121       5132       5131  
      5000       5001       5012       5011       5121       5122       5133       5132  
      5001       5002       5013       5012       5122       5123       5134       5133  
      5002       5003       5014       5013       5123       5124       5135       5134  
      5003       5004       5015       5014       5124       5125       5136       5135  
      5004       5005       5016       5015       5125       5126       5137       5136  
      5006       5007       5018       5017       5127       5128       5139       5138  
      5007       5008       5019       5018       5128       5129       5140       5139  
      5008       5009       5020       5019       5129       5130       5141       5140  
      5009       5010       5021       5020       5130       5131       5142       5141  
      5010       5011       5022       5021       5131       5132       5143       5142  
      5011       5012       5023       5022       5132       5133       5144       5143  
      5012       5013       5024       5023       5133       5134       5145       5144  
      5013       5014       5025       5024       5134       5135       5146       5145  
      5014       5015       5026       5025       5135       5136       5147       5146  
      5015       5016       5027       5026       5136       5137       5148       5147  
      5017       5018       5029       5028       5138       5139       5150       5149  
      5018       5019       5030       5029       5139       5140       5151       5150  
      5019       5020       5031       5030       5140       5141       5152       5151  
      5020       5021       5032       5031       5141       5142       5153       5152  
      5021       5022       5033       5032       5142       5143       5154       5153  
      5022       5023       5034       5033       5143       5144       5155       5154  
      5023       5024       5035       5034       5144       5145       5156       5155  
      5024       5025       5036       5035       5145       5146       5157       5156  
      5025       5026       5037       5036       5146       5147       5158       5157  
      5026       5027       5038       5037       5147       5148       5159       5158  
      5028       5029       5040       5039       5149       5150       5161       5160  
      5029       5030       5041       5040       5150       5151       5162       5161  
      5030       5031       5042       5041       5151       5152       5163       5162  
      5031       5032       5043       5042       5152       5153       5164       5163  
      5032       5033       5044       5043       5153       5154       5165       5164  
      5033       5034       5045       5044       5154       5155       5166       5165  
      5034       5035       5046       5045       5155       5156       5167       5166  
      5035       5036       5047       5046       5156       5157       5168       5167  
      5036       5037       5048       5047       5157       5158       5169       5168  
      5037       5038       5049       5048       5158       5159       5170       5169  
      5039       5040       5051       5050       5160       5161       5172       5171  
      5040       5041       5052       5051       5161       5162       5173       5172  
      5041       5042       5053       5052       5162       5163       5174       5173  
      5042       5043       5054       5053       5163       5164       5175       5174  
      5043       5044       5055       5054       5164       5165       5176       5175  
      5044       5045       5056       5055       5165       5166       5177       5176  
      5045       5046       5057       5056       5166       5167       5178       5177  
      5046       5047       5058       5057       5167       5168       5179       5178  
      5047       5048       5059       5058       5168       5169       5180       5179  
      5048       5049       5060       5059       5169       5170       5181       5180  
      5050       5051       5062       5061       5171       5172       5183       5182  
      5051       5052       5063       5062       5172       5173       5184       5183  
      5052       5053       5064       5063       5173       5174       5185       5184  
      5053       5054       5065       5064       5174       5175       5186       5185  
      5054       5055       5066       5065       5175       5176       5187       5186  
      5055       5056       5067       5066       5176       5177       5188       5187  
      5056       5057       5068       5067       5177       5178       5189       5188  
      5057       5058       5069       5068       5178       5179       5190       5189  
      5058       5059       5070       5069       5179       5180       5191       5190  
      5059       5060       5071       5070       5180       5181       5192       5191  
      5061       5062       5073       5072       5182       5183       5194       5193  
      5062       5063       5074       5073       5183       5184       5195       5194  
      5063       5064       5075       5074       5184       5185       5196       5195  
      5064       5065       5076       5075       5185       5186       5197       5196  
      5065       5066       5077       5076       5186       5187       5198       5197  
      5066       5067       5078       5077       5187       5188       5199       5198  
      5067       5068       5079       5078       5188       5189       5200       5199  
      5068       5069       5080       5079       5189       5190       5201       5200  
      5069       5070       5081       5080       5190       5191       5202       5201  
      5070       5071       5082       5081       5191       5192       5203       5202  
      5083       5084       5095       5094       5204       5205       5216       5215  
      5084       5085       5096       5095       5205       5206       5217       5216  
      5085       5086       5097       5096       5206       5207       5218       5217  
      5086       5087       5098       5097       5207       5208       5219       5218  
      5087       5088       5099       5098       5208       5209       5220       5219  
      5088       5089       5100       5099       5209       5210       5221       5220  
      5089       5090       5101       5100       5210       5211       5222       5221  
      5090       5091       5102       5101       5211       5212       5223       5222  
      5091       5092       5103       5102       5212       5213       5224       5223  
      5092       5093       5104       5103       5213       5214       5225       5224  
      5094       5095       5106       5105       5215       5216       5227       5226  
      5095       5096       5107       5106       5216       5217       5228       5227  
      5096       5097       5108       5107       5217       5218       5229       5228  
      5097       5098       5109       5108       5218       5219       5230       5229  
      5098       5099       5110       5109       5219       5220       5231       5230  
      5099       5100       5111       5110       5220       5221       5232       5231  
      5100       5101       5112       5111       5221       5222       5233       5232  
      5101       5102       5113       5112       5222       5223       5234       5233  
      5102       5103       5114       5113       5223       5224       5235       5234  
      5103       5104       5115       5114       5224       5225       5236       5235  
      5105       5106       5117       5116       5226       5227       5238       5237  
      5106       5107       5118       5117       5227       5228       5239       5238  
      5107       5108       5119       5118       5228       5229       5240       5239  
      5108       5109       5120       5119       5229       5230       5241       5240  
      5109       5110       5121       5120       5230       5231       5242       5241  
      5110       5111       5122       5121       5231       5232       5243       5242  
      5111       5112       5123       5122       5232       5233       5244       5243  
      5112       5113       5124       5123       5233       5234       5245       5244  
      5113       5114       5125       5124       5234       5235       5246       5245  
      5114       5115       5126       5125       5235       5236       5247       5246  
      5116       5117       5128       5127       5237       5238       5249       5248  
      5117       5118       5129       5128       5238       5239       5250       5249  
      5118       5119       5130       5129       5239       5240       5251       5250  
      5119       5120       5131       5130       5240       5241       5252       5251  
      5120       5121       5132       5131       5241       5242       5253       5252  
      5121       5122       5133       5132       5242       5243       5254       5253  
      5122       5123       5134       5133       5243       5244       5255       5254  
      5123       5124       5135       5134       5244       5245       5256       5255  
      5124       5125       5136       5135       5245       5246       5257       5256  
      5125       5126       5137       5136       5246       5247       5258       5257  
      5127       5128       5139       5138       5248       5249       5260       5259  
      5128       5129       5140       5139       5249       5250       5261       5260  
      5129       5130       5141       5140       5250       5251       5262       5261  
      5130       5131       5142       5141       5251       5252       5263       5262  
      5131       5132       5143       5142       5252       5253       5264       5263  
      5132       5133       5144       5143       5253       5254       5265       5264  
      5133       5134       5145       5144       5254       5255       5266       5265  
      5134       5135       5146       5145       5255       5256       5267       5266  
      5135       5136       5147       5146       5256       5257       5268       5267  
      5136       5137       5148       5147       5257       5258       5269       5268  
      5138       5139       5150       5149       5259       5260       5271       5270  
      5139       5140       5151       5150       5260       5261       5272       5271  
      5140       5141       5152       5151       5261       5262       5273       5272  
      5141       5142       5153       5152       5262       5263       5274       5273  
      5142       5143       5154       5153       5263       5264       5275       5274  
      5143       5144       5155       5154       5264       5265       5276       5275  
      5144       5145       5156       5155       5265       5266       5277       5276  
      5145       5146       5157       5156       5266       5267       5278       5277  
      5146       5147       5158       5157       5267       5268       5279       5278  
      5147       5148       5159       5158       5268       5269       5280       5279  
      5149       5150       5161       5160       5270       5271       5282       5281  
      5150       5151       5162       5161       5271       5272       5283       5282  
      5151       5152       5163       5162       5272       5273       5284       5283  
      5152       5153       5164       5163       5273       5274       5285       5284  
      5153       5154       5165       5164       5274       5275       5286       5285  
      5154       5155       5166       5165       5275       5276       5287       5286  
      5155       5156       5167       5166       5276       5277       5288       5287  
      5156       5157       5168       5167       5277       5278       5289       5288  
      5157       5158       5169       5168       5278       5279       5290       5289  
      5158       5159       5170       5169       5279       5280       5291       5290  
      5160       5161       5172       5171       5281       5282       5293       5292  
      5161       5162       5173       5172       5282       5283       5294       5293  
      5162       5163       5174       5173       5283       5284       5295       5294  
      5163       5164       5175       5174       5284       5285       5296       5295  
      5164       5165       5176       5175       5285       5286       5297       5296  
      5165       5166       5177       5176       5286       5287       5298       5297  
      5166       5167       5178       5177       5287       5288       5299       5298  
      5167       5168       5179       5178       5288       5289       5300       5299  
      5168       5169       5180       5179       5289       5290       5301       5300  
      5169       5170       5181       5180       5290       5291       5302       5301  
      5171       5172       5183       5182       5292       5293       5304       5303  
      5172       5173       5184       5183       5293       5294       5305       5304  
      5173       5174       5185       5184       5294       5295       5306       5305  
      5174       5175       5186       5185       5295       5296       5307       5306  
      5175       5176       5187       5186       5296       5297       5308       5307  
      5176       5177       5188       5187       5297       5298       5309       5308  
      5177       5178       5189       5188       5298       5299       5310       5309  
      5178       5179       5190       5189       5299       5300       5311       5310  
      5179       5180       5191       5190       5300       5301       5312       5311  
      5180       5181       5192       5191       5301       5302       5313       5312  
      5182       5183       5194       5193       5303       5304       5315       5314  
      5183       5184       5195       5194       5304       5305       5316       5315  
      5184       5185       5196       5195       5305       5306       5317       5316  
      5185       5186       5197       5196       5306       5307       5318       5317  
      5186       5187       5198       5197       5307       5308       5319       5318  
      5187       5188       5199       5198       5308       5309       5320       5319  
      5188       5189       5200       5199       5309       5310       5321       5320  
      5189       5190       5201       5200       5310       5311       5322       5321  
      5190       5191       5202       5201       5311       5312       5323       5322  
      5191       5192       5203       5202       5312       5313       5324       5323  
      5204       5205       5216       5215       5325       5326       5337       5336  
      5205       5206       5217       5216       5326       5327       5338       5337  
      5206       5207       5218       5217       5327       5328       5339       5338  
      5207       5208       5219       5218       5328       5329       5340       5339  
      5208       5209       5220       5219       5329       5330       5341       5340  
      5209       5210       5221       5220       5330       5331       5342       5341  
      5210       5211       5222       5221       5331       5332       5343       5342  
      5211       5212       5223       5222       5332       5333       5344       5343  
      5212       5213       5224       5223       5333       5334       5345       5344  
      5213       5214       5225       5224       5334       5335       5346       5345  
      5215       5216       5227       5226       5336       5337       5348       5347  
      5216       5217       5228       5227       5337       5338       5349       5348  
      5217       5218       5229       5228       5338       5339       5350       5349  
      5218       5219       5230       5229       5339       5340       5351       5350  
      5219       5220       5231       5230       5340       5341       5352       5351  
      5220       5221       5232       5231       5341       5342       5353       5352  
      5221       5222       5233       5232       5342       5343       5354       5353  
      5222       5223       5234       5233       5343       5344       5355       5354  
      5223       5224       5235       5234       5344       5345       5356       5355  
      5224       5225       5236       5235       5345       5346       5357       5356  
      5226       5227       5238       5237       5347       5348       5359       5358  
      5227       5228       5239       5238       5348       5349       5360       5359  
      5228       5229       5240       5239       5349       5350       5361       5360  
      5229       5230       5241       5240       5350       5351       5362       5361  
      5230       5231       5242       5241       5351       5352       5363       5362  
      5231       5232       5243       5242       5352       5353       5364       5363  
      5232       5233       5244       5243       5353       5354       5365       5364  
      5233       5234       5245       5244       5354       5355       5366       5365  
      5234       5235       5246       5245       5355       5356       5367       5366  
      5235       5236       5247       5246       5356       5357       5368       5367  
      5237       5238       5249       5248       5358       5359       5370       5369  
      5238       5239       5250       5249       5359       5360       5371       5370  
      5239       5240       5251       5250       5360       5361       5372       5371  
      5240       5241       5252       5251       5361       5362       5373       5372  
      5241       5242       5253       5252       5362       5363       5374       5373  
      5242       5243       5254       5253       5363       5364       5375       5374  
      5243       5244       5255       5254       5364       5365       5376       5375  
      5244       5245       5256       5255       5365       5366       5377       5376  
      5245       5246       5257       5256       5366       5367       5378       5377  
      5246       5247       5258       5257       5367       5368       5379       5378  
      5248       5249       5260       5259       5369       5370       5381       5380  
      5249       5250       5261       5260       5370       5371       5382       5381  
      5250       5251       5262       5261       5371       5372       5383       5382  
      5251       5252       5263       5262       5372       5373       5384       5383  
      5252       5253       5264       5263       5373       5374       5385       5384  
      5253       5254       5265       5264       5374       5375       5386       5385  
      5254       5255       5266       5265       5375       5376       5387       5386  
      5255       5256       5267       5266       5376       5377       5388       5387  
      5256       5257       5268       5267       5377       5378       5389       5388  
      5257       5258       5269       5268       5378       5379       5390       5389  
      5259       5260       5271       5270       5380       5381       5392       5391  
      5260       5261       5272       5271       5381       5382       5393       5392  
      5261       5262       5273       5272       5382       5383       5394       5393  
      5262       5263       5274       5273       5383       5384       5395       5394  
      5263       5264       5275       5274       5384       5385       5396       5395  
      5264       5265       5276       5275       5385       5386       5397       5396  
      5265       5266       5277       5276       5386       5387       5398       5397  
      5266       5267       5278       5277       5387       5388       5399       5398  
      5267       5268       5279       5278       5388       5389       5400       5399  
      5268       5269       5280       5279       5389       5390       5401       5400  
      5270       5271       5282       5281       5391       5392       5403       5402  
      5271       5272       5283       5282       5392       5393       5404       5403  
      5272       5273       5284       5283       5393       5394       5405       5404  
      5273       5274       5285       5284       5394       5395       5406       5405  
      5274       5275       5286       5285       5395       5396       5407       5406  
      5275       5276       5287       5286       5396       5397       5408       5407  
      5276       5277       5288       5287       5397       5398       5409       5408  
      5277       5278       5289       5288       5398       5399       5410       5409  
      5278       5279       5290       5289       5399       5400       5411       5410  
      5279       5280       5291       5290       5400       5401       5412       5411  
      5281       5282       5293       5292       5402       5403       5414       5413  
      5282       5283       5294       5293       5403       5404       5415       5414  
      5283       5284       5295       5294       5404       5405       5416       5415  
      5284       5285       5296       5295       5405       5406       5417       5416  
      5285       5286       5297       5296       5406       5407       5418       5417  
      5286       5287       5298       5297       5407       5408       5419       5418  
      5287       5288       5299       5298       5408       5409       5420       5419  
      5288       5289       5300       5299       5409       5410       5421       5420  
      5289       5290       5301       5300       5410       5411       5422       5421  
      5290       5291       5302       5301       5411       5412       5423       5422  
      5292       5293       5304       5303       5413       5414       5425       5424  
      5293       5294       5305       5304       5414       5415       5426       5425  
      5294       5295       5306       5305       5415       5416       5427       5426  
      5295       5296       5307       5306       5416       5417       5428       5427  
      5296       5297       5308       5307       5417       5418       5429       5428  
      5297       5298       5309       5308       5418       5419       5430       5429  
      5298       5299       5310       5309       5419       5420       5431       5430  
      5299       5300       5311       5310       5420       5421       5432       5431  
      5300       5301       5312       5311       5421       5422       5433       5432  
      5301       5302       5313       5312       5422       5423       5434       5433  
      5303       5304       5315       5314       5424       5425       5436       5435  
      5304       5305       5316       5315       5425       5426       5437       5436  
      5305       5306       5317       5316       5426       5427       5438       5437  
      5306       5307       5318       5317       5427       5428       5439       5438  
      5307       5308       5319       5318       5428       5429       5440       5439  
      5308       5309       5320       5319       5429       5430       5441       5440  
      5309       5310       5321       5320       5430       5431       5442       5441  
      5310       5311       5322       5321       5431       5432       5443       5442  
      5311       5312       5323       5322       5432       5433       5444       5443  
      5312       5313       5324       5323       5433       5434       5445       5444  
      5325       5326       5337       5336       5446       5447       5458       5457  
      5326       5327       5338       5337       5447       5448       5459       5458  
      5327       5328       5339       5338       5448       5449       5460       5459  
      5328       5329       5340       5339       5449       5450       5461       5460  
      5329       5330       5341       5340       5450       5451       5462       5461  
      5330       5331       5342       5341       5451       5452       5463       5462  
      5331       5332       5343       5342       5452       5453       5464       5463  
      5332       5333       5344       5343       5453       5454       5465       5464  
      5333       5334       5345       5344       5454       5455       5466       5465  
      5334       5335       5346       5345       5455       5456       5467       5466  
      5336       5337       5348       5347       5457       5458       5469       5468  
      5337       5338       5349       5348       5458       5459       5470       5469  
      5338       5339       5350       5349       5459       5460       5471       5470  
      5339       5340       5351       5350       5460       5461       5472       5471  
      5340       5341       5352       5351       5461       5462       5473       5472  
      5341       5342       5353       5352       5462       5463       5474       5473  
      5342       5343       5354       5353       5463       5464       5475       5474  
      5343       5344       5355       5354       5464       5465       5476       5475  
      5344       5345       5356       5355       5465       5466       5477       5476  
      5345       5346       5357       5356       5466       5467       5478       5477  
      5347       5348       5359       5358       5468       5469       5480       5479  
      5348       5349       5360       5359       5469       5470       5481       5480  
      5349       5350       5361       5360       5470       5471       5482       5481  
      5350       5351       5362       5361       5471       5472       5483       5482  
      5351       5352       5363       5362       5472       5473       5484       5483  
      5352       5353       5364       5363       5473       5474       5485       5484  
      5353       5354       5365       5364       5474       5475       5486       5485  
      5354       5355       5366       5365       5475       5476       5487       5486  
      5355       5356       5367       5366       5476       5477       5488       5487  
      5356       5357       5368       5367       5477       5478       5489       5488  
      5358       5359       5370       5369       5479       5480       5491       5490  
      5359       5360       5371       5370       5480       5481       5492       5491  
      5360       5361       5372       5371       5481       5482       5493       5492  
      5361       5362       5373       5372       5482       5483       5494       5493  
      5362       5363       5374       5373       5483       5484       5495       5494  
      5363       5364       5375       5374       5484       5485       5496       5495  
      5364       5365       5376       5375       5485       5486       5497       5496  
      5365       5366       5377       5376       5486       5487       5498       5497  
      5366       5367       5378       5377       5487       5488       5499       5498  
      5367       5368       5379       5378       5488       5489       5500       5499  
      5369       5370       5381       5380       5490       5491       5502       5501  
      5370       5371       5382       5381       5491       5492       5503       5502  
      5371       5372       5383       5382       5492       5493       5504       5503  
      5372       5373       5384       5383       5493       5494       5505       5504  
      5373       5374       5385       5384       5494       5495       5506       5505  
      5374       5375       5386       5385       5495       5496       5507       5506  
      5375       5376       5387       5386       5496       5497       5508       5507  
      5376       5377       5388       5387       5497       5498       5509       5508  
      5377       5378       5389       5388       5498       5499       5510       5509  
      5378       5379       5390       5389       5499       5500       5511       5510  
      5380       5381       5392       5391       5501       5502       5513       5512  
      5381       5382       5393       5392       5502       5503       5514       5513  
      5382       5383       5394       5393       5503       5504       5515       5514  
      5383       5384       5395       5394       5504       5505       5516       5515  
      5384       5385       5396       5395       5505       5506       5517       5516  
      5385       5386       5397       5396       5506       5507       5518       5517  
      5386       5387       5398       5397       5507       5508       5519       5518  
      5387       5388       5399       5398       5508       5509       5520       5519  
      5388       5389       5400       5399       5509       5510       5521       5520  
      5389       5390       5401       5400       5510       5511       5522       5521  
      5391       5392       5403       5402       5512       5513       5524       5523  
      5392       5393       5404       5403       5513       5514       5525       5524  
      5393       5394       5405       5404       5514       5515       5526       5525  
      5394       5395       5406       5405       5515       5516       5527       5526  
      5395       5396       5407       5406       5516       5517       5528       5527  
      5396       5397       5408       5407       5517       5518       5529       5528  
      5397       5398       5409       5408       5518       5519       5530       5529  
      5398       5399       5410       5409       5519       5520       5531       5530  
      5399       5400       5411       5410       5520       5521       5532       5531  
      5400       5401       5412       5411       5521       5522       5533       5532  
      5402       5403       5414       5413       5523       5524       5535       5534  
      5403       5404       5415       5414       5524       5525       5536       5535  
      5404       5405       5416       5415       5525       5526       5537       5536  
      5405       5406       5417       5416       5526       5527       5538       5537  
      5406       5407       5418       5417       5527       5528       5539       5538  
      5407       5408       5419       5418       5528       5529       5540       5539  
      5408       5409       5420       5419       5529       5530       5541       5540  
      5409       5410       5421       5420       5530       5531       5542       5541  
      5410       5411       5422       5421       5531       5532       5543       5542  
      5411       5412       5423       5422       5532       5533       5544       5543  
      5413       5414       5425       5424       5534       5535       5546       5545  
      5414       5415       5426       5425       5535       5536       5547       5546  
      5415       5416       5427       5426       5536       5537       5548       5547  
      5416       5417       5428       5427       5537       5538       5549       5548  
      5417       5418       5429       5428       5538       5539       5550       5549  
      5418       5419       5430       5429       5539       5540       5551       5550  
      5419       5420       5431       5430       5540       5541       5552       5551  
      5420       5421       5432       5431       5541       5542       5553       5552  
      5421       5422       5433       5432       5542       5543       5554       5553  
      5422       5423       5434       5433       5543       5544       5555       5554  
      5424       5425       5436       5435       5545       5546       5557       5556  
      5425       5426       5437       5436       5546       5547       5558       5557  
      5426       5427       5438       5437       5547       5548       5559       5558  
      5427       5428       5439       5438       5548       5549       5560       5559  
      5428       5429       5440       5439       5549       5550       5561       5560  
      5429       5430       5441       5440       5550       5551       5562       5561  
      5430       5431       5442       5441       5551       5552       5563       5562  
      5431       5432       5443       5442       5552       5553       5564       5563  
      5432       5433       5444       5443       5553       5554       5565       5564  
      5433       5434       5445       5444       5554       5555       5566       5565  
      5446       5447       5458       5457       5567       5568       5579       5578  
      5447       5448       5459       5458       5568       5569       5580       5579  
      5448       5449       5460       5459       5569       5570       5581       5580  
      5449       5450       5461       5460       5570       5571       5582       5581  
      5450       5451       5462       5461       5571       5572       5583       5582  
      5451       5452       5463       5462       5572       5573       5584       5583  
      5452       5453       5464       5463       5573       5574       5585       5584  
      5453       5454       5465       5464       5574       5575       5586       5585  
      5454       5455       5466       5465       5575       5576       5587       5586  
      5455       5456       5467       5466       5576       5577       5588       5587  
      5457       5458       5469       5468       5578       5579       5590       5589  
      5458       5459       5470       5469       5579       5580       5591       5590  
      5459       5460       5471       5470       5580       5581       5592       5591  
      5460       5461       5472       5471       5581       5582       5593       5592  
      5461       5462       5473       5472       5582       5583       5594       5593  
      5462       5463       5474       5473       5583       5584       5595       5594  
      5463       5464       5475       5474       5584       5585       5596       5595  
      5464       5465       5476       5475       5585       5586       5597       5596  
      5465       5466       5477       5476       5586       5587       5598       5597  
      5466       5467       5478       5477       5587       5588       5599       5598  
      5468       5469       5480       5479       5589       5590       5601       5600  
      5469       5470       5481       5480       5590       5591       5602       5601  
      5470       5471       5482       5481       5591       5592       5603       5602  
      5471       5472       5483       5482       5592       5593       5604       5603  
      5472       5473       5484       5483       5593       5594       5605       5604  
      5473       5474       5485       5484       5594       5595       5606       5605  
      5474       5475       5486       5485       5595       5596       5607       5606  
      5475       5476       5487       5486       5596       5597       5608       5607  
      5476       5477       5488       5487       5597       5598       5609       5608  
      5477       5478       5489       5488       5598       5599       5610       5609  
      5479       5480       5491       5490       5600       5601       5612       5611  
      5480       5481       5492       5491       5601       5602       5613       5612  
      5481       5482       5493       5492       5602       5603       5614       5613  
      5482       5483       5494       5493       5603       5604       5615       5614  
      5483       5484       5495       5494       5604       5605       5616       5615  
      5484       5485       5496       5495       5605       5606       5617       5616  
      5485       5486       5497       5496       5606       5607       5618       5617  
      5486       5487       5498       5497       5607       5608       5619       5618  
      5487       5488       5499       5498       5608       5609       5620       5619  
      5488       5489       5500       5499       5609       5610       5621       5620  
      5490       5491       5502       5501       5611       5612       5623       5622  
      5491       5492       5503       5502       5612       5613       5624       5623  
      5492       5493       5504       5503       5613       5614       5625       5624  
      5493       5494       5505       5504       5614       5615       5626       5625  
      5494       5495       5506       5505       5615       5616       5627       5626  
      5495       5496       5507       5506       5616       5617       5628       5627  
      5496       5497       5508       5507       5617       5618       5629       5628  
      5497       5498       5509       5508       5618       5619       5630       5629  
      5498       5499       5510       5509       5619       5620       5631       5630  
      5499       5500       5511       5510       5620       5621       5632       5631  
      5501       5502       5513       5512       5622       5623       5634       5633  
      5502       5503       5514       5513       5623       5624       5635       5634  
      5503       5504       5515       5514       5624       5625       5636       5635  
      5504       5505       5516       5515       5625       5626       5637       5636  
      5505       5506       5517       5516       5626       5627       5638       5637  
      5506       5507       5518       5517       5627       5628       5639       5638  
      5507       5508       5519       5518       5628       5629       5640       5639  
      5508       5509       5520       5519       5629       5630       5641       5640  
      5509       5510       5521       5520       5630       5631       5642       5641  
      5510       5511       5522       5521       5631       5632       5643       5642  
      5512       5513       5524       5523       5633       5634       5645       5644  
      5513       5514       5525       5524       5634       5635       5646       5645  
      5514       5515       5526       5525       5635       5636       5647       5646  
      5515       5516       5527       5526       5636       5637       5648       5647  
      5516       5517       5528       5527       5637       5638       5649       5648  
      5517       5518       5529       5528       5638       5639       5650       5649  
      5518       5519       5530       5529       5639       5640       5651       5650  
      5519       5520       5531       5530       5640       5641       5652       5651  
      5520       5521       5532       5531       5641       5642       5653       5652  
      5521       5522       5533       5532       5642       5643       5654       5653  
      5523       5524       5535       5534       5644       5645       5656       5655  
      5524       5525       5536       5535       5645       5646       5657       5656  
      5525       5526       5537       5536       5646       5647       5658       5657  
      5526       5527       5538       5537       5647       5648       5659       5658  
      5527       5528       5539       5538       5648       5649       5660       5659  
      5528       5529       5540       5539       5649       5650       5661       5660  
      5529       5530       5541       5540       5650       5651       5662       5661  
      5530       5531       5542       5541       5651       5652       5663       5662  
      5531       5532       5543       5542       5652       5653       5664       5663  
      5532       5533       5544       5543       5653       5654       5665       5664  
      5534       5535       5546       5545       5655       5656       5667       5666  
      5535       5536       5547       5546       5656       5657       5668       5667  
      5536       5537       5548       5547       5657       5658       5669       5668  
      5537       5538       5549       5548       5658       5659       5670       5669  
      5538       5539       5550       5549       5659       5660       5671       5670  
      5539       5540       5551       5550       5660       5661       5672       5671  
      5540       5541       5552       5551       5661       5662       5673       5672  
      5541       5542       5553       5552       5662       5663       5674       5673  
      5542       5543       5554       5553       5663       5664       5675       5674  
      5543       5544       5555       5554       5664       5665       5676       5675  
      5545       5546       5557       5556       5666       5667       5678       5677  
      5546       5547       5558       5557       5667       5668       5679       5678  
      5547       5548       5559       5558       5668       5669       5680       5679  
      5548       5549       5560       5559       5669       5670       5681       5680  
      5549       5550       5561       5560       5670       5671       5682       5681  
      5550       5551       5562       5561       5671       5672       5683       5682  
      5551       5552       5563       5562       5672       5673       5684       5683  
      5552       5553       5564       5563       5673       5674       5685       5684  
      5553       5554       5565       5564       5674       5675       5686       5685  
      5554       5555       5566       5565       5675       5676       5687       5686  
      5567       5568       5579       5578       5688       5689       5700       5699  
      5568       5569       5580       5579       5689       5690       5701       5700  
      5569       5570       5581       5580       5690       5691       5702       5701  
      5570       5571       5582       5581       5691       5692       5703       5702  
      5571       5572       5583       5582       5692       5693       5704       5703  
      5572       5573       5584       5583       5693       5694       5705       5704  
      5573       5574       5585       5584       5694       5695       5706       5705  
      5574       5575       5586       5585       5695       5696       5707       5706  
      5575       5576       5587       5586       5696       5697       5708       5707  
      5576       5577       5588       5587       5697       5698       5709       5708  
      5578       5579       5590       5589       5699       5700       5711       5710  
      5579       5580       5591       5590       5700       5701       5712       5711  
      5580       5581       5592       5591       5701       5702       5713       5712  
      5581       5582       5593       5592       5702       5703       5714       5713  
      5582       5583       5594       5593       5703       5704       5715       5714  
      5583       5584       5595       5594       5704       5705       5716       5715  
      5584       5585       5596       5595       5705       5706       5717       5716  
      5585       5586       5597       5596       5706       5707       5718       5717  
      5586       5587       5598       5597       5707       5708       5719       5718  
      5587       5588       5599       5598       5708       5709       5720       5719  
      5589       5590       5601       5600       5710       5711       5722       5721  
      5590       5591       5602       5601       5711       5712       5723       5722  
      5591       5592       5603       5602       5712       5713       5724       5723  
      5592       5593       5604       5603       5713       5714       5725       5724  
      5593       5594       5605       5604       5714       5715       5726       5725  
      5594       5595       5606       5605       5715       5716       5727       5726  
      5595       5596       5607       5606       5716       5717       5728       5727  
      5596       5597       5608       5607       5717       5718       5729       5728  
      5597       5598       5609       5608       5718       5719       5730       5729  
      5598       5599       5610       5609       5719       5720       5731       5730  
      5600       5601       5612       5611       5721       5722       5733       5732  
      5601       5602       5613       5612       5722       5723       5734       5733  
      5602       5603       5614       5613       5723       5724       5735       5734  
      5603       5604       5615       5614       5724       5725       5736       5735  
      5604       5605       5616       5615       5725       5726       5737       5736  
      5605       5606       5617       5616       5726       5727       5738       5737  
      5606       5607       5618       5617       5727       5728       5739       5738  
      5607       5608       5619       5618       5728       5729       5740       5739  
      5608       5609       5620       5619       5729       5730       5741       5740  
      5609       5610       5621       5620       5730       5731       5742       5741  
      5611       5612       5623       5622       5732       5733       5744       5743  
      5612       5613       5624       5623       5733       5734       5745       5744  
      5613       5614       5625       5624       5734       5735       5746       5745  
      5614       5615       5626       5625       5735       5736       5747       5746  
      5615       5616       5627       5626       5736       5737       5748       5747  
      5616       5617       5628       5627       5737       5738       5749       5748  
      5617       5618       5629       5628       5738       5739       5750       5749  
      5618       5619       5630       5629       5739       5740       5751       5750  
      5619       5620       5631       5630       5740       5741       5752       5751  
      5620       5621       5632       5631       5741       5742       5753       5752  
      5622       5623       5634       5633       5743       5744       5755       5754  
      5623       5624       5635       5634       5744       5745       5756       5755  
      5624       5625       5636       5635       5745       5746       5757       5756  
      5625       5626       5637       5636       5746       5747       5758       5757  
      5626       5627       5638       5637       5747       5748       5759       5758  
      5627       5628       5639       5638       5748       5749       5760       5759  
      5628       5629       5640       5639       5749       5750       5761       5760  
      5629       5630       5641       5640       5750       5751       5762       5761  
      5630       5631       5642       5641       5751       5752       5763       5762  
      5631       5632       5643       5642       5752       5753       5764       5763  
      5633       5634       5645       5644       5754       5755       5766       5765  
      5634       5635       5646       5645       5755       5756       5767       5766  
      5635       5636       5647       5646       5756       5757       5768       5767  
      5636       5637       5648       5647       5757       5758       5769       5768  
      5637       5638       5649       5648       5758       5759       5770       5769  
      5638       5639       5650       5649       5759       5760       5771       5770  
      5639       5640       5651       5650       5760       5761       5772       5771  
      5640       5641       5652       5651       5761       5762       5773       5772  
      5641       5642       5653       5652       5762       5763       5774       5773  
      5642       5643       5654       5653       5763       5764       5775       5774  
      5644       5645       5656       5655       5765       5766       5777       5776  
      5645       5646       5657       5656       5766       5767       5778       5777  
      5646       5647       5658       5657       5767       5768       5779       5778  
      5647       5648       5659       5658       5768       5769       5780       5779  
      5648       5649       5660       5659       5769       5770       5781       5780  
      5649       5650       5661       5660       5770       5771       5782       5781  
      5650       5651       5662       5661       5771       5772       5783       5782  
      5651       5652       5663       5662       5772       5773       5784       5783  
      5652       5653       5664       5663       5773       5774       5785       5784  
      5653       5654       5665       5664       5774       5775       5786       5785  
      5655       5656       5667       5666       5776       5777       5788       5787  
      5656       5657       5668       5667       5777       5778       5789       5788  
      5657       5658       5669       5668       5778       5779       5790       5789  
      5658       5659       5670       5669       5779       5780       5791       5790  
      5659       5660       5671       5670       5780       5781       5792       5791  
      5660       5661       5672       5671       5781       5782       5793       5792  
      5661       5662       5673       5672       5782       5783       5794       5793  
      5662       5663       5674       5673       5783       5784       5795       5794  
      5663       5664       5675       5674       5784       5785       5796       5795  
      5664       5665       5676       5675       5785       5786       5797       5796  
      5666       5667       5678       5677       5787       5788       5799       5798  
      5667       5668       5679       5678       5788       5789       5800       5799  
      5668       5669       5680       5679       5789       5790       5801       5800  
      5669       5670       5681       5680       5790       5791       5802       5801  
      5670       5671       5682       5681       5791       5792       5803       5802  
      5671       5672       5683       5682       5792       5793       5804       5803  
      5672       5673       5684       5683       5793       5794       5805       5804  
      5673       5674       5685       5684       5794       5795       5806       5805  
      5674       5675       5686       5685       5795       5796       5807       5806  
      5675       5676       5687       5686       5796       5797       5808       5807  
      5688       5689       5700       5699       5809       5810       5821       5820  
      5689       5690       5701       5700       5810       5811       5822       5821  
      5690       5691       5702       5701       5811       5812       5823       5822  
      5691       5692       5703       5702       5812       5813       5824       5823  
      5692       5693       5704       5703       5813       5814       5825       5824  
      5693       5694       5705       5704       5814       5815       5826       5825  
      5694       5695       5706       5705       5815       5816       5827       5826  
      5695       5696       5707       5706       5816       5817       5828       5827  
      5696       5697       5708       5707       5817       5818       5829       5828  
      5697       5698       5709       5708       5818       5819       5830       5829  
      5699       5700       5711       5710       5820       5821       5832       5831  
      5700       5701       5712       5711       5821       5822       5833       5832  
      5701       5702       5713       5712       5822       5823       5834       5833  
      5702       5703       5714       5713       5823       5824       5835       5834  
      5703       5704       5715       5714       5824       5825       5836       5835  
      5704       5705       5716       5715       5825       5826       5837       5836  
      5705       5706       5717       5716       5826       5827       5838       5837  
      5706       5707       5718       5717       5827       5828       5839       5838  
      5707       5708       5719       5718       5828       5829       5840       5839  
      5708       5709       5720       5719       5829       5830       5841       5840  
      5710       5711       5722       5721       5831       5832       5843       5842  
      5711       5712       5723       5722       5832       5833       5844       5843  
      5712       5713       5724       5723       5833       5834       5845       5844  
      5713       5714       5725       5724       5834       5835       5846       5845  
      5714       5715       5726       5725       5835       5836       5847       5846  
      5715       5716       5727       5726       5836       5837       5848       5847  
      5716       5717       5728       5727       5837       5838       5849       5848  
      5717       5718       5729       5728       5838       5839       5850       5849  
      5718       5719       5730       5729       5839       5840       5851       5850  
      5719       5720       5731       5730       5840       5841       5852       5851  
      5721       5722       5733       5732       5842       5843       5854       5853  
      5722       5723       5734       5733       5843       5844       5855       5854  
      5723       5724       5735       5734       5844       5845       5856       5855  
      5724       5725       5736       5735       5845       5846       5857       5856  
      5725       5726       5737       5736       5846       5847       5858       5857  
      5726       5727       5738       5737       5847       5848       5859       5858  
      5727       5728       5739       5738       5848       5849       5860       5859  
      5728       5729       5740       5739       5849       5850       5861       5860  
      5729       5730       5741       5740       5850       5851       5862       5861  
      5730       5731       5742       5741       5851       5852       5863       5862  
      5732       5733       5744       5743       5853       5854       5865       5864  
      5733       5734       5745       5744       5854       5855       5866       5865  
      5734       5735       5746       5745       5855       5856       5867       5866  
      5735       5736       5747       5746       5856       5857       5868       5867  
      5736       5737       5748       5747       5857       5858       5869       5868  
      5737       5738       5749       5748       5858       5859       5870       5869  
      5738       5739       5750       5749       5859       5860       5871       5870  
      5739       5740       5751       5750       5860       5861       5872       5871  
      5740       5741       5752       5751       5861       5862       5873       5872  
      5741       5742       5753       5752       5862       5863       5874       5873  
      5743       5744       5755       5754       5864       5865       5876       5875  
      5744       5745       5756       5755       5865       5866       5877       5876  
      5745       5746       5757       5756       5866       5867       5878       5877  
      5746       5747       5758       5757       5867       5868       5879       5878  
      5747       5748       5759       5758       5868       5869       5880       5879  
      5748       5749       5760       5759       5869       5870       5881       5880  
      5749       5750       5761       5760       5870       5871       5882       5881  
      5750       5751       5762       5761       5871       5872       5883       5882  
      5751       5752       5763       5762       5872       5873       5884       5883  
      5752       5753       5764       5763       5873       5874       5885       5884  
      5754       5755       5766       5765       5875       5876       5887       5886  
      5755       5756       5767       5766       5876       5877       5888       5887  
      5756       5757       5768       5767       5877       5878       5889       5888  
      5757       5758       5769       5768       5878       5879       5890       5889  
      5758       5759       5770       5769       5879       5880       5891       5890  
      5759       5760       5771       5770       5880       5881       5892       5891  
      5760       5761       5772       5771       5881       5882       5893       5892  
      5761       5762       5773       5772       5882       5883       5894       5893  
      5762       5763       5774       5773       5883       5884       5895       5894  
      5763       5764       5775       5774       5884       5885       5896       5895  
      5765       5766       5777       5776       5886       5887       5898       5897  
      5766       5767       5778       5777       5887       5888       5899       5898  
      5767       5768       5779       5778       5888       5889       5900       5899  
      5768       5769       5780       5779       5889       5890       5901       5900  
      5769       5770       5781       5780       5890       5891       5902       5901  
      5770       5771       5782       5781       5891       5892       5903       5902  
      5771       5772       5783       5782       5892       5893       5904       5903  
      5772       5773       5784       5783       5893       5894       5905       5904  
      5773       5774       5785       5784       5894       5895       5906       5905  
      5774       5775       5786       5785       5895       5896       5907       5906  
      5776       5777       5788       5787       5897       5898       5909       5908  
      5777       5778       5789       5788       5898       5899       5910       5909  
      5778       5779       5790       5789       5899       5900       5911       5910  
      5779       5780       5791       5790       5900       5901       5912       5911  
      5780       5781       5792       5791       5901       5902       5913       5912  
      5781       5782       5793       5792       5902       5903       5914       5913  
      5782       5783       5794       5793       5903       5904       5915       5914  
      5783       5784       5795       5794       5904       5905       5916       5915  
      5784       5785       5796       5795       5905       5906       5917       5916  
      5785       5786       5797       5796       5906       5907       5918       5917  
      5787       5788       5799       5798       5908       5909       5920       5919  
      5788       5789       5800       5799       5909       5910       5921       5920  
      5789       5790       5801       5800       5910       5911       5922       5921  
      5790       5791       5802       5801       5911       5912       5923       5922  
      5791       5792       5803       5802       5912       5913       5924       5923  
      5792       5793       5804       5803       5913       5914       5925       5924  
      5793       5794       5805       5804       5914       5915       5926       5925  
      5794       5795       5806       5805       5915       5916       5927       5926  
      5795       5796       5807       5806       5916       5917       5928       5927  
      5796       5797       5808       5807       5917       5918       5929       5928  
      5809       5810       5821       5820       5930       5931       5942       5941  
      5810       5811       5822       5821       5931       5932       5943       5942  
      5811       5812       5823       5822       5932       5933       5944       5943  
      5812       5813       5824       5823       5933       5934       5945       5944  
      5813       5814       5825       5824       5934       5935       5946       5945  
      5814       5815       5826       5825       5935       5936       5947       5946  
      5815       5816       5827       5826       5936       5937       5948       5947  
      5816       5817       5828       5827       5937       5938       5949       5948  
      5817       5818       5829       5828       5938       5939       5950       5949  
      5818       5819       5830       5829       5939       5940       5951       5950  
      5820       5821       5832       5831       5941       5942       5953       5952  
      5821       5822       5833       5832       5942       5943       5954       5953  
      5822       5823       5834       5833       5943       5944       5955       5954  
      5823       5824       5835       5834       5944       5945       5956       5955  
      5824       5825       5836       5835       5945       5946       5957       5956  
      5825       5826       5837       5836       5946       5947       5958       5957  
      5826       5827       5838       5837       5947       5948       5959       5958  
      5827       5828       5839       5838       5948       5949       5960       5959  
      5828       5829       5840       5839       5949       5950       5961       5960  
      5829       5830       5841       5840       5950       5951       5962       5961  
      5831       5832       5843       5842       5952       5953       5964       5963  
      5832       5833       5844       5843       5953       5954       5965       5964  
      5833       5834       5845       5844       5954       5955       5966       5965  
      5834       5835       5846       5845       5955       5956       5967       5966  
      5835       5836       5847       5846       5956       5957       5968       5967  
      5836       5837       5848       5847       5957       5958       5969       5968  
      5837       5838       5849       5848       5958       5959       5970       5969  
      5838       5839       5850       5849       5959       5960       5971       5970  
      5839       5840       5851       5850       5960       5961       5972       5971  
      5840       5841       5852       5851       5961       5962       5973       5972  
      5842       5843       5854       5853       5963       5964       5975       5974  
      5843       5844       5855       5854       5964       5965       5976       5975  
      5844       5845       5856       5855       5965       5966       5977       5976  
      5845       5846       5857       5856       5966       5967       5978       5977  
      5846       5847       5858       5857       5967       5968       5979       5978  
      5847       5848       5859       5858       5968       5969       5980       5979  
      5848       5849       5860       5859       5969       5970       5981       5980  
      5849       5850       5861       5860       5970       5971       5982       5981  
      5850       5851       5862       5861       5971       5972       5983       5982  
      5851       5852       5863       5862       5972       5973       5984       5983  
      5853       5854       5865       5864       5974       5975       5986       5985  
      5854       5855       5866       5865       5975       5976       5987       5986  
      5855       5856       5867       5866       5976       5977       5988       5987  
      5856       5857       5868       5867       5977       5978       5989       5988  
      5857       5858       5869       5868       5978       5979       5990       5989  
      5858       5859       5870       5869       5979       5980       5991       5990  
      5859       5860       5871       5870       5980       5981       5992       5991  
      5860       5861       5872       5871       5981       5982       5993       5992  
      5861       5862       5873       5872       5982       5983       5994       5993  
      5862       5863       5874       5873       5983       5984       5995       5994  
      5864       5865       5876       5875       5985       5986       5997       5996  
      5865       5866       5877       5876       5986       5987       5998       5997  
      5866       5867       5878       5877       5987       5988       5999       5998  
      5867       5868       5879       5878       5988       5989       6000       5999  
      5868       5869       5880       5879       5989       5990       6001       6000  
      5869       5870       5881       5880       5990       5991       6002       6001  
      5870       5871       5882       5881       5991       5992       6003       6002  
      5871       5872       5883       5882       5992       5993       6004       6003  
      5872       5873       5884       5883       5993       5994       6005       6004  
      5873       5874       5885       5884       5994       5995       6006       6005  
      5875       5876       5887       5886       5996       5997       6008       6007  
      5876       5877       5888       5887       5997       5998       6009       6008  
      5877       5878       5889       5888       5998       5999       6010       6009  
      5878       5879       5890       5889       5999       6000       6011       6010  
      5879       5880       5891       5890       6000       6001       6012       6011  
      5880       5881       5892       5891       6001       6002       6013       6012  
      5881       5882       5893       5892       6002       6003       6014       6013  
      5882       5883       5894       5893       6003       6004       6015       6014  
      5883       5884       5895       5894       6004       6005       6016       6015  
      5884       5885       5896       5895       6005       6006       6017       6016  
      5886       5887       5898       5897       6007       6008       6019       6018  
      5887       5888       5899       5898       6008       6009       6020       6019  
      5888       5889       5900       5899       6009       6010       6021       6020  
      5889       5890       5901       5900       6010       6011       6022       6021  
      5890       5891       5902       5901       6011       6012       6023       6022  
      5891       5892       5903       5902       6012       6013       6024       6023  
      5892       5893       5904       5903       6013       6014       6025       6024  
      5893       5894       5905       5904       6014       6015       6026       6025  
      5894       5895       5906       5905       6015       6016       6027       6026  
      5895       5896       5907       5906       6016       6017       6028       6027  
      5897       5898       5909       5908       6018       6019       6030       6029  
      5898       5899       5910       5909       6019       6020       6031       6030  
      5899       5900       5911       5910       6020       6021       6032       6031  
      5900       5901       5912       5911       6021       6022       6033       6032  
      5901       5902       5913       5912       6022       6023       6034       6033  
      5902       5903       5914       5913       6023       6024       6035       6034  
      5903       5904       5915       5914       6024       6025       6036       6035  
      5904       5905       5916       5915       6025       6026       6037       6036  
      5905       5906       5917       5916       6026       6027       6038       6037  
      5906       5907       5918       5917       6027       6028       6039       6038  
      5908       5909       5920       5919       6029       6030       6041       6040  
      5909       5910       5921       5920       6030       6031       6042       6041  
      5910       5911       5922       5921       6031       6032       6043       6042  
      5911       5912       5923       5922       6032       6033       6044       6043  
      5912       5913       5924       5923       6033       6034       6045       6044  
      5913       5914       5925       5924       6034       6035       6046       6045  
      5914       5915       5926       5925       6035       6036       6047       6046  
      5915       5916       5927       5926       6036       6037       6048       6047  
      5916       5917       5928       5927       6037       6038       6049       6048  
      5917       5918       5929       5928       6038       6039       6050       6049  
      5930       5931       5942       5941       6051       6052       6063       6062  
      5931       5932       5943       5942       6052       6053       6064       6063  
      5932       5933       5944       5943       6053       6054       6065       6064  
      5933       5934       5945       5944       6054       6055       6066       6065  
      5934       5935       5946       5945       6055       6056       6067       6066  
      5935       5936       5947       5946       6056       6057       6068       6067  
      5936       5937       5948       5947       6057       6058       6069       6068  
      5937       5938       5949       5948       6058       6059       6070       6069  
      5938       5939       5950       5949       6059       6060       6071       6070  
      5939       5940       5951       5950       6060       6061       6072       6071  
      5941       5942       5953       5952       6062       6063       6074       6073  
      5942       5943       5954       5953       6063       6064       6075       6074  
      5943       5944       5955       5954       6064       6065       6076       6075  
      5944       5945       5956       5955       6065       6066       6077       6076  
      5945       5946       5957       5956       6066       6067       6078       6077  
      5946       5947       5958       5957       6067       6068       6079       6078  
      5947       5948       5959       5958       6068       6069       6080       6079  
      5948       5949       5960       5959       6069       6070       6081       6080  
      5949       5950       5961       5960       6070       6071       6082       6081  
      5950       5951       5962       5961       6071       6072       6083       6082  
      5952       5953       5964       5963       6073       6074       6085       6084  
      5953       5954       5965       5964       6074       6075       6086       6085  
      5954       5955       5966       5965       6075       6076       6087       6086  
      5955       5956       5967       5966       6076       6077       6088       6087  
      5956       5957       5968       5967       6077       6078       6089       6088  
      5957       5958       5969       5968       6078       6079       6090       6089  
      5958       5959       5970       5969       6079       6080       6091       6090  
      5959       5960       5971       5970       6080       6081       6092       6091  
      5960       5961       5972       5971       6081       6082       6093       6092  
      5961       5962       5973       5972       6082       6083       6094       6093  
      5963       5964       5975       5974       6084       6085       6096       6095  
      5964       5965       5976       5975       6085       6086       6097       6096  
      5965       5966       5977       5976       6086       6087       6098       6097  
      5966       5967       5978       5977       6087       6088       6099       6098  
      5967       5968       5979       5978       6088       6089       6100       6099  
      5968       5969       5980       5979       6089       6090       6101       6100  
      5969       5970       5981       5980       6090       6091       6102       6101  
      5970       5971       5982       5981       6091       6092       6103       6102  
      5971       5972       5983       5982       6092       6093       6104       6103  
      5972       5973       5984       5983       6093       6094       6105       6104  
      5974       5975       5986       5985       6095       6096       6107       6106  
      5975       5976       5987       5986       6096       6097       6108       6107  
      5976       5977       5988       5987       6097       6098       6109       6108  
      5977       5978       5989       5988       6098       6099       6110       6109  
      5978       5979       5990       5989       6099       6100       6111       6110  
      5979       5980       5991       5990       6100       6101       6112       6111  
      5980       5981       5992       5991       6101       6102       6113       6112  
      5981       5982       5993       5992       6102       6103       6114       6113  
      5982       5983       5994       5993       6103       6104       6115       6114  
      5983       5984       5995       5994       6104       6105       6116       6115  
      5985       5986       5997       5996       6106       6107       6118       6117  
      5986       5987       5998       5997       6107       6108       6119       6118  
      5987       5988       5999       5998       6108       6109       6120       6119  
      5988       5989       6000       5999       6109       6110       6121       6120  
      5989       5990       6001       6000       6110       6111       6122       6121  
      5990       5991       6002       6001       6111       6112       6123       6122  
      5991       5992       6003       6002       6112       6113       6124       6123  
      5992       5993       6004       6003       6113       6114       6125       6124  
      5993       5994       6005       6004       6114       6115       6126       6125  
      5994       5995       6006       6005       6115       6116       6127       6126  
      5996       5997       6008       6007       6117       6118       6129       6128  
      5997       5998       6009       6008       6118       6119       6130       6129  
      5998       5999       6010       6009       6119       6120       6131       6130  
      5999       6000       6011       6010       6120       6121       6132       6131  
      6000       6001       6012       6011       6121       6122       6133       6132  
      6001       6002       6013       6012       6122       6123       6134       6133  
      6002       6003       6014       6013       6123       6124       6135       6134  
      6003       6004       6015       6014       6124       6125       6136       6135  
      6004       6005       6016       6015       6125       6126       6137       6136  
      6005       6006       6017       6016       6126       6127       6138       6137  
      6007       6008       6019       6018       6128       6129       6140       6139  
      6008       6009       6020       6019       6129       6130       6141       6140  
      6009       6010       6021       6020       6130       6131       6142       6141  
      6010       6011       6022       6021       6131       6132       6143       6142  
      6011       6012       6023       6022       6132       6133       6144       6143  
      6012       6013       6024       6023       6133       6134       6145       6144  
      6013       6014       6025       6024       6134       6135       6146       6145  
      6014       6015       6026       6025       6135       6136       6147       6146  
      6015       6016       6027       6026       6136       6137       6148       6147  
      6016       6017       6028       6027       6137       6138       6149       6148  
      6018       6019       6030       6029       6139       6140       6151       6150  
      6019       6020       6031       6030       6140       6141       6152       6151  
      6020       6021       6032       6031       6141       6142       6153       6152  
      6021       6022       6033       6032       6142       6143       6154       6153  
      6022       6023       6034       6033       6143       6144       6155       6154  
      6023       6024       6035       6034       6144       6145       6156       6155  
      6024       6025       6036       6035       6145       6146       6157       6156  
      6025       6026       6037       6036       6146       6147       6158       6157  
      6026       6027       6038       6037       6147       6148       6159       6158  
      6027       6028       6039       6038       6148       6149       6160       6159  
      6029       6030       6041       6040       6150       6151       6162       6161  
      6030       6031       6042       6041       6151       6152       6163       6162  
      6031       6032       6043       6042       6152       6153       6164       6163  
      6032       6033       6044       6043       6153       6154       6165       6164  
      6033       6034       6045       6044       6154       6155       6166       6165  
      6034       6035       6046       6045       6155       6156       6167       6166  
      6035       6036       6047       6046       6156       6157       6168       6167  
      6036       6037       6048       6047       6157       6158       6169       6168  
      6037       6038       6049       6048       6158       6159       6170       6169  
      6038       6039       6050       6049       6159       6160       6171       6170  
      6051       6052       6063       6062       6172       6173       6184       6183  
      6052       6053       6064       6063       6173       6174       6185       6184  
      6053       6054       6065       6064       6174       6175       6186       6185  
      6054       6055       6066       6065       6175       6176       6187       6186  
      6055       6056       6067       6066       6176       6177       6188       6187  
      6056       6057       6068       6067       6177       6178       6189       6188  
      6057       6058       6069       6068       6178       6179       6190       6189  
      6058       6059       6070       6069       6179       6180       6191       6190  
      6059       6060       6071       6070       6180       6181       6192       6191  
      6060       6061       6072       6071       6181       6182       6193       6192  
      6062       6063       6074       6073       6183       6184       6195       6194  
      6063       6064       6075       6074       6184       6185       6196       6195  
      6064       6065       6076       6075       6185       6186       6197       6196  
      6065       6066       6077       6076       6186       6187       6198       6197  
      6066       6067       6078       6077       6187       6188       6199       6198  
      6067       6068       6079       6078       6188       6189       6200       6199  
      6068       6069       6080       6079       6189       6190       6201       6200  
      6069       6070       6081       6080       6190       6191       6202       6201  
      6070       6071       6082       6081       6191       6192       6203       6202  
      6071       6072       6083       6082       6192       6193       6204       6203  
      6073       6074       6085       6084       6194       6195       6206       6205  
      6074       6075       6086       6085       6195       6196       6207       6206  
      6075       6076       6087       6086       6196       6197       6208       6207  
      6076       6077       6088       6087       6197       6198       6209       6208  
      6077       6078       6089       6088       6198       6199       6210       6209  
      6078       6079       6090       6089       6199       6200       6211       6210  
      6079       6080       6091       6090       6200       6201       6212       6211  
      6080       6081       6092       6091       6201       6202       6213       6212  
      6081       6082       6093       6092       6202       6203       6214       6213  
      6082       6083       6094       6093       6203       6204       6215       6214  
      6084       6085       6096       6095       6205       6206       6217       6216  
      6085       6086       6097       6096       6206       6207       6218       6217  
      6086       6087       6098       6097       6207       6208       6219       6218  
      6087       6088       6099       6098       6208       6209       6220       6219  
      6088       6089       6100       6099       6209       6210       6221       6220  
      6089       6090       6101       6100       6210       6211       6222       6221  
      6090       6091       6102       6101       6211       6212       6223       6222  
      6091       6092       6103       6102       6212       6213       6224       6223  
      6092       6093       6104       6103       6213       6214       6225       6224  
      6093       6094       6105       6104       6214       6215       6226       6225  
      6095       6096       6107       6106       6216       6217       6228       6227  
      6096       6097       6108       6107       6217       6218       6229       6228  
      6097       6098       6109       6108       6218       6219       6230       6229  
      6098       6099       6110       6109       6219       6220       6231       6230  
      6099       6100       6111       6110       6220       6221       6232       6231  
      6100       6101       6112       6111       6221       6222       6233       6232  
      6101       6102       6113       6112       6222       6223       6234       6233  
      6102       6103       6114       6113       6223       6224       6235       6234  
      6103       6104       6115       6114       6224       6225       6236       6235  
      6104       6105       6116       6115       6225       6226       6237       6236  
      6106       6107       6118       6117       6227       6228       6239       6238  
      6107       6108       6119       6118       6228       6229       6240       6239  
      6108       6109       6120       6119       6229       6230       6241       6240  
      6109       6110       6121       6120       6230       6231       6242       6241  
      6110       6111       6122       6121       6231       6232       6243       6242  
      6111       6112       6123       6122       6232       6233       6244       6243  
      6112       6113       6124       6123       6233       6234       6245       6244  
      6113       6114       6125       6124       6234       6235       6246       6245  
      6114       6115       6126       6125       6235       6236       6247       6246  
      6115       6116       6127       6126       6236       6237       6248       6247  
      6117       6118       6129       6128       6238       6239       6250       6249  
      6118       6119       6130       6129       6239       6240       6251       6250  
      6119       6120       6131       6130       6240       6241       6252       6251  
      6120       6121       6132       6131       6241       6242       6253       6252  
      6121       6122       6133       6132       6242       6243       6254       6253  
      6122       6123       6134       6133       6243       6244       6255       6254  
      6123       6124       6135       6134       6244       6245       6256       6255  
      6124       6125       6136       6135       6245       6246       6257       6256  
      6125       6126       6137       6136       6246       6247       6258       6257  
      6126       6127       6138       6137       6247       6248       6259       6258  
      6128       6129       6140       6139       6249       6250       6261       6260  
      6129       6130       6141       6140       6250       6251       6262       6261  
      6130       6131       6142       6141       6251       6252       6263       6262  
      6131       6132       6143       6142       6252       6253       6264       6263  
      6132       6133       6144       6143       6253       6254       6265       6264  
      6133       6134       6145       6144       6254       6255       6266       6265  
      6134       6135       6146       6145       6255       6256       6267       6266  
      6135       6136       6147       6146       6256       6257       6268       6267  
      6136       6137       6148       6147       6257       6258       6269       6268  
      6137       6138       6149       6148       6258       6259       6270       6269  
      6139       6140       6151       6150       6260       6261       6272       6271  
      6140       6141       6152       6151       6261       6262       6273       6272  
      6141       6142       6153       6152       6262       6263       6274       6273  
      6142       6143       6154       6153       6263       6264       6275       6274  
      6143       6144       6155       6154       6264       6265       6276       6275  
      6144       6145       6156       6155       6265       6266       6277       6276  
      6145       6146       6157       6156       6266       6267       6278       6277  
      6146       6147       6158       6157       6267       6268       6279       6278  
      6147       6148       6159       6158       6268       6269       6280       6279  
      6148       6149       6160       6159       6269       6270       6281       6280  
      6150       6151       6162       6161       6271       6272       6283       6282  
      6151       6152       6163       6162       6272       6273       6284       6283  
      6152       6153       6164       6163       6273       6274       6285       6284  
      6153       6154       6165       6164       6274       6275       6286       6285  
      6154       6155       6166       6165       6275       6276       6287       6286  
      6155       6156       6167       6166       6276       6277       6288       6287  
      6156       6157       6168       6167       6277       6278       6289       6288  
      6157       6158       6169       6168       6278       6279       6290       6289  
      6158       6159       6170       6169       6279       6280       6291       6290  
      6159       6160       6171       6170       6280       6281       6292       6291  
      6172       6173       6184       6183       6293       6294       6305       6304  
      6173       6174       6185       6184       6294       6295       6306       6305  
      6174       6175       6186       6185       6295       6296       6307       6306  
      6175       6176       6187       6186       6296       6297       6308       6307  
      6176       6177       6188       6187       6297       6298       6309       6308  
      6177       6178       6189       6188       6298       6299       6310       6309  
      6178       6179       6190       6189       6299       6300       6311       6310  
      6179       6180       6191       6190       6300       6301       6312       6311  
      6180       6181       6192       6191       6301       6302       6313       6312  
      6181       6182       6193       6192       6302       6303       6314       6313  
      6183       6184       6195       6194       6304       6305       6316       6315  
      6184       6185       6196       6195       6305       6306       6317       6316  
      6185       6186       6197       6196       6306       6307       6318       6317  
      6186       6187       6198       6197       6307       6308       6319       6318  
      6187       6188       6199       6198       6308       6309       6320       6319  
      6188       6189       6200       6199       6309       6310       6321       6320  
      6189       6190       6201       6200       6310       6311       6322       6321  
      6190       6191       6202       6201       6311       6312       6323       6322  
      6191       6192       6203       6202       6312       6313       6324       6323  
      6192       6193       6204       6203       6313       6314       6325       6324  
      6194       6195       6206       6205       6315       6316       6327       6326  
      6195       6196       6207       6206       6316       6317       6328       6327  
      6196       6197       6208       6207       6317       6318       6329       6328  
      6197       6198       6209       6208       6318       6319       6330       6329  
      6198       6199       6210       6209       6319       6320       6331       6330  
      6199       6200       6211       6210       6320       6321       6332       6331  
      6200       6201       6212       6211       6321       6322       6333       6332  
      6201       6202       6213       6212       6322       6323       6334       6333  
      6202       6203       6214       6213       6323       6324       6335       6334  
      6203       6204       6215       6214       6324       6325       6336       6335  
      6205       6206       6217       6216       6326       6327       6338       6337  
      6206       6207       6218       6217       6327       6328       6339       6338  
      6207       6208       6219       6218       6328       6329       6340       6339  
      6208       6209       6220       6219       6329       6330       6341       6340  
      6209       6210       6221       6220       6330       6331       6342       6341  
      6210       6211       6222       6221       6331       6332       6343       6342  
      6211       6212       6223       6222       6332       6333       6344       6343  
      6212       6213       6224       6223       6333       6334       6345       6344  
      6213       6214       6225       6224       6334       6335       6346       6345  
      6214       6215       6226       6225       6335       6336       6347       6346  
      6216       6217       6228       6227       6337       6338       6349       6348  
      6217       6218       6229       6228       6338       6339       6350       6349  
      6218       6219       6230       6229       6339       6340       6351       6350  
      6219       6220       6231       6230       6340       6341       6352       6351  
      6220       6221       6232       6231       6341       6342       6353       6352  
      6221       6222       6233       6232       6342       6343       6354       6353  
      6222       6223       6234       6233       6343       6344       6355       6354  
      6223       6224       6235       6234       6344       6345       6356       6355  
      6224       6225       6236       6235       6345       6346       6357       6356  
      6225       6226       6237       6236       6346       6347       6358       6357  
      6227       6228       6239       6238       6348       6349       6360       6359  
      6228       6229       6240       6239       6349       6350       6361       6360  
      6229       6230       6241       6240       6350       6351       6362       6361  
      6230       6231       6242       6241       6351       6352       6363       6362  
      6231       6232       6243       6242       6352       6353       6364       6363  
      6232       6233       6244       6243       6353       6354       6365       6364  
      6233       6234       6245       6244       6354       6355       6366       6365  
      6234       6235       6246       6245       6355       6356       6367       6366  
      6235       6236       6247       6246       6356       6357       6368       6367  
      6236       6237       6248       6247       6357       6358       6369       6368  
      6238       6239       6250       6249       6359       6360       6371       6370  
      6239       6240       6251       6250       6360       6361       6372       6371  
      6240       6241       6252       6251       6361       6362       6373       6372  
      6241       6242       6253       6252       6362       6363       6374       6373  
      6242       6243       6254       6253       6363       6364       6375       6374  
      6243       6244       6255       6254       6364       6365       6376       6375  
      6244       6245       6256       6255       6365       6366       6377       6376  
      6245       6246       6257       6256       6366       6367       6378       6377  
      6246       6247       6258       6257       6367       6368       6379       6378  
      6247       6248       6259       6258       6368       6369       6380       6379  
      6249       6250       6261       6260       6370       6371       6382       6381  
      6250       6251       6262       6261       6371       6372       6383       6382  
      6251       6252       6263       6262       6372       6373       6384       6383  
      6252       6253       6264       6263       6373       6374       6385       6384  
      6253       6254       6265       6264       6374       6375       6386       6385  
      6254       6255       6266       6265       6375       6376       6387       6386  
      6255       6256       6267       6266       6376       6377       6388       6387  
      6256       6257       6268       6267       6377       6378       6389       6388  
      6257       6258       6269       6268       6378       6379       6390       6389  
      6258       6259       6270       6269       6379       6380       6391       6390  
      6260       6261       6272       6271       6381       6382       6393       6392  
      6261       6262       6273       6272       6382       6383       6394       6393  
      6262       6263       6274       6273       6383       6384       6395       6394  
      6263       6264       6275       6274       6384       6385       6396       6395  
      6264       6265       6276       6275       6385       6386       6397       6396  
      6265       6266       6277       6276       6386       6387       6398       6397  
      6266       6267       6278       6277       6387       6388       6399       6398  
      6267       6268       6279       6278       6388       6389       6400       6399  
      6268       6269       6280       6279       6389       6390       6401       6400  
      6269       6270       6281       6280       6390       6391       6402       6401  
      6271       6272       6283       6282       6392       6393       6404       6403  
      6272       6273       6284       6283       6393       6394       6405       6404  
      6273       6274       6285       6284       6394       6395       6406       6405  
      6274       6275       6286       6285       6395       6396       6407       6406  
      6275       6276       6287       6286       6396       6397       6408       6407  
      6276       6277       6288       6287       6397       6398       6409       6408  
      6277       6278       6289       6288       6398       6399       6410       6409  
      6278       6279       6290       6289       6399       6400       6411       6410  
      6279       6280       6291       6290       6400       6401       6412       6411  
      6280       6281       6292       6291       6401       6402       6413       6412  
      6293       6294       6305       6304       6414       6415       6426       6425  
      6294       6295       6306       6305       6415       6416       6427       6426  
      6295       6296       6307       6306       6416       6417       6428       6427  
      6296       6297       6308       6307       6417       6418       6429       6428  
      6297       6298       6309       6308       6418       6419       6430       6429  
      6298       6299       6310       6309       6419       6420       6431       6430  
      6299       6300       6311       6310       6420       6421       6432       6431  
      6300       6301       6312       6311       6421       6422       6433       6432  
      6301       6302       6313       6312       6422       6423       6434       6433  
      6302       6303       6314       6313       6423       6424       6435       6434  
      6304       6305       6316       6315       6425       6426       6437       6436  
      6305       6306       6317       6316       6426       6427       6438       6437  
      6306       6307       6318       6317       6427       6428       6439       6438  
      6307       6308       6319       6318       6428       6429       6440       6439  
      6308       6309       6320       6319       6429       6430       6441       6440  
      6309       6310       6321       6320       6430       6431       6442       6441  
      6310       6311       6322       6321       6431       6432       6443       6442  
      6311       6312       6323       6322       6432       6433       6444       6443  
      6312       6313       6324       6323       6433       6434       6445       6444  
      6313       6314       6325       6324       6434       6435       6446       6445  
      6315       6316       6327       6326       6436       6437       6448       6447  
      6316       6317       6328       6327       6437       6438       6449       6448  
      6317       6318       6329       6328       6438       6439       6450       6449  
      6318       6319       6330       6329       6439       6440       6451       6450  
      6319       6320       6331       6330       6440       6441       6452       6451  
      6320       6321       6332       6331       6441       6442       6453       6452  
      6321       6322       6333       6332       6442       6443       6454       6453  
      6322       6323       6334       6333       6443       6444       6455       6454  
      6323       6324       6335       6334       6444       6445       6456       6455  
      6324       6325       6336       6335       6445       6446       6457       6456  
      6326       6327       6338       6337       6447       6448       6459       6458  
      6327       6328       6339       6338       6448       6449       6460       6459  
      6328       6329       6340       6339       6449       6450       6461       6460  
      6329       6330       6341       6340       6450       6451       6462       6461  
      6330       6331       6342       6341       6451       6452       6463       6462  
      6331       6332       6343       6342       6452       6453       6464       6463  
      6332       6333       6344       6343       6453       6454       6465       6464  
      6333       6334       6345       6344       6454       6455       6466       6465  
      6334       6335       6346       6345       6455       6456       6467       6466  
      6335       6336       6347       6346       6456       6457       6468       6467  
      6337       6338       6349       6348       6458       6459       6470       6469  
      6338       6339       6350       6349       6459       6460       6471       6470  
      6339       6340       6351       6350       6460       6461       6472       6471  
      6340       6341       6352       6351       6461       6462       6473       6472  
      6341       6342       6353       6352       6462       6463       6474       6473  
      6342       6343       6354       6353       6463       6464       6475       6474  
      6343       6344       6355       6354       6464       6465       6476       6475  
      6344       6345       6356       6355       6465       6466       6477       6476  
      6345       6346       6357       6356       6466       6467       6478       6477  
      6346       6347       6358       6357       6467       6468       6479       6478  
      6348       6349       6360       6359       6469       6470       6481       6480  
      6349       6350       6361       6360       6470       6471       6482       6481  
      6350       6351       6362       6361       6471       6472       6483       6482  
      6351       6352       6363       6362       6472       6473       6484       6483  
      6352       6353       6364       6363       6473       6474       6485       6484  
      6353       6354       6365       6364       6474       6475       6486       6485  
      6354       6355       6366       6365       6475       6476       6487       6486  
      6355       6356       6367       6366       6476       6477       6488       6487  
      6356       6357       6368       6367       6477       6478       6489       6488  
      6357       6358       6369       6368       6478       6479       6490       6489  
      6359       6360       6371       6370       6480       6481       6492       6491  
      6360       6361       6372       6371       6481       6482       6493       6492  
      6361       6362       6373       6372       6482       6483       6494       6493  
      6362       6363       6374       6373       6483       6484       6495       6494  
      6363       6364       6375       6374       6484       6485       6496       6495  
      6364       6365       6376       6375       6485       6486       6497       6496  
      6365       6366       6377       6376       6486       6487       6498       6497  
      6366       6367       6378       6377       6487       6488       6499       6498  
      6367       6368       6379       6378       6488       6489       6500       6499  
      6368       6369       6380       6379       6489       6490       6501       6500  
      6370       6371       6382       6381       6491       6492       6503       6502  
      6371       6372       6383       6382       6492       6493       6504       6503  
      6372       6373       6384       6383       6493       6494       6505       6504  
      6373       6374       6385       6384       6494       6495       6506       6505  
      6374       6375       6386       6385       6495       6496       6507       6506  
      6375       6376       6387       6386       6496       6497       6508       6507  
      6376       6377       6388       6387       6497       6498       6509       6508  
      6377       6378       6389       6388       6498       6499       6510       6509  
      6378       6379       6390       6389       6499       6500       6511       6510  
      6379       6380       6391       6390       6500       6501       6512       6511  
      6381       6382       6393       6392       6502       6503       6514       6513  
      6382       6383       6394       6393       6503       6504       6515       6514  
      6383       6384       6395       6394       6504       6505       6516       6515  
      6384       6385       6396       6395       6505       6506       6517       6516  
      6385       6386       6397       6396       6506       6507       6518       6517  
      6386       6387       6398       6397       6507       6508       6519       6518  
      6387       6388       6399       6398       6508       6509       6520       6519  
      6388       6389       6400       6399       6509       6510       6521       6520  
      6389       6390       6401       6400       6510       6511       6522       6521  
      6390       6391       6402       6401       6511       6512       6523       6522  
      6392       6393       6404       6403       6513       6514       6525       6524  
      6393       6394       6405       6404       6514       6515       6526       6525  
      6394       6395       6406       6405       6515       6516       6527       6526  
      6395       6396       6407       6406       6516       6517       6528       6527  
      6396       6397       6408       6407       6517       6518       6529       6528  
      6397       6398       6409       6408       6518       6519       6530       6529  
      6398       6399       6410       6409       6519       6520       6531       6530  
      6399       6400       6411       6410       6520       6521       6532       6531  
      6400       6401       6412       6411       6521       6522       6533       6532  
      6401       6402       6413       6412       6522       6523       6534       6533  
      6414       6415       6426       6425       6535       6536       6547       6546  
      6415       6416       6427       6426       6536       6537       6548       6547  
      6416       6417       6428       6427       6537       6538       6549       6548  
      6417       6418       6429       6428       6538       6539       6550       6549  
      6418       6419       6430       6429       6539       6540       6551       6550  
      6419       6420       6431       6430       6540       6541       6552       6551  
      6420       6421       6432       6431       6541       6542       6553       6552  
      6421       6422       6433       6432       6542       6543       6554       6553  
      6422       6423       6434       6433       6543       6544       6555       6554  
      6423       6424       6435       6434       6544       6545       6556       6555  
      6425       6426       6437       6436       6546       6547       6558       6557  
      6426       6427       6438       6437       6547       6548       6559       6558  
      6427       6428       6439       6438       6548       6549       6560       6559  
      6428       6429       6440       6439       6549       6550       6561       6560  
      6429       6430       6441       6440       6550       6551       6562       6561  
      6430       6431       6442       6441       6551       6552       6563       6562  
      6431       6432       6443       6442       6552       6553       6564       6563  
      6432       6433       6444       6443       6553       6554       6565       6564  
      6433       6434       6445       6444       6554       6555       6566       6565  
      6434       6435       6446       6445       6555       6556       6567       6566  
      6436       6437       6448       6447       6557       6558       6569       6568  
      6437       6438       6449       6448       6558       6559       6570       6569  
      6438       6439       6450       6449       6559       6560       6571       6570  
      6439       6440       6451       6450       6560       6561       6572       6571  
      6440       6441       6452       6451       6561       6562       6573       6572  
      6441       6442       6453       6452       6562       6563       6574       6573  
      6442       6443       6454       6453       6563       6564       6575       6574  
      6443       6444       6455       6454       6564       6565       6576       6575  
      6444       6445       6456       6455       6565       6566       6577       6576  
      6445       6446       6457       6456       6566       6567       6578       6577  
      6447       6448       6459       6458       6568       6569       6580       6579  
      6448       6449       6460       6459       6569       6570       6581       6580  
      6449       6450       6461       6460       6570       6571       6582       6581  
      6450       6451       6462       6461       6571       6572       6583       6582  
      6451       6452       6463       6462       6572       6573       6584       6583  
      6452       6453       6464       6463       6573       6574       6585       6584  
      6453       6454       6465       6464       6574       6575       6586       6585  
      6454       6455       6466       6465       6575       6576       6587       6586  
      6455       6456       6467       6466       6576       6577       6588       6587  
      6456       6457       6468       6467       6577       6578       6589       6588  
      6458       6459       6470       6469       6579       6580       6591       6590  
      6459       6460       6471       6470       6580       6581       6592       6591  
      6460       6461       6472       6471       6581       6582       6593       6592  
      6461       6462       6473       6472       6582       6583       6594       6593  
      6462       6463       6474       6473       6583       6584       6595       6594  
      6463       6464       6475       6474       6584       6585       6596       6595  
      6464       6465       6476       6475       6585       6586       6597       6596  
      6465       6466       6477       6476       6586       6587       6598       6597  
      6466       6467       6478       6477       6587       6588       6599       6598  
      6467       6468       6479       6478       6588       6589       6600       6599  
      6469       6470       6481       6480       6590       6591       6602       6601  
      6470       6471       6482       6481       6591       6592       6603       6602  
      6471       6472       6483       6482       6592       6593       6604       6603  
      6472       6473       6484       6483       6593       6594       6605       6604  
      6473       6474       6485       6484       6594       6595       6606       6605  
      6474       6475       6486       6485       6595       6596       6607       6606  
      6475       6476       6487       6486       6596       6597       6608       6607  
      6476       6477       6488       6487       6597       6598       6609       6608  
      6477       6478       6489       6488       6598       6599       6610       6609  
      6478       6479       6490       6489       6599       6600       6611       6610  
      6480       6481       6492       6491       6601       6602       6613       6612  
      6481       6482       6493       6492       6602       6603       6614       6613  
      6482       6483       6494       6493       6603       6604       6615       6614  
      6483       6484       6495       6494       6604       6605       6616       6615  
      6484       6485       6496       6495       6605       6606       6617       6616  
      6485       6486       6497       6496       6606       6607       6618       6617  
      6486       6487       6498       6497       6607       6608       6619       6618  
      6487       6488       6499       6498       6608       6609       6620       6619  
      6488       6489       6500       6499       6609       6610       6621       6620  
      6489       6490       6501       6500       6610       6611       6622       6621  
      6491       6492       6503       6502       6612       6613       6624       6623  
      6492       6493       6504       6503       6613       6614       6625       6624  
      6493       6494       6505       6504       6614       6615       6626       6625  
      6494       6495       6506       6505       6615       6616       6627       6626  
      6495       6496       6507       6506       6616       6617       6628       6627  
      6496       6497       6508       6507       6617       6618       6629       6628  
      6497       6498       6509       6508       6618       6619       6630       6629  
      6498       6499       6510       6509       6619       6620       6631       6630  
      6499       6500       6511       6510       6620       6621       6632       6631  
      6500       6501       6512       6511       6621       6622       6633       6632  
      6502       6503       6514       6513       6623       6624       6635       6634  
      6503       6504       6515       6514       6624       6625       6636       6635  
      6504       6505       6516       6515       6625       6626       6637       6636  
      6505       6506       6517       6516       6626       6627       6638       6637  
      6506       6507       6518       6517       6627       6628       6639       6638  
      6507       6508       6519       6518       6628       6629       6640       6639  
      6508       6509       6520       6519       6629       6630       6641       6640  
      6509       6510       6521       6520       6630       6631       6642       6641  
      6510       6511       6522       6521       6631       6632       6643       6642  
      6511       6512       6523       6522       6632       6633       6644       6643  
      6513       6514       6525       6524       6634       6635       6646       6645  
      6514       6515       6526       6525       6635       6636       6647       6646  
      6515       6516       6527       6526       6636       6637       6648       6647  
      6516       6517       6528       6527       6637       6638       6649       6648  
      6517       6518       6529       6528       6638       6639       6650       6649  
      6518       6519       6530       6529       6639       6640       6651       6650  
      6519       6520       6531       6530       6640       6641       6652       6651  
      6520       6521       6532       6531       6641       6642       6653       6652  
      6521       6522       6533       6532       6642       6643       6654       6653  
      6522       6523       6534       6533       6643       6644       6655       6654  
      6535       6536       6547       6546       6656       6657       6668       6667  
      6536       6537       6548       6547       6657       6658       6669       6668  
      6537       6538       6549       6548       6658       6659       6670       6669  
      6538       6539       6550       6549       6659       6660       6671       6670  
      6539       6540       6551       6550       6660       6661       6672       6671  
      6540       6541       6552       6551       6661       6662       6673       6672  
      6541       6542       6553       6552       6662       6663       6674       6673  
      6542       6543       6554       6553       6663       6664       6675       6674  
      6543       6544       6555       6554       6664       6665       6676       6675  
      6544       6545       6556       6555       6665       6666       6677       6676  
      6546       6547       6558       6557       6667       6668       6679       6678  
      6547       6548       6559       6558       6668       6669       6680       6679  
      6548       6549       6560       6559       6669       6670       6681       6680  
      6549       6550       6561       6560       6670       6671       6682       6681  
      6550       6551       6562       6561       6671       6672       6683       6682  
      6551       6552       6563       6562       6672       6673       6684       6683  
      6552       6553       6564       6563       6673       6674       6685       6684  
      6553       6554       6565       6564       6674       6675       6686       6685  
      6554       6555       6566       6565       6675       6676       6687       6686  
      6555       6556       6567       6566       6676       6677       6688       6687  
      6557       6558       6569       6568       6678       6679       6690       6689  
      6558       6559       6570       6569       6679       6680       6691       6690  
      6559       6560       6571       6570       6680       6681       6692       6691  
      6560       6561       6572       6571       6681       6682       6693       6692  
      6561       6562       6573       6572       6682       6683       6694       6693  
      6562       6563       6574       6573       6683       6684       6695       6694  
      6563       6564       6575       6574       6684       6685       6696       6695  
      6564       6565       6576       6575       6685       6686       6697       6696  
      6565       6566       6577       6576       6686       6687       6698       6697  
      6566       6567       6578       6577       6687       6688       6699       6698  
      6568       6569       6580       6579       6689       6690       6701       6700  
      6569       6570       6581       6580       6690       6691       6702       6701  
      6570       6571       6582       6581       6691       6692       6703       6702  
      6571       6572       6583       6582       6692       6693       6704       6703  
      6572       6573       6584       6583       6693       6694       6705       6704  
      6573       6574       6585       6584       6694       6695       6706       6705  
      6574       6575       6586       6585       6695       6696       6707       6706  
      6575       6576       6587       6586       6696       6697       6708       6707  
      6576       6577       6588       6587       6697       6698       6709       6708  
      6577       6578       6589       6588       6698       6699       6710       6709  
      6579       6580       6591       6590       6700       6701       6712       6711  
      6580       6581       6592       6591       6701       6702       6713       6712  
      6581       6582       6593       6592       6702       6703       6714       6713  
      6582       6583       6594       6593       6703       6704       6715       6714  
      6583       6584       6595       6594       6704       6705       6716       6715  
      6584       6585       6596       6595       6705       6706       6717       6716  
      6585       6586       6597       6596       6706       6707       6718       6717  
      6586       6587       6598       6597       6707       6708       6719       6718  
      6587       6588       6599       6598       6708       6709       6720       6719  
      6588       6589       6600       6599       6709       6710       6721       6720  
      6590       6591       6602       6601       6711       6712       6723       6722  
      6591       6592       6603       6602       6712       6713       6724       6723  
      6592       6593       6604       6603       6713       6714       6725       6724  
      6593       6594       6605       6604       6714       6715       6726       6725  
      6594       6595       6606       6605       6715       6716       6727       6726  
      6595       6596       6607       6606       6716       6717       6728       6727  
      6596       6597       6608       6607       6717       6718       6729       6728  
      6597       6598       6609       6608       6718       6719       6730       6729  
      6598       6599       6610       6609       6719       6720       6731       6730  
      6599       6600       6611       6610       6720       6721       6732       6731  
      6601       6602       6613       6612       6722       6723       6734       6733  
      6602       6603       6614       6613       6723       6724       6735       6734  
      6603       6604       6615       6614       6724       6725       6736       6735  
      6604       6605       6616       6615       6725       6726       6737       6736  
      6605       6606       6617       6616       6726       6727       6738       6737  
      6606       6607       6618       6617       6727       6728       6739       6738  
      6607       6608       6619       6618       6728       6729       6740       6739  
      6608       6609       6620       6619       6729       6730       6741       6740  
      6609       6610       6621       6620       6730       6731       6742       6741  
      6610       6611       6622       6621       6731       6732       6743       6742  
      6612       6613       6624       6623       6733       6734       6745       6744  
      6613       6614       6625       6624       6734       6735       6746       6745  
      6614       6615       6626       6625       6735       6736       6747       6746  
      6615       6616       6627       6626       6736       6737       6748       6747  
      6616       6617       6628       6627       6737       6738       6749       6748  
      6617       6618       6629       6628       6738       6739       6750       6749  
      6618       6619       6630       6629       6739       6740       6751       6750  
      6619       6620       6631       6630       6740       6741       6752       6751  
      6620       6621       6632       6631       6741       6742       6753       6752  
      6621       6622       6633       6632       6742       6743       6754       6753  
      6623       6624       6635       6634       6744       6745       6756       6755  
      6624       6625       6636       6635       6745       6746       6757       6756  
      6625       6626       6637       6636       6746       6747       6758       6757  
      6626       6627       6638       6637       6747       6748       6759       6758  
      6627       6628       6639       6638       6748       6749       6760       6759  
      6628       6629       6640       6639       6749       6750       6761       6760  
      6629       6630       6641       6640       6750       6751       6762       6761  
      6630       6631       6642       6641       6751       6752       6763       6762  
      6631       6632       6643       6642       6752       6753       6764       6763  
      6632       6633       6644       6643       6753       6754       6765       6764  
      6634       6635       6646       6645       6755       6756       6767       6766  
      6635       6636       6647       6646       6756       6757       6768       6767  
      6636       6637       6648       6647       6757       6758       6769       6768  
      6637       6638       6649       6648       6758       6759       6770       6769  
      6638       6639       6650       6649       6759       6760       6771       6770  
      6639       6640       6651       6650       6760       6761       6772       6771  
      6640       6641       6652       6651       6761       6762       6773       6772  
      6641       6642       6653       6652       6762       6763       6774       6773  
      6642       6643       6654       6653       6763       6764       6775       6774  
      6643       6644       6655       6654       6764       6765       6776       6775  
      6656       6657       6668       6667       6777       6778       6789       6788  
      6657       6658       6669       6668       6778       6779       6790       6789  
      6658       6659       6670       6669       6779       6780       6791       6790  
      6659       6660       6671       6670       6780       6781       6792       6791  
      6660       6661       6672       6671       6781       6782       6793       6792  
      6661       6662       6673       6672       6782       6783       6794       6793  
      6662       6663       6674       6673       6783       6784       6795       6794  
      6663       6664       6675       6674       6784       6785       6796       6795  
      6664       6665       6676       6675       6785       6786       6797       6796  
      6665       6666       6677       6676       6786       6787       6798       6797  
      6667       6668       6679       6678       6788       6789       6800       6799  
      6668       6669       6680       6679       6789       6790       6801       6800  
      6669       6670       6681       6680       6790       6791       6802       6801  
      6670       6671       6682       6681       6791       6792       6803       6802  
      6671       6672       6683       6682       6792       6793       6804       6803  
      6672       6673       6684       6683       6793       6794       6805       6804  
      6673       6674       6685       6684       6794       6795       6806       6805  
      6674       6675       6686       6685       6795       6796       6807       6806  
      6675       6676       6687       6686       6796       6797       6808       6807  
      6676       6677       6688       6687       6797       6798       6809       6808  
      6678       6679       6690       6689       6799       6800       6811       6810  
      6679       6680       6691       6690       6800       6801       6812       6811  
      6680       6681       6692       6691       6801       6802       6813       6812  
      6681       6682       6693       6692       6802       6803       6814       6813  
      6682       6683       6694       6693       6803       6804       6815       6814  
      6683       6684       6695       6694       6804       6805       6816       6815  
      6684       6685       6696       6695       6805       6806       6817       6816  
      6685       6686       6697       6696       6806       6807       6818       6817  
      6686       6687       6698       6697       6807       6808       6819       6818  
      6687       6688       6699       6698       6808       6809       6820       6819  
      6689       6690       6701       6700       6810       6811       6822       6821  
      6690       6691       6702       6701       6811       6812       6823       6822  
      6691       6692       6703       6702       6812       6813       6824       6823  
      6692       6693       6704       6703       6813       6814       6825       6824  
      6693       6694       6705       6704       6814       6815       6826       6825  
      6694       6695       6706       6705       6815       6816       6827       6826  
      6695       6696       6707       6706       6816       6817       6828       6827  
      6696       6697       6708       6707       6817       6818       6829       6828  
      6697       6698       6709       6708       6818       6819       6830       6829  
      6698       6699       6710       6709       6819       6820       6831       6830  
      6700       6701       6712       6711       6821       6822       6833       6832  
      6701       6702       6713       6712       6822       6823       6834       6833  
      6702       6703       6714       6713       6823       6824       6835       6834  
      6703       6704       6715       6714       6824       6825       6836       6835  
      6704       6705       6716       6715       6825       6826       6837       6836  
      6705       6706       6717       6716       6826       6827       6838       6837  
      6706       6707       6718       6717       6827       6828       6839       6838  
      6707       6708       6719       6718       6828       6829       6840       6839  
      6708       6709       6720       6719       6829       6830       6841       6840  
      6709       6710       6721       6720       6830       6831       6842       6841  
      6711       6712       6723       6722       6832       6833       6844       6843  
      6712       6713       6724       6723       6833       6834       6845       6844  
      6713       6714       6725       6724       6834       6835       6846       6845  
      6714       6715       6726       6725       6835       6836       6847       6846  
      6715       6716       6727       6726       6836       6837       6848       6847  
      6716       6717       6728       6727       6837       6838       6849       6848  
      6717       6718       6729       6728       6838       6839       6850       6849  
      6718       6719       6730       6729       6839       6840       6851       6850  
      6719       6720       6731       6730       6840       6841       6852       6851  
      6720       6721       6732       6731       6841       6842       6853       6852  
      6722       6723       6734       6733       6843       6844       6855       6854  
      6723       6724       6735       6734       6844       6845       6856       6855  
      6724       6725       6736       6735       6845       6846       6857       6856  
      6725       6726       6737       6736       6846       6847       6858       6857  
      6726       6727       6738       6737       6847       6848       6859       6858  
      6727       6728       6739       6738       6848       6849       6860       6859  
      6728       6729       6740       6739       6849       6850       6861       6860  
      6729       6730       6741       6740       6850       6851       6862       6861  
      6730       6731       6742       6741       6851       6852       6863       6862  
      6731       6732       6743       6742       6852       6853       6864       6863  
      6733       6734       6745       6744       6854       6855       6866       6865  
      6734       6735       6746       6745       6855       6856       6867       6866  
      6735       6736       6747       6746       6856       6857       6868       6867  
      6736       6737       6748       6747       6857       6858       6869       6868  
      6737       6738       6749       6748       6858       6859       6870       6869  
      6738       6739       6750       6749       6859       6860       6871       6870  
      6739       6740       6751       6750       6860       6861       6872       6871  
      6740       6741       6752       6751       6861       6862       6873       6872  
      6741       6742       6753       6752       6862       6863       6874       6873  
      6742       6743       6754       6753       6863       6864       6875       6874  
      6744       6745       6756       6755       6865       6866       6877       6876  
      6745       6746       6757       6756       6866       6867       6878       6877  
      6746       6747       6758       6757       6867       6868       6879       6878  
      6747       6748       6759       6758       6868       6869       6880       6879  
      6748       6749       6760       6759       6869       6870       6881       6880  
      6749       6750       6761       6760       6870       6871       6882       6881  
      6750       6751       6762       6761       6871       6872       6883       6882  
      6751       6752       6763       6762       6872       6873       6884       6883  
      6752       6753       6764       6763       6873       6874       6885       6884  
      6753       6754       6765       6764       6874       6875       6886       6885  
      6755       6756       6767       6766       6876       6877       6888       6887  
      6756       6757       6768       6767       6877       6878       6889       6888  
      6757       6758       6769       6768       6878       6879       6890       6889  
      6758       6759       6770       6769       6879       6880       6891       6890  
      6759       6760       6771       6770       6880       6881       6892       6891  
      6760       6761       6772       6771       6881       6882       6893       6892  
      6761       6762       6773       6772       6882       6883       6894       6893  
      6762       6763       6774       6773       6883       6884       6895       6894  
      6763       6764       6775       6774       6884       6885       6896       6895  
      6764       6765       6776       6775       6885       6886       6897       6896  
      6777       6778       6789       6788       6898       6899       6910       6909  
      6778       6779       6790       6789       6899       6900       6911       6910  
      6779       6780       6791       6790       6900       6901       6912       6911  
      6780       6781       6792       6791       6901       6902       6913       6912  
      6781       6782       6793       6792       6902       6903       6914       6913  
      6782       6783       6794       6793       6903       6904       6915       6914  
      6783       6784       6795       6794       6904       6905       6916       6915  
      6784       6785       6796       6795       6905       6906       6917       6916  
      6785       6786       6797       6796       6906       6907       6918       6917  
      6786       6787       6798       6797       6907       6908       6919       6918  
      6788       6789       6800       6799       6909       6910       6921       6920  
      6789       6790       6801       6800       6910       6911       6922       6921  
      6790       6791       6802       6801       6911       6912       6923       6922  
      6791       6792       6803       6802       6912       6913       6924       6923  
      6792       6793       6804       6803       6913       6914       6925       6924  
      6793       6794       6805       6804       6914       6915       6926       6925  
      6794       6795       6806       6805       6915       6916       6927       6926  
      6795       6796       6807       6806       6916       6917       6928       6927  
      6796       6797       6808       6807       6917       6918       6929       6928  
      6797       6798       6809       6808       6918       6919       6930       6929  
      6799       6800       6811       6810       6920       6921       6932       6931  
      6800       6801       6812       6811       6921       6922       6933       6932  
      6801       6802       6813       6812       6922       6923       6934       6933  
      6802       6803       6814       6813       6923       6924       6935       6934  
      6803       6804       6815       6814       6924       6925       6936       6935  
      6804       6805       6816       6815       6925       6926       6937       6936  
      6805       6806       6817       6816       6926       6927       6938       6937  
      6806       6807       6818       6817       6927       6928       6939       6938  
      6807       6808       6819       6818       6928       6929       6940       6939  
      6808       6809       6820       6819       6929       6930       6941       6940  
      6810       6811       6822       6821       6931       6932       6943       6942  
      6811       6812       6823       6822       6932       6933       6944       6943  
      6812       6813       6824       6823       6933       6934       6945       6944  
      6813       6814       6825       6824       6934       6935       6946       6945  
      6814       6815       6826       6825       6935       6936       6947       6946  
      6815       6816       6827       6826       6936       6937       6948       6947  
      6816       6817       6828       6827       6937       6938       6949       6948  
      6817       6818       6829       6828       6938       6939       6950       6949  
      6818       6819       6830       6829       6939       6940       6951       6950  
      6819       6820       6831       6830       6940       6941       6952       6951  
      6821       6822       6833       6832       6942       6943       6954       6953  
      6822       6823       6834       6833       6943       6944       6955       6954  
      6823       6824       6835       6834       6944       6945       6956       6955  
      6824       6825       6836       6835       6945       6946       6957       6956  
      6825       6826       6837       6836       6946       6947       6958       6957  
      6826       6827       6838       6837       6947       6948       6959       6958  
      6827       6828       6839       6838       6948       6949       6960       6959  
      6828       6829       6840       6839       6949       6950       6961       6960  
      6829       6830       6841       6840       6950       6951       6962       6961  
      6830       6831       6842       6841       6951       6952       6963       6962  
      6832       6833       6844       6843       6953       6954       6965       6964  
      6833       6834       6845       6844       6954       6955       6966       6965  
      6834       6835       6846       6845       6955       6956       6967       6966  
      6835       6836       6847       6846       6956       6957       6968       6967  
      6836       6837       6848       6847       6957       6958       6969       6968  
      6837       6838       6849       6848       6958       6959       6970       6969  
      6838       6839       6850       6849       6959       6960       6971       6970  
      6839       6840       6851       6850       6960       6961       6972       6971  
      6840       6841       6852       6851       6961       6962       6973       6972  
      6841       6842       6853       6852       6962       6963       6974       6973  
      6843       6844       6855       6854       6964       6965       6976       6975  
      6844       6845       6856       6855       6965       6966       6977       6976  
      6845       6846       6857       6856       6966       6967       6978       6977  
      6846       6847       6858       6857       6967       6968       6979       6978  
      6847       6848       6859       6858       6968       6969       6980       6979  
      6848       6849       6860       6859       6969       6970       6981       6980  
      6849       6850       6861       6860       6970       6971       6982       6981  
      6850       6851       6862       6861       6971       6972       6983       6982  
      6851       6852       6863       6862       6972       6973       6984       6983  
      6852       6853       6864       6863       6973       6974       6985       6984  
      6854       6855       6866       6865       6975       6976       6987       6986  
      6855       6856       6867       6866       6976       6977       6988       6987  
      6856       6857       6868       6867       6977       6978       6989       6988  
      6857       6858       6869       6868       6978       6979       6990       6989  
      6858       6859       6870       6869       6979       6980       6991       6990  
      6859       6860       6871       6870       6980       6981       6992       6991  
      6860       6861       6872       6871       6981       6982       6993       6992  
      6861       6862       6873       6872       6982       6983       6994       6993  
      6862       6863       6874       6873       6983       6984       6995       6994  
      6863       6864       6875       6874       6984       6985       6996       6995  
      6865       6866       6877       6876       6986       6987       6998       6997  
      6866       6867       6878       6877       6987       6988       6999       6998  
      6867       6868       6879       6878       6988       6989       7000       6999  
      6868       6869       6880       6879       6989       6990       7001       7000  
      6869       6870       6881       6880       6990       6991       7002       7001  
      6870       6871       6882       6881       6991       6992       7003       7002  
      6871       6872       6883       6882       6992       6993       7004       7003  
      6872       6873       6884       6883       6993       6994       7005       7004  
      6873       6874       6885       6884       6994       6995       7006       7005  
      6874       6875       6886       6885       6995       6996       7007       7006  
      6876       6877       6888       6887       6997       6998       7009       7008  
      6877       6878       6889       6888       6998       6999       7010       7009  
      6878       6879       6890       6889       6999       7000       7011       7010  
      6879       6880       6891       6890       7000       7001       7012       7011  
      6880       6881       6892       6891       7001       7002       7013       7012  
      6881       6882       6893       6892       7002       7003       7014       7013  
      6882       6883       6894       6893       7003       7004       7015       7014  
      6883       6884       6895       6894       7004       7005       7016       7015  
      6884       6885       6896       6895       7005       7006       7017       7016  
      6885       6886       6897       6896       7006       7007       7018       7017  
      6898       6899       6910       6909       7019       7020       7031       7030  
      6899       6900       6911       6910       7020       7021       7032       7031  
      6900       6901       6912       6911       7021       7022       7033       7032  
      6901       6902       6913       6912       7022       7023       7034       7033  
      6902       6903       6914       6913       7023       7024       7035       7034  
      6903       6904       6915       6914       7024       7025       7036       7035  
      6904       6905       6916       6915       7025       7026       7037       7036  
      6905       6906       6917       6916       7026       7027       7038       7037  
      6906       6907       6918       6917       7027       7028       7039       7038  
      6907       6908       6919       6918       7028       7029       7040       7039  
      6909       6910       6921       6920       7030       7031       7042       7041  
      6910       6911       6922       6921       7031       7032       7043       7042  
      6911       6912       6923       6922       7032       7033       7044       7043  
      6912       6913       6924       6923       7033       7034       7045       7044  
      6913       6914       6925       6924       7034       7035       7046       7045  
      6914       6915       6926       6925       7035       7036       7047       7046  
      6915       6916       6927       6926       7036       7037       7048       7047  
      6916       6917       6928       6927       7037       7038       7049       7048  
      6917       6918       6929       6928       7038       7039       7050       7049  
      6918       6919       6930       6929       7039       7040       7051       7050  
      6920       6921       6932       6931       7041       7042       7053       7052  
      6921       6922       6933       6932       7042       7043       7054       7053  
      6922       6923       6934       6933       7043       7044       7055       7054  
      6923       6924       6935       6934       7044       7045       7056       7055  
      6924       6925       6936       6935       7045       7046       7057       7056  
      6925       6926       6937       6936       7046       7047       7058       7057  
      6926       6927       6938       6937       7047       7048       7059       7058  
      6927       6928       6939       6938       7048       7049       7060       7059  
      6928       6929       6940       6939       7049       7050       7061       7060  
      6929       6930       6941       6940       7050       7051       7062       7061  
      6931       6932       6943       6942       7052       7053       7064       7063  
      6932       6933       6944       6943       7053       7054       7065       7064  
      6933       6934       6945       6944       7054       7055       7066       7065  
      6934       6935       6946       6945       7055       7056       7067       7066  
      6935       6936       6947       6946       7056       7057       7068       7067  
      6936       6937       6948       6947       7057       7058       7069       7068  
      6937       6938       6949       6948       7058       7059       7070       7069  
      6938       6939       6950       6949       7059       7060       7071       7070  
      6939       6940       6951       6950       7060       7061       7072       7071  
      6940       6941       6952       6951       7061       7062       7073       7072  
      6942       6943       6954       6953       7063       7064       7075       7074  
      6943       6944       6955       6954       7064       7065       7076       7075  
      6944       6945       6956       6955       7065       7066       7077       7076  
      6945       6946       6957       6956       7066       7067       7078       7077  
      6946       6947       6958       6957       7067       7068       7079       7078  
      6947       6948       6959       6958       7068       7069       7080       7079  
      6948       6949       6960       6959       7069       7070       7081       7080  
      6949       6950       6961       6960       7070       7071       7082       7081  
      6950       6951       6962       6961       7071       7072       7083       7082  
      6951       6952       6963       6962       7072       7073       7084       7083  
      6953       6954       6965       6964       7074       7075       7086       7085  
      6954       6955       6966       6965       7075       7076       7087       7086  
      6955       6956       6967       6966       7076       7077       7088       7087  
      6956       6957       6968       6967       7077       7078       7089       7088  
      6957       6958       6969       6968       7078       7079       7090       7089  
      6958       6959       6970       6969       7079       7080       7091       7090  
      6959       6960       6971       6970       7080       7081       7092       7091  
      6960       6961       6972       6971       7081       7082       7093       7092  
      6961       6962       6973       6972       7082       7083       7094       7093  
      6962       6963       6974       6973       7083       7084       7095       7094  
      6964       6965       6976       6975       7085       7086       7097       7096  
      6965       6966       6977       6976       7086       7087       7098       7097  
      6966       6967       6978       6977       7087       7088       7099       7098  
      6967       6968       6979       6978       7088       7089       7100       7099  
      6968       6969       6980       6979       7089       7090       7101       7100  
      6969       6970       6981       6980       7090       7091       7102       7101  
      6970       6971       6982       6981       7091       7092       7103       7102  
      6971       6972       6983       6982       7092       7093       7104       7103  
      6972       6973       6984       6983       7093       7094       7105       7104  
      6973       6974       6985       6984       7094       7095       7106       7105  
      6975       6976       6987       6986       7096       7097       7108       7107  
      6976       6977       6988       6987       7097       7098       7109       7108  
      6977       6978       6989       6988       7098       7099       7110       7109  
      6978       6979       6990       6989       7099       7100       7111       7110  
      6979       6980       6991       6990       7100       7101       7112       7111  
      6980       6981       6992       6991       7101       7102       7113       7112  
      6981       6982       6993       6992       7102       7103       7114       7113  
      6982       6983       6994       6993       7103       7104       7115       7114  
      6983       6984       6995       6994       7104       7105       7116       7115  
      6984       6985       6996       6995       7105       7106       7117       7116  
      6986       6987       6998       6997       7107       7108       7119       7118  
      6987       6988       6999       6998       7108       7109       7120       7119  
      6988       6989       7000       6999       7109       7110       7121       7120  
      6989       6990       7001       7000       7110       7111       7122       7121  
      6990       6991       7002       7001       7111       7112       7123       7122  
      6991       6992       7003       7002       7112       7113       7124       7123  
      6992       6993       7004       7003       7113       7114       7125       7124  
      6993       6994       7005       7004       7114       7115       7126       7125  
      6994       6995       7006       7005       7115       7116       7127       7126  
      6995       6996       7007       7006       7116       7117       7128       7127  
      6997       6998       7009       7008       7118       7119       7130       7129  
      6998       6999       7010       7009       7119       7120       7131       7130  
      6999       7000       7011       7010       7120       7121       7132       7131  
      7000       7001       7012       7011       7121       7122       7133       7132  
      7001       7002       7013       7012       7122       7123       7134       7133  
      7002       7003       7014       7013       7123       7124       7135       7134  
      7003       7004       7015       7014       7124       7125       7136       7135  
      7004       7005       7016       7015       7125       7126       7137       7136  
      7005       7006       7017       7016       7126       7127       7138       7137  
      7006       7007       7018       7017       7127       7128       7139       7138  
      7019       7020       7031       7030       7140       7141       7152       7151  
      7020       7021       7032       7031       7141       7142       7153       7152  
      7021       7022       7033       7032       7142       7143       7154       7153  
      7022       7023       7034       7033       7143       7144       7155       7154  
      7023       7024       7035       7034       7144       7145       7156       7155  
      7024       7025       7036       7035       7145       7146       7157       7156  
      7025       7026       7037       7036       7146       7147       7158       7157  
      7026       7027       7038       7037       7147       7148       7159       7158  
      7027       7028       7039       7038       7148       7149       7160       7159  
      7028       7029       7040       7039       7149       7150       7161       7160  
      7030       7031       7042       7041       7151       7152       7163       7162  
      7031       7032       7043       7042       7152       7153       7164       7163  
      7032       7033       7044       7043       7153       7154       7165       7164  
      7033       7034       7045       7044       7154       7155       7166       7165  
      7034       7035       7046       7045       7155       7156       7167       7166  
      7035       7036       7047       7046       7156       7157       7168       7167  
      7036       7037       7048       7047       7157       7158       7169       7168  
      7037       7038       7049       7048       7158       7159       7170       7169  
      7038       7039       7050       7049       7159       7160       7171       7170  
      7039       7040       7051       7050       7160       7161       7172       7171  
      7041       7042       7053       7052       7162       7163       7174       7173  
      7042       7043       7054       7053       7163       7164       7175       7174  
      7043       7044       7055       7054       7164       7165       7176       7175  
      7044       7045       7056       7055       7165       7166       7177       7176  
      7045       7046       7057       7056       7166       7167       7178       7177  
      7046       7047       7058       7057       7167       7168       7179       7178  
      7047       7048       7059       7058       7168       7169       7180       7179  
      7048       7049       7060       7059       7169       7170       7181       7180  
      7049       7050       7061       7060       7170       7171       7182       7181  
      7050       7051       7062       7061       7171       7172       7183       7182  
      7052       7053       7064       7063       7173       7174       7185       7184  
      7053       7054       7065       7064       7174       7175       7186       7185  
      7054       7055       7066       7065       7175       7176       7187       7186  
      7055       7056       7067       7066       7176       7177       7188       7187  
      7056       7057       7068       7067       7177       7178       7189       7188  
      7057       7058       7069       7068       7178       7179       7190       7189  
      7058       7059       7070       7069       7179       7180       7191       7190  
      7059       7060       7071       7070       7180       7181       7192       7191  
      7060       7061       7072       7071       7181       7182       7193       7192  
      7061       7062       7073       7072       7182       7183       7194       7193  
      7063       7064       7075       7074       7184       7185       7196       7195  
      7064       7065       7076       7075       7185       7186       7197       7196  
      7065       7066       7077       7076       7186       7187       7198       7197  
      7066       7067       7078       7077       7187       7188       7199       7198  
      7067       7068       7079       7078       7188       7189       7200       7199  
      7068       7069       7080       7079       7189       7190       7201       7200  
      7069       7070       7081       7080       7190       7191       7202       7201  
      7070       7071       7082       7081       7191       7192       7203       7202  
      7071       7072       7083       7082       7192       7193       7204       7203  
      7072       7073       7084       7083       7193       7194       7205       7204  
      7074       7075       7086       7085       7195       7196       7207       7206  
      7075       7076       7087       7086       7196       7197       7208       7207  
      7076       7077       7088       7087       7197       7198       7209       7208  
      7077       7078       7089       7088       7198       7199       7210       7209  
      7078       7079       7090       7089       7199       7200       7211       7210  
      7079       7080       7091       7090       7200       7201       7212       7211  
      7080       7081       7092       7091       7201       7202       7213       7212  
      7081       7082       7093       7092       7202       7203       7214       7213  
      7082       7083       7094       7093       7203       7204       7215       7214  
      7083       7084       7095       7094       7204       7205       7216       7215  
      7085       7086       7097       7096       7206       7207       7218       7217  
      7086       7087       7098       7097       7207       7208       7219       7218  
      7087       7088       7099       7098       7208       7209       7220       7219  
      7088       7089       7100       7099       7209       7210       7221       7220  
      7089       7090       7101       7100       7210       7211       7222       7221  
      7090       7091       7102       7101       7211       7212       7223       7222  
      7091       7092       7103       7102       7212       7213       7224       7223  
      7092       7093       7104       7103       7213       7214       7225       7224  
      7093       7094       7105       7104       7214       7215       7226       7225  
      7094       7095       7106       7105       7215       7216       7227       7226  
      7096       7097       7108       7107       7217       7218       7229       7228  
      7097       7098       7109       7108       7218       7219       7230       7229  
      7098       7099       7110       7109       7219       7220       7231       7230  
      7099       7100       7111       7110       7220       7221       7232       7231  
      7100       7101       7112       7111       7221       7222       7233       7232  
      7101       7102       7113       7112       7222       7223       7234       7233  
      7102       7103       7114       7113       7223       7224       7235       7234  
      7103       7104       7115       7114       7224       7225       7236       7235  
      7104       7105       7116       7115       7225       7226       7237       7236  
      7105       7106       7117       7116       7226       7227       7238       7237  
      7107       7108       7119       7118       7228       7229       7240       7239  
      7108       7109       7120       7119       7229       7230       7241       7240  
      7109       7110       7121       7120       7230       7231       7242       7241  
      7110       7111       7122       7121       7231       7232       7243       7242  
      7111       7112       7123       7122       7232       7233       7244       7243  
      7112       7113       7124       7123       7233       7234       7245       7244  
      7113       7114       7125       7124       7234       7235       7246       7245  
      7114       7115       7126       7125       7235       7236       7247       7246  
      7115       7116       7127       7126       7236       7237       7248       7247  
      7116       7117       7128       7127       7237       7238       7249       7248  
      7118       7119       7130       7129       7239       7240       7251       7250  
      7119       7120       7131       7130       7240       7241       7252       7251  
      7120       7121       7132       7131       7241       7242       7253       7252  
      7121       7122       7133       7132       7242       7243       7254       7253  
      7122       7123       7134       7133       7243       7244       7255       7254  
      7123       7124       7135       7134       7244       7245       7256       7255  
      7124       7125       7136       7135       7245       7246       7257       7256  
      7125       7126       7137       7136       7246       7247       7258       7257  
      7126       7127       7138       7137       7247       7248       7259       7258  
      7127       7128       7139       7138       7248       7249       7260       7259  
      7140       7141       7152       7151       7261       7262       7273       7272  
      7141       7142       7153       7152       7262       7263       7274       7273  
      7142       7143       7154       7153       7263       7264       7275       7274  
      7143       7144       7155       7154       7264       7265       7276       7275  
      7144       7145       7156       7155       7265       7266       7277       7276  
      7145       7146       7157       7156       7266       7267       7278       7277  
      7146       7147       7158       7157       7267       7268       7279       7278  
      7147       7148       7159       7158       7268       7269       7280       7279  
      7148       7149       7160       7159       7269       7270       7281       7280  
      7149       7150       7161       7160       7270       7271       7282       7281  
      7151       7152       7163       7162       7272       7273       7284       7283  
      7152       7153       7164       7163       7273       7274       7285       7284  
      7153       7154       7165       7164       7274       7275       7286       7285  
      7154       7155       7166       7165       7275       7276       7287       7286  
      7155       7156       7167       7166       7276       7277       7288       7287  
      7156       7157       7168       7167       7277       7278       7289       7288  
      7157       7158       7169       7168       7278       7279       7290       7289  
      7158       7159       7170       7169       7279       7280       7291       7290  
      7159       7160       7171       7170       7280       7281       7292       7291  
      7160       7161       7172       7171       7281       7282       7293       7292  
      7162       7163       7174       7173       7283       7284       7295       7294  
      7163       7164       7175       7174       7284       7285       7296       7295  
      7164       7165       7176       7175       7285       7286       7297       7296  
      7165       7166       7177       7176       7286       7287       7298       7297  
      7166       7167       7178       7177       7287       7288       7299       7298  
      7167       7168       7179       7178       7288       7289       7300       7299  
      7168       7169       7180       7179       7289       7290       7301       7300  
      7169       7170       7181       7180       7290       7291       7302       7301  
      7170       7171       7182       7181       7291       7292       7303       7302  
      7171       7172       7183       7182       7292       7293       7304       7303  
      7173       7174       7185       7184       7294       7295       7306       7305  
      7174       7175       7186       7185       7295       7296       7307       7306  
      7175       7176       7187       7186       7296       7297       7308       7307  
      7176       7177       7188       7187       7297       7298       7309       7308  
      7177       7178       7189       7188       7298       7299       7310       7309  
      7178       7179       7190       7189       7299       7300       7311       7310  
      7179       7180       7191       7190       7300       7301       7312       7311  
      7180       7181       7192       7191       7301       7302       7313       7312  
      7181       7182       7193       7192       7302       7303       7314       7313  
      7182       7183       7194       7193       7303       7304       7315       7314  
      7184       7185       7196       7195       7305       7306       7317       7316  
      7185       7186       7197       7196       7306       7307       7318       7317  
      7186       7187       7198       7197       7307       7308       7319       7318  
      7187       7188       7199       7198       7308       7309       7320       7319  
      7188       7189       7200       7199       7309       7310       7321       7320  
      7189       7190       7201       7200       7310       7311       7322       7321  
      7190       7191       7202       7201       7311       7312       7323       7322  
      7191       7192       7203       7202       7312       7313       7324       7323  
      7192       7193       7204       7203       7313       7314       7325       7324  
      7193       7194       7205       7204       7314       7315       7326       7325  
      7195       7196       7207       7206       7316       7317       7328       7327  
      7196       7197       7208       7207       7317       7318       7329       7328  
      7197       7198       7209       7208       7318       7319       7330       7329  
      7198       7199       7210       7209       7319       7320       7331       7330  
      7199       7200       7211       7210       7320       7321       7332       7331  
      7200       7201       7212       7211       7321       7322       7333       7332  
      7201       7202       7213       7212       7322       7323       7334       7333  
      7202       7203       7214       7213       7323       7324       7335       7334  
      7203       7204       7215       7214       7324       7325       7336       7335  
      7204       7205       7216       7215       7325       7326       7337       7336  
      7206       7207       7218       7217       7327       7328       7339       7338  
      7207       7208       7219       7218       7328       7329       7340       7339  
      7208       7209       7220       7219       7329       7330       7341       7340  
      7209       7210       7221       7220       7330       7331       7342       7341  
      7210       7211       7222       7221       7331       7332       7343       7342  
      7211       7212       7223       7222       7332       7333       7344       7343  
      7212       7213       7224       7223       7333       7334       7345       7344  
      7213       7214       7225       7224       7334       7335       7346       7345  
      7214       7215       7226       7225       7335       7336       7347       7346  
      7215       7216       7227       7226       7336       7337       7348       7347  
      7217       7218       7229       7228       7338       7339       7350       7349  
      7218       7219       7230       7229       7339       7340       7351       7350  
      7219       7220       7231       7230       7340       7341       7352       7351  
      7220       7221       7232       7231       7341       7342       7353       7352  
      7221       7222       7233       7232       7342       7343       7354       7353  
      7222       7223       7234       7233       7343       7344       7355       7354  
      7223       7224       7235       7234       7344       7345       7356       7355  
      7224       7225       7236       7235       7345       7346       7357       7356  
      7225       7226       7237       7236       7346       7347       7358       7357  
      7226       7227       7238       7237       7347       7348       7359       7358  
      7228       7229       7240       7239       7349       7350       7361       7360  
      7229       7230       7241       7240       7350       7351       7362       7361  
      7230       7231       7242       7241       7351       7352       7363       7362  
      7231       7232       7243       7242       7352       7353       7364       7363  
      7232       7233       7244       7243       7353       7354       7365       7364  
      7233       7234       7245       7244       7354       7355       7366       7365  
      7234       7235       7246       7245       7355       7356       7367       7366  
      7235       7236       7247       7246       7356       7357       7368       7367  
      7236       7237       7248       7247       7357       7358       7369       7368  
      7237       7238       7249       7248       7358       7359       7370       7369  
      7239       7240       7251       7250       7360       7361       7372       7371  
      7240       7241       7252       7251       7361       7362       7373       7372  
      7241       7242       7253       7252       7362       7363       7374       7373  
      7242       7243       7254       7253       7363       7364       7375       7374  
      7243       7244       7255       7254       7364       7365       7376       7375  
      7244       7245       7256       7255       7365       7366       7377       7376  
      7245       7246       7257       7256       7366       7367       7378       7377  
      7246       7247       7258       7257       7367       7368       7379       7378  
      7247       7248       7259       7258       7368       7369       7380       7379  
      7248       7249       7260       7259       7369       7370       7381       7380  
      7261       7262       7273       7272       7382       7383       7394       7393  
      7262       7263       7274       7273       7383       7384       7395       7394  
      7263       7264       7275       7274       7384       7385       7396       7395  
      7264       7265       7276       7275       7385       7386       7397       7396  
      7265       7266       7277       7276       7386       7387       7398       7397  
      7266       7267       7278       7277       7387       7388       7399       7398  
      7267       7268       7279       7278       7388       7389       7400       7399  
      7268       7269       7280       7279       7389       7390       7401       7400  
      7269       7270       7281       7280       7390       7391       7402       7401  
      7270       7271       7282       7281       7391       7392       7403       7402  
      7272       7273       7284       7283       7393       7394       7405       7404  
      7273       7274       7285       7284       7394       7395       7406       7405  
      7274       7275       7286       7285       7395       7396       7407       7406  
      7275       7276       7287       7286       7396       7397       7408       7407  
      7276       7277       7288       7287       7397       7398       7409       7408  
      7277       7278       7289       7288       7398       7399       7410       7409  
      7278       7279       7290       7289       7399       7400       7411       7410  
      7279       7280       7291       7290       7400       7401       7412       7411  
      7280       7281       7292       7291       7401       7402       7413       7412  
      7281       7282       7293       7292       7402       7403       7414       7413  
      7283       7284       7295       7294       7404       7405       7416       7415  
      7284       7285       7296       7295       7405       7406       7417       7416  
      7285       7286       7297       7296       7406       7407       7418       7417  
      7286       7287       7298       7297       7407       7408       7419       7418  
      7287       7288       7299       7298       7408       7409       7420       7419  
      7288       7289       7300       7299       7409       7410       7421       7420  
      7289       7290       7301       7300       7410       7411       7422       7421  
      7290       7291       7302       7301       7411       7412       7423       7422  
      7291       7292       7303       7302       7412       7413       7424       7423  
      7292       7293       7304       7303       7413       7414       7425       7424  
      7294       7295       7306       7305       7415       7416       7427       7426  
      7295       7296       7307       7306       7416       7417       7428       7427  
      7296       7297       7308       7307       7417       7418       7429       7428  
      7297       7298       7309       7308       7418       7419       7430       7429  
      7298       7299       7310       7309       7419       7420       7431       7430  
      7299       7300       7311       7310       7420       7421       7432       7431  
      7300       7301       7312       7311       7421       7422       7433       7432  
      7301       7302       7313       7312       7422       7423       7434       7433  
      7302       7303       7314       7313       7423       7424       7435       7434  
      7303       7304       7315       7314       7424       7425       7436       7435  
      7305       7306       7317       7316       7426       7427       7438       7437  
      7306       7307       7318       7317       7427       7428       7439       7438  
      7307       7308       7319       7318       7428       7429       7440       7439  
      7308       7309       7320       7319       7429       7430       7441       7440  
      7309       7310       7321       7320       7430       7431       7442       7441  
      7310       7311       7322       7321       7431       7432       7443       7442  
      7311       7312       7323       7322       7432       7433       7444       7443  
      7312       7313       7324       7323       7433       7434       7445       7444  
      7313       7314       7325       7324       7434       7435       7446       7445  
      7314       7315       7326       7325       7435       7436       7447       7446  
      7316       7317       7328       7327       7437       7438       7449       7448  
      7317       7318       7329       7328       7438       7439       7450       7449  
      7318       7319       7330       7329       7439       7440       7451       7450  
      7319       7320       7331       7330       7440       7441       7452       7451  
      7320       7321       7332       7331       7441       7442       7453       7452  
      7321       7322       7333       7332       7442       7443       7454       7453  
      7322       7323       7334       7333       7443       7444       7455       7454  
      7323       7324       7335       7334       7444       7445       7456       7455  
      7324       7325       7336       7335       7445       7446       7457       7456  
      7325       7326       7337       7336       7446       7447       7458       7457  
      7327       7328       7339       7338       7448       7449       7460       7459  
      7328       7329       7340       7339       7449       7450       7461       7460  
      7329       7330       7341       7340       7450       7451       7462       7461  
      7330       7331       7342       7341       7451       7452       7463       7462  
      7331       7332       7343       7342       7452       7453       7464       7463  
      7332       7333       7344       7343       7453       7454       7465       7464  
      7333       7334       7345       7344       7454       7455       7466       7465  
      7334       7335       7346       7345       7455       7456       7467       7466  
      7335       7336       7347       7346       7456       7457       7468       7467  
      7336       7337       7348       7347       7457       7458       7469       7468  
      7338       7339       7350       7349       7459       7460       7471       7470  
      7339       7340       7351       7350       7460       7461       7472       7471  
      7340       7341       7352       7351       7461       7462       7473       7472  
      7341       7342       7353       7352       7462       7463       7474       7473  
      7342       7343       7354       7353       7463       7464       7475       7474  
      7343       7344       7355       7354       7464       7465       7476       7475  
      7344       7345       7356       7355       7465       7466       7477       7476  
      7345       7346       7357       7356       7466       7467       7478       7477  
      7346       7347       7358       7357       7467       7468       7479       7478  
      7347       7348       7359       7358       7468       7469       7480       7479  
      7349       7350       7361       7360       7470       7471       7482       7481  
      7350       7351       7362       7361       7471       7472       7483       7482  
      7351       7352       7363       7362       7472       7473       7484       7483  
      7352       7353       7364       7363       7473       7474       7485       7484  
      7353       7354       7365       7364       7474       7475       7486       7485  
      7354       7355       7366       7365       7475       7476       7487       7486  
      7355       7356       7367       7366       7476       7477       7488       7487  
      7356       7357       7368       7367       7477       7478       7489       7488  
      7357       7358       7369       7368       7478       7479       7490       7489  
      7358       7359       7370       7369       7479       7480       7491       7490  
      7360       7361       7372       7371       7481       7482       7493       7492  
      7361       7362       7373       7372       7482       7483       7494       7493  
      7362       7363       7374       7373       7483       7484       7495       7494  
      7363       7364       7375       7374       7484       7485       7496       7495  
      7364       7365       7376       7375       7485       7486       7497       7496  
      7365       7366       7377       7376       7486       7487       7498       7497  
      7366       7367       7378       7377       7487       7488       7499       7498  
      7367       7368       7379       7378       7488       7489       7500       7499  
      7368       7369       7380       7379       7489       7490       7501       7500  
      7369       7370       7381       7380       7490       7491       7502       7501  
      7382       7383       7394       7393       7503       7504       7515       7514  
      7383       7384       7395       7394       7504       7505       7516       7515  
      7384       7385       7396       7395       7505       7506       7517       7516  
      7385       7386       7397       7396       7506       7507       7518       7517  
      7386       7387       7398       7397       7507       7508       7519       7518  
      7387       7388       7399       7398       7508       7509       7520       7519  
      7388       7389       7400       7399       7509       7510       7521       7520  
      7389       7390       7401       7400       7510       7511       7522       7521  
      7390       7391       7402       7401       7511       7512       7523       7522  
      7391       7392       7403       7402       7512       7513       7524       7523  
      7393       7394       7405       7404       7514       7515       7526       7525  
      7394       7395       7406       7405       7515       7516       7527       7526  
      7395       7396       7407       7406       7516       7517       7528       7527  
      7396       7397       7408       7407       7517       7518       7529       7528  
      7397       7398       7409       7408       7518       7519       7530       7529  
      7398       7399       7410       7409       7519       7520       7531       7530  
      7399       7400       7411       7410       7520       7521       7532       7531  
      7400       7401       7412       7411       7521       7522       7533       7532  
      7401       7402       7413       7412       7522       7523       7534       7533  
      7402       7403       7414       7413       7523       7524       7535       7534  
      7404       7405       7416       7415       7525       7526       7537       7536  
      7405       7406       7417       7416       7526       7527       7538       7537  
      7406       7407       7418       7417       7527       7528       7539       7538  
      7407       7408       7419       7418       7528       7529       7540       7539  
      7408       7409       7420       7419       7529       7530       7541       7540  
      7409       7410       7421       7420       7530       7531       7542       7541  
      7410       7411       7422       7421       7531       7532       7543       7542  
      7411       7412       7423       7422       7532       7533       7544       7543  
      7412       7413       7424       7423       7533       7534       7545       7544  
      7413       7414       7425       7424       7534       7535       7546       7545  
      7415       7416       7427       7426       7536       7537       7548       7547  
      7416       7417       7428       7427       7537       7538       7549       7548  
      7417       7418       7429       7428       7538       7539       7550       7549  
      7418       7419       7430       7429       7539       7540       7551       7550  
      7419       7420       7431       7430       7540       7541       7552       7551  
      7420       7421       7432       7431       7541       7542       7553       7552  
      7421       7422       7433       7432       7542       7543       7554       7553  
      7422       7423       7434       7433       7543       7544       7555       7554  
      7423       7424       7435       7434       7544       7545       7556       7555  
      7424       7425       7436       7435       7545       7546       7557       7556  
      7426       7427       7438       7437       7547       7548       7559       7558  
      7427       7428       7439       7438       7548       7549       7560       7559  
      7428       7429       7440       7439       7549       7550       7561       7560  
      7429       7430       7441       7440       7550       7551       7562       7561  
      7430       7431       7442       7441       7551       7552       7563       7562  
      7431       7432       7443       7442       7552       7553       7564       7563  
      7432       7433       7444       7443       7553       7554       7565       7564  
      7433       7434       7445       7444       7554       7555       7566       7565  
      7434       7435       7446       7445       7555       7556       7567       7566  
      7435       7436       7447       7446       7556       7557       7568       7567  
      7437       7438       7449       7448       7558       7559       7570       7569  
      7438       7439       7450       7449       7559       7560       7571       7570  
      7439       7440       7451       7450       7560       7561       7572       7571  
      7440       7441       7452       7451       7561       7562       7573       7572  
      7441       7442       7453       7452       7562       7563       7574       7573  
      7442       7443       7454       7453       7563       7564       7575       7574  
      7443       7444       7455       7454       7564       7565       7576       7575  
      7444       7445       7456       7455       7565       7566       7577       7576  
      7445       7446       7457       7456       7566       7567       7578       7577  
      7446       7447       7458       7457       7567       7568       7579       7578  
      7448       7449       7460       7459       7569       7570       7581       7580  
      7449       7450       7461       7460       7570       7571       7582       7581  
      7450       7451       7462       7461       7571       7572       7583       7582  
      7451       7452       7463       7462       7572       7573       7584       7583  
      7452       7453       7464       7463       7573       7574       7585       7584  
      7453       7454       7465       7464       7574       7575       7586       7585  
      7454       7455       7466       7465       7575       7576       7587       7586  
      7455       7456       7467       7466       7576       7577       7588       7587  
      7456       7457       7468       7467       7577       7578       7589       7588  
      7457       7458       7469       7468       7578       7579       7590       7589  
      7459       7460       7471       7470       7580       7581       7592       7591  
      7460       7461       7472       7471       7581       7582       7593       7592  
      7461       7462       7473       7472       7582       7583       7594       7593  
      7462       7463       7474       7473       7583       7584       7595       7594  
      7463       7464       7475       7474       7584       7585       7596       7595  
      7464       7465       7476       7475       7585       7586       7597       7596  
      7465       7466       7477       7476       7586       7587       7598       7597  
      7466       7467       7478       7477       7587       7588       7599       7598  
      7467       7468       7479       7478       7588       7589       7600       7599  
      7468       7469       7480       7479       7589       7590       7601       7600  
      7470       7471       7482       7481       7591       7592       7603       7602  
      7471       7472       7483       7482       7592       7593       7604       7603  
      7472       7473       7484       7483       7593       7594       7605       7604  
      7473       7474       7485       7484       7594       7595       7606       7605  
      7474       7475       7486       7485       7595       7596       7607       7606  
      7475       7476       7487       7486       7596       7597       7608       7607  
      7476       7477       7488       7487       7597       7598       7609       7608  
      7477       7478       7489       7488       7598       7599       7610       7609  
      7478       7479       7490       7489       7599       7600       7611       7610  
      7479       7480       7491       7490       7600       7601       7612       7611  
      7481       7482       7493       7492       7602       7603       7614       7613  
      7482       7483       7494       7493       7603       7604       7615       7614  
      7483       7484       7495       7494       7604       7605       7616       7615  
      7484       7485       7496       7495       7605       7606       7617       7616  
      7485       7486       7497       7496       7606       7607       7618       7617  
      7486       7487       7498       7497       7607       7608       7619       7618  
      7487       7488       7499       7498       7608       7609       7620       7619  
      7488       7489       7500       7499       7609       7610       7621       7620  
      7489       7490       7501       7500       7610       7611       7622       7621  
      7490       7491       7502       7501       7611       7612       7623       7622  
      7503       7504       7515       7514       7624       7625       7636       7635  
      7504       7505       7516       7515       7625       7626       7637       7636  
      7505       7506       7517       7516       7626       7627       7638       7637  
      7506       7507       7518       7517       7627       7628       7639       7638  
      7507       7508       7519       7518       7628       7629       7640       7639  
      7508       7509       7520       7519       7629       7630       7641       7640  
      7509       7510       7521       7520       7630       7631       7642       7641  
      7510       7511       7522       7521       7631       7632       7643       7642  
      7511       7512       7523       7522       7632       7633       7644       7643  
      7512       7513       7524       7523       7633       7634       7645       7644  
      7514       7515       7526       7525       7635       7636       7647       7646  
      7515       7516       7527       7526       7636       7637       7648       7647  
      7516       7517       7528       7527       7637       7638       7649       7648  
      7517       7518       7529       7528       7638       7639       7650       7649  
      7518       7519       7530       7529       7639       7640       7651       7650  
      7519       7520       7531       7530       7640       7641       7652       7651  
      7520       7521       7532       7531       7641       7642       7653       7652  
      7521       7522       7533       7532       7642       7643       7654       7653  
      7522       7523       7534       7533       7643       7644       7655       7654  
      7523       7524       7535       7534       7644       7645       7656       7655  
      7525       7526       7537       7536       7646       7647       7658       7657  
      7526       7527       7538       7537       7647       7648       7659       7658  
      7527       7528       7539       7538       7648       7649       7660       7659  
      7528       7529       7540       7539       7649       7650       7661       7660  
      7529       7530       7541       7540       7650       7651       7662       7661  
      7530       7531       7542       7541       7651       7652       7663       7662  
      7531       7532       7543       7542       7652       7653       7664       7663  
      7532       7533       7544       7543       7653       7654       7665       7664  
      7533       7534       7545       7544       7654       7655       7666       7665  
      7534       7535       7546       7545       7655       7656       7667       7666  
      7536       7537       7548       7547       7657       7658       7669       7668  
      7537       7538       7549       7548       7658       7659       7670       7669  
      7538       7539       7550       7549       7659       7660       7671       7670  
      7539       7540       7551       7550       7660       7661       7672       7671  
      7540       7541       7552       7551       7661       7662       7673       7672  
      7541       7542       7553       7552       7662       7663       7674       7673  
      7542       7543       7554       7553       7663       7664       7675       7674  
      7543       7544       7555       7554       7664       7665       7676       7675  
      7544       7545       7556       7555       7665       7666       7677       7676  
      7545       7546       7557       7556       7666       7667       7678       7677  
      7547       7548       7559       7558       7668       7669       7680       7679  
      7548       7549       7560       7559       7669       7670       7681       7680  
      7549       7550       7561       7560       7670       7671       7682       7681  
      7550       7551       7562       7561       7671       7672       7683       7682  
      7551       7552       7563       7562       7672       7673       7684       7683  
      7552       7553       7564       7563       7673       7674       7685       7684  
      7553       7554       7565       7564       7674       7675       7686       7685  
      7554       7555       7566       7565       7675       7676       7687       7686  
      7555       7556       7567       7566       7676       7677       7688       7687  
      7556       7557       7568       7567       7677       7678       7689       7688  
      7558       7559       7570       7569       7679       7680       7691       7690  
      7559       7560       7571       7570       7680       7681       7692       7691  
      7560       7561       7572       7571       7681       7682       7693       7692  
      7561       7562       7573       7572       7682       7683       7694       7693  
      7562       7563       7574       7573       7683       7684       7695       7694  
      7563       7564       7575       7574       7684       7685       7696       7695  
      7564       7565       7576       7575       7685       7686       7697       7696  
      7565       7566       7577       7576       7686       7687       7698       7697  
      7566       7567       7578       7577       7687       7688       7699       7698  
      7567       7568       7579       7578       7688       7689       7700       7699  
      7569       7570       7581       7580       7690       7691       7702       7701  
      7570       7571       7582       7581       7691       7692       7703       7702  
      7571       7572       7583       7582       7692       7693       7704       7703  
      7572       7573       7584       7583       7693       7694       7705       7704  
      7573       7574       7585       7584       7694       7695       7706       7705  
      7574       7575       7586       7585       7695       7696       7707       7706  
      7575       7576       7587       7586       7696       7697       7708       7707  
      7576       7577       7588       7587       7697       7698       7709       7708  
      7577       7578       7589       7588       7698       7699       7710       7709  
      7578       7579       7590       7589       7699       7700       7711       7710  
      7580       7581       7592       7591       7701       7702       7713       7712  
      7581       7582       7593       7592       7702       7703       7714       7713  
      7582       7583       7594       7593       7703       7704       7715       7714  
      7583       7584       7595       7594       7704       7705       7716       7715  
      7584       7585       7596       7595       7705       7706       7717       7716  
      7585       7586       7597       7596       7706       7707       7718       7717  
      7586       7587       7598       7597       7707       7708       7719       7718  
      7587       7588       7599       7598       7708       7709       7720       7719  
      7588       7589       7600       7599       7709       7710       7721       7720  
      7589       7590       7601       7600       7710       7711       7722       7721  
      7591       7592       7603       7602       7712       7713       7724       7723  
      7592       7593       7604       7603       7713       7714       7725       7724  
      7593       7594       7605       7604       7714       7715       7726       7725  
      7594       7595       7606       7605       7715       7716       7727       7726  
      7595       7596       7607       7606       7716       7717       7728       7727  
      7596       7597       7608       7607       7717       7718       7729       7728  
      7597       7598       7609       7608       7718       7719       7730       7729  
      7598       7599       7610       7609       7719       7720       7731       7730  
      7599       7600       7611       7610       7720       7721       7732       7731  
      7600       7601       7612       7611       7721       7722       7733       7732  
      7602       7603       7614       7613       7723       7724       7735       7734  
      7603       7604       7615       7614       7724       7725       7736       7735  
      7604       7605       7616       7615       7725       7726       7737       7736  
      7605       7606       7617       7616       7726       7727       7738       7737  
      7606       7607       7618       7617       7727       7728       7739       7738  
      7607       7608       7619       7618       7728       7729       7740       7739  
      7608       7609       7620       7619       7729       7730       7741       7740  
      7609       7610       7621       7620       7730       7731       7742       7741  
      7610       7611       7622       7621       7731       7732       7743       7742  
      7611       7612       7623       7622       7732       7733       7744       7743  
      7624       7625       7636       7635       7745       7746       7757       7756  
      7625       7626       7637       7636       7746       7747       7758       7757  
      7626       7627       7638       7637       7747       7748       7759       7758  
      7627       7628       7639       7638       7748       7749       7760       7759  
      7628       7629       7640       7639       7749       7750       7761       7760  
      7629       7630       7641       7640       7750       7751       7762       7761  
      7630       7631       7642       7641       7751       7752       7763       7762  
      7631       7632       7643       7642       7752       7753       7764       7763  
      7632       7633       7644       7643       7753       7754       7765       7764  
      7633       7634       7645       7644       7754       7755       7766       7765  
      7635       7636       7647       7646       7756       7757       7768       7767  
      7636       7637       7648       7647       7757       7758       7769       7768  
      7637       7638       7649       7648       7758       7759       7770       7769  
      7638       7639       7650       7649       7759       7760       7771       7770  
      7639       7640       7651       7650       7760       7761       7772       7771  
      7640       7641       7652       7651       7761       7762       7773       7772  
      7641       7642       7653       7652       7762       7763       7774       7773  
      7642       7643       7654       7653       7763       7764       7775       7774  
      7643       7644       7655       7654       7764       7765       7776       7775  
      7644       7645       7656       7655       7765       7766       7777       7776  
      7646       7647       7658       7657       7767       7768       7779       7778  
      7647       7648       7659       7658       7768       7769       7780       7779  
      7648       7649       7660       7659       7769       7770       7781       7780  
      7649       7650       7661       7660       7770       7771       7782       7781  
      7650       7651       7662       7661       7771       7772       7783       7782  
      7651       7652       7663       7662       7772       7773       7784       7783  
      7652       7653       7664       7663       7773       7774       7785       7784  
      7653       7654       7665       7664       7774       7775       7786       7785  
      7654       7655       7666       7665       7775       7776       7787       7786  
      7655       7656       7667       7666       7776       7777       7788       7787  
      7657       7658       7669       7668       7778       7779       7790       7789  
      7658       7659       7670       7669       7779       7780       7791       7790  
      7659       7660       7671       7670       7780       7781       7792       7791  
      7660       7661       7672       7671       7781       7782       7793       7792  
      7661       7662       7673       7672       7782       7783       7794       7793  
      7662       7663       7674       7673       7783       7784       7795       7794  
      7663       7664       7675       7674       7784       7785       7796       7795  
      7664       7665       7676       7675       7785       7786       7797       7796  
      7665       7666       7677       7676       7786       7787       7798       7797  
      7666       7667       7678       7677       7787       7788       7799       7798  
      7668       7669       7680       7679       7789       7790       7801       7800  
      7669       7670       7681       7680       7790       7791       7802       7801  
      7670       7671       7682       7681       7791       7792       7803       7802  
      7671       7672       7683       7682       7792       7793       7804       7803  
      7672       7673       7684       7683       7793       7794       7805       7804  
      7673       7674       7685       7684       7794       7795       7806       7805  
      7674       7675       7686       7685       7795       7796       7807       7806  
      7675       7676       7687       7686       7796       7797       7808       7807  
      7676       7677       7688       7687       7797       7798       7809       7808  
      7677       7678       7689       7688       7798       7799       7810       7809  
      7679       7680       7691       7690       7800       7801       7812       7811  
      7680       7681       7692       7691       7801       7802       7813       7812  
      7681       7682       7693       7692       7802       7803       7814       7813  
      7682       7683       7694       7693       7803       7804       7815       7814  
      7683       7684       7695       7694       7804       7805       7816       7815  
      7684       7685       7696       7695       7805       7806       7817       7816  
      7685       7686       7697       7696       7806       7807       7818       7817  
      7686       7687       7698       7697       7807       7808       7819       7818  
      7687       7688       7699       7698       7808       7809       7820       7819  
      7688       7689       7700       7699       7809       7810       7821       7820  
      7690       7691       7702       7701       7811       7812       7823       7822  
      7691       7692       7703       7702       7812       7813       7824       7823  
      7692       7693       7704       7703       7813       7814       7825       7824  
      7693       7694       7705       7704       7814       7815       7826       7825  
      7694       7695       7706       7705       7815       7816       7827       7826  
      7695       7696       7707       7706       7816       7817       7828       7827  
      7696       7697       7708       7707       7817       7818       7829       7828  
      7697       7698       7709       7708       7818       7819       7830       7829  
      7698       7699       7710       7709       7819       7820       7831       7830  
      7699       7700       7711       7710       7820       7821       7832       7831  
      7701       7702       7713       7712       7822       7823       7834       7833  
      7702       7703       7714       7713       7823       7824       7835       7834  
      7703       7704       7715       7714       7824       7825       7836       7835  
      7704       7705       7716       7715       7825       7826       7837       7836  
      7705       7706       7717       7716       7826       7827       7838       7837  
      7706       7707       7718       7717       7827       7828       7839       7838  
      7707       7708       7719       7718       7828       7829       7840       7839  
      7708       7709       7720       7719       7829       7830       7841       7840  
      7709       7710       7721       7720       7830       7831       7842       7841  
      7710       7711       7722       7721       7831       7832       7843       7842  
      7712       7713       7724       7723       7833       7834       7845       7844  
      7713       7714       7725       7724       7834       7835       7846       7845  
      7714       7715       7726       7725       7835       7836       7847       7846  
      7715       7716       7727       7726       7836       7837       7848       7847  
      7716       7717       7728       7727       7837       7838       7849       7848  
      7717       7718       7729       7728       7838       7839       7850       7849  
      7718       7719       7730       7729       7839       7840       7851       7850  
      7719       7720       7731       7730       7840       7841       7852       7851  
      7720       7721       7732       7731       7841       7842       7853       7852  
      7721       7722       7733       7732       7842       7843       7854       7853  
      7723       7724       7735       7734       7844       7845       7856       7855  
      7724       7725       7736       7735       7845       7846       7857       7856  
      7725       7726       7737       7736       7846       7847       7858       7857  
      7726       7727       7738       7737       7847       7848       7859       7858  
      7727       7728       7739       7738       7848       7849       7860       7859  
      7728       7729       7740       7739       7849       7850       7861       7860  
      7729       7730       7741       7740       7850       7851       7862       7861  
      7730       7731       7742       7741       7851       7852       7863       7862  
      7731       7732       7743       7742       7852       7853       7864       7863  
      7732       7733       7744       7743       7853       7854       7865       7864  
      7745       7746       7757       7756       7866       7867       7878       7877  
      7746       7747       7758       7757       7867       7868       7879       7878  
      7747       7748       7759       7758       7868       7869       7880       7879  
      7748       7749       7760       7759       7869       7870       7881       7880  
      7749       7750       7761       7760       7870       7871       7882       7881  
      7750       7751       7762       7761       7871       7872       7883       7882  
      7751       7752       7763       7762       7872       7873       7884       7883  
      7752       7753       7764       7763       7873       7874       7885       7884  
      7753       7754       7765       7764       7874       7875       7886       7885  
      7754       7755       7766       7765       7875       7876       7887       7886  
      7756       7757       7768       7767       7877       7878       7889       7888  
      7757       7758       7769       7768       7878       7879       7890       7889  
      7758       7759       7770       7769       7879       7880       7891       7890  
      7759       7760       7771       7770       7880       7881       7892       7891  
      7760       7761       7772       7771       7881       7882       7893       7892  
      7761       7762       7773       7772       7882       7883       7894       7893  
      7762       7763       7774       7773       7883       7884       7895       7894  
      7763       7764       7775       7774       7884       7885       7896       7895  
      7764       7765       7776       7775       7885       7886       7897       7896  
      7765       7766       7777       7776       7886       7887       7898       7897  
      7767       7768       7779       7778       7888       7889       7900       7899  
      7768       7769       7780       7779       7889       7890       7901       7900  
      7769       7770       7781       7780       7890       7891       7902       7901  
      7770       7771       7782       7781       7891       7892       7903       7902  
      7771       7772       7783       7782       7892       7893       7904       7903  
      7772       7773       7784       7783       7893       7894       7905       7904  
      7773       7774       7785       7784       7894       7895       7906       7905  
      7774       7775       7786       7785       7895       7896       7907       7906  
      7775       7776       7787       7786       7896       7897       7908       7907  
      7776       7777       7788       7787       7897       7898       7909       7908  
      7778       7779       7790       7789       7899       7900       7911       7910  
      7779       7780       7791       7790       7900       7901       7912       7911  
      7780       7781       7792       7791       7901       7902       7913       7912  
      7781       7782       7793       7792       7902       7903       7914       7913  
      7782       7783       7794       7793       7903       7904       7915       7914  
      7783       7784       7795       7794       7904       7905       7916       7915  
      7784       7785       7796       7795       7905       7906       7917       7916  
      7785       7786       7797       7796       7906       7907       7918       7917  
      7786       7787       7798       7797       7907       7908       7919       7918  
      7787       7788       7799       7798       7908       7909       7920       7919  
      7789       7790       7801       7800       7910       7911       7922       7921  
      7790       7791       7802       7801       7911       7912       7923       7922  
      7791       7792       7803       7802       7912       7913       7924       7923  
      7792       7793       7804       7803       7913       7914       7925       7924  
      7793       7794       7805       7804       7914       7915       7926       7925  
      7794       7795       7806       7805       7915       7916       7927       7926  
      7795       7796       7807       7806       7916       7917       7928       7927  
      7796       7797       7808       7807       7917       7918       7929       7928  
      7797       7798       7809       7808       7918       7919       7930       7929  
      7798       7799       7810       7809       7919       7920       7931       7930  
      7800       7801       7812       7811       7921       7922       7933       7932  
      7801       7802       7813       7812       7922       7923       7934       7933  
      7802       7803       7814       7813       7923       7924       7935       7934  
      7803       7804       7815       7814       7924       7925       7936       7935  
      7804       7805       7816       7815       7925       7926       7937       7936  
      7805       7806       7817       7816       7926       7927       7938       7937  
      7806       7807       7818       7817       7927       7928       7939       7938  
      7807       7808       7819       7818       7928       7929       7940       7939  
      7808       7809       7820       7819       7929       7930       7941       7940  
      7809       7810       7821       7820       7930       7931       7942       7941  
      7811       7812       7823       7822       7932       7933       7944       7943  
      7812       7813       7824       7823       7933       7934       7945       7944  
      7813       7814       7825       7824       7934       7935       7946       7945  
      7814       7815       7826       7825       7935       7936       7947       7946  
      7815       7816       7827       7826       7936       7937       7948       7947  
      7816       7817       7828       7827       7937       7938       7949       7948  
      7817       7818       7829       7828       7938       7939       7950       7949  
      7818       7819       7830       7829       7939       7940       7951       7950  
      7819       7820       7831       7830       7940       7941       7952       7951  
      7820       7821       7832       7831       7941       7942       7953       7952  
      7822       7823       7834       7833       7943       7944       7955       7954  
      7823       7824       7835       7834       7944       7945       7956       7955  
      7824       7825       7836       7835       7945       7946       7957       7956  
      7825       7826       7837       7836       7946       7947       7958       7957  
      7826       7827       7838       7837       7947       7948       7959       7958  
      7827       7828       7839       7838       7948       7949       7960       7959  
      7828       7829       7840       7839       7949       7950       7961       7960  
      7829       7830       7841       7840       7950       7951       7962       7961  
      7830       7831       7842       7841       7951       7952       7963       7962  
      7831       7832       7843       7842       7952       7953       7964       7963  
      7833       7834       7845       7844       7954       7955       7966       7965  
      7834       7835       7846       7845       7955       7956       7967       7966  
      7835       7836       7847       7846       7956       7957       7968       7967  
      7836       7837       7848       7847       7957       7958       7969       7968  
      7837       7838       7849       7848       7958       7959       7970       7969  
      7838       7839       7850       7849       7959       7960       7971       7970  
      7839       7840       7851       7850       7960       7961       7972       7971  
      7840       7841       7852       7851       7961       7962       7973       7972  
      7841       7842       7853       7852       7962       7963       7974       7973  
      7842       7843       7854       7853       7963       7964       7975       7974  
      7844       7845       7856       7855       7965       7966       7977       7976  
      7845       7846       7857       7856       7966       7967       7978       7977  
      7846       7847       7858       7857       7967       7968       7979       7978  
      7847       7848       7859       7858       7968       7969       7980       7979  
      7848       7849       7860       7859       7969       7970       7981       7980  
      7849       7850       7861       7860       7970       7971       7982       7981  
      7850       7851       7862       7861       7971       7972       7983       7982  
      7851       7852       7863       7862       7972       7973       7984       7983  
      7852       7853       7864       7863       7973       7974       7985       7984  
      7853       7854       7865       7864       7974       7975       7986       7985  
      7866       7867       7878       7877       7987       7988       7999       7998  
      7867       7868       7879       7878       7988       7989       8000       7999  
      7868       7869       7880       7879       7989       7990       8001       8000  
      7869       7870       7881       7880       7990       7991       8002       8001  
      7870       7871       7882       7881       7991       7992       8003       8002  
      7871       7872       7883       7882       7992       7993       8004       8003  
      7872       7873       7884       7883       7993       7994       8005       8004  
      7873       7874       7885       7884       7994       7995       8006       8005  
      7874       7875       7886       7885       7995       7996       8007       8006  
      7875       7876       7887       7886       7996       7997       8008       8007  
      7877       7878       7889       7888       7998       7999       8010       8009  
      7878       7879       7890       7889       7999       8000       8011       8010  
      7879       7880       7891       7890       8000       8001       8012       8011  
      7880       7881       7892       7891       8001       8002       8013       8012  
      7881       7882       7893       7892       8002       8003       8014       8013  
      7882       7883       7894       7893       8003       8004       8015       8014  
      7883       7884       7895       7894       8004       8005       8016       8015  
      7884       7885       7896       7895       8005       8006       8017       8016  
      7885       7886       7897       7896       8006       8007       8018       8017  
      7886       7887       7898       7897       8007       8008       8019       8018  
      7888       7889       7900       7899       8009       8010       8021       8020  
      7889       7890       7901       7900       8010       8011       8022       8021  
      7890       7891       7902       7901       8011       8012       8023       8022  
      7891       7892       7903       7902       8012       8013       8024       8023  
      7892       7893       7904       7903       8013       8014       8025       8024  
      7893       7894       7905       7904       8014       8015       8026       8025  
      7894       7895       7906       7905       8015       8016       8027       8026  
      7895       7896       7907       7906       8016       8017       8028       8027  
      7896       7897       7908       7907       8017       8018       8029       8028  
      7897       7898       7909       7908       8018       8019       8030       8029  
      7899       7900       7911       7910       8020       8021       8032       8031  
      7900       7901       7912       7911       8021       8022       8033       8032  
      7901       7902       7913       7912       8022       8023       8034       8033  
      7902       7903       7914       7913       8023       8024       8035       8034  
      7903       7904       7915       7914       8024       8025       8036       8035  
      7904       7905       7916       7915       8025       8026       8037       8036  
      7905       7906       7917       7916       8026       8027       8038       8037  
      7906       7907       7918       7917       8027       8028       8039       8038  
      7907       7908       7919       7918       8028       8029       8040       8039  
      7908       7909       7920       7919       8029       8030       8041       8040  
      7910       7911       7922       7921       8031       8032       8043       8042  
      7911       7912       7923       7922       8032       8033       8044       8043  
      7912       7913       7924       7923       8033       8034       8045       8044  
      7913       7914       7925       7924       8034       8035       8046       8045  
      7914       7915       7926       7925       8035       8036       8047       8046  
      7915       7916       7927       7926       8036       8037       8048       8047  
      7916       7917       7928       7927       8037       8038       8049       8048  
      7917       7918       7929       7928       8038       8039       8050       8049  
      7918       7919       7930       7929       8039       8040       8051       8050  
      7919       7920       7931       7930       8040       8041       8052       8051  
      7921       7922       7933       7932       8042       8043       8054       8053  
      7922       7923       7934       7933       8043       8044       8055       8054  
      7923       7924       7935       7934       8044       8045       8056       8055  
      7924       7925       7936       7935       8045       8046       8057       8056  
      7925       7926       7937       7936       8046       8047       8058       8057  
      7926       7927       7938       7937       8047       8048       8059       8058  
      7927       7928       7939       7938       8048       8049       8060       8059  
      7928       7929       7940       7939       8049       8050       8061       8060  
      7929       7930       7941       7940       8050       8051       8062       8061  
      7930       7931       7942       7941       8051       8052       8063       8062  
      7932       7933       7944       7943       8053       8054       8065       8064  
      7933       7934       7945       7944       8054       8055       8066       8065  
      7934       7935       7946       7945       8055       8056       8067       8066  
      7935       7936       7947       7946       8056       8057       8068       8067  
      7936       7937       7948       7947       8057       8058       8069       8068  
      7937       7938       7949       7948       8058       8059       8070       8069  
      7938       7939       7950       7949       8059       8060       8071       8070  
      7939       7940       7951       7950       8060       8061       8072       8071  
      7940       7941       7952       7951       8061       8062       8073       8072  
      7941       7942       7953       7952       8062       8063       8074       8073  
      7943       7944       7955       7954       8064       8065       8076       8075  
      7944       7945       7956       7955       8065       8066       8077       8076  
      7945       7946       7957       7956       8066       8067       8078       8077  
      7946       7947       7958       7957       8067       8068       8079       8078  
      7947       7948       7959       7958       8068       8069       8080       8079  
      7948       7949       7960       7959       8069       8070       8081       8080  
      7949       7950       7961       7960       8070       8071       8082       8081  
      7950       7951       7962       7961       8071       8072       8083       8082  
      7951       7952       7963       7962       8072       8073       8084       8083  
      7952       7953       7964       7963       8073       8074       8085       8084  
      7954       7955       7966       7965       8075       8076       8087       8086  
      7955       7956       7967       7966       8076       8077       8088       8087  
      7956       7957       7968       7967       8077       8078       8089       8088  
      7957       7958       7969       7968       8078       8079       8090       8089  
      7958       7959       7970       7969       8079       8080       8091       8090  
      7959       7960       7971       7970       8080       8081       8092       8091  
      7960       7961       7972       7971       8081       8082       8093       8092  
      7961       7962       7973       7972       8082       8083       8094       8093  
      7962       7963       7974       7973       8083       8084       8095       8094  
      7963       7964       7975       7974       8084       8085       8096       8095  
      7965       7966       7977       7976       8086       8087       8098       8097  
      7966       7967       7978       7977       8087       8088       8099       8098  
      7967       7968       7979       7978       8088       8089       8100       8099  
      7968       7969       7980       7979       8089       8090       8101       8100  
      7969       7970       7981       7980       8090       8091       8102       8101  
      7970       7971       7982       7981       8091       8092       8103       8102  
      7971       7972       7983       7982       8092       8093       8104       8103  
      7972       7973       7984       7983       8093       8094       8105       8104  
      7973       7974       7985       7984       8094       8095       8106       8105  
      7974       7975       7986       7985       8095       8096       8107       8106  
      7987       7988       7999       7998       8108       8109       8120       8119  
      7988       7989       8000       7999       8109       8110       8121       8120  
      7989       7990       8001       8000       8110       8111       8122       8121  
      7990       7991       8002       8001       8111       8112       8123       8122  
      7991       7992       8003       8002       8112       8113       8124       8123  
      7992       7993       8004       8003       8113       8114       8125       8124  
      7993       7994       8005       8004       8114       8115       8126       8125  
      7994       7995       8006       8005       8115       8116       8127       8126  
      7995       7996       8007       8006       8116       8117       8128       8127  
      7996       7997       8008       8007       8117       8118       8129       8128  
      7998       7999       8010       8009       8119       8120       8131       8130  
      7999       8000       8011       8010       8120       8121       8132       8131  
      8000       8001       8012       8011       8121       8122       8133       8132  
      8001       8002       8013       8012       8122       8123       8134       8133  
      8002       8003       8014       8013       8123       8124       8135       8134  
      8003       8004       8015       8014       8124       8125       8136       8135  
      8004       8005       8016       8015       8125       8126       8137       8136  
      8005       8006       8017       8016       8126       8127       8138       8137  
      8006       8007       8018       8017       8127       8128       8139       8138  
      8007       8008       8019       8018       8128       8129       8140       8139  
      8009       8010       8021       8020       8130       8131       8142       8141  
      8010       8011       8022       8021       8131       8132       8143       8142  
      8011       8012       8023       8022       8132       8133       8144       8143  
      8012       8013       8024       8023       8133       8134       8145       8144  
      8013       8014       8025       8024       8134       8135       8146       8145  
      8014       8015       8026       8025       8135       8136       8147       8146  
      8015       8016       8027       8026       8136       8137       8148       8147  
      8016       8017       8028       8027       8137       8138       8149       8148  
      8017       8018       8029       8028       8138       8139       8150       8149  
      8018       8019       8030       8029       8139       8140       8151       8150  
      8020       8021       8032       8031       8141       8142       8153       8152  
      8021       8022       8033       8032       8142       8143       8154       8153  
      8022       8023       8034       8033       8143       8144       8155       8154  
      8023       8024       8035       8034       8144       8145       8156       8155  
      8024       8025       8036       8035       8145       8146       8157       8156  
      8025       8026       8037       8036       8146       8147       8158       8157  
      8026       8027       8038       8037       8147       8148       8159       8158  
      8027       8028       8039       8038       8148       8149       8160       8159  
      8028       8029       8040       8039       8149       8150       8161       8160  
      8029       8030       8041       8040       8150       8151       8162       8161  
      8031       8032       8043       8042       8152       8153       8164       8163  
      8032       8033       8044       8043       8153       8154       8165       8164  
      8033       8034       8045       8044       8154       8155       8166       8165  
      8034       8035       8046       8045       8155       8156       8167       8166  
      8035       8036       8047       8046       8156       8157       8168       8167  
      8036       8037       8048       8047       8157       8158       8169       8168  
      8037       8038       8049       8048       8158       8159       8170       8169  
      8038       8039       8050       8049       8159       8160       8171       8170  
      8039       8040       8051       8050       8160       8161       8172       8171  
      8040       8041       8052       8051       8161       8162       8173       8172  
      8042       8043       8054       8053       8163       8164       8175       8174  
      8043       8044       8055       8054       8164       8165       8176       8175  
      8044       8045       8056       8055       8165       8166       8177       8176  
      8045       8046       8057       8056       8166       8167       8178       8177  
      8046       8047       8058       8057       8167       8168       8179       8178  
      8047       8048       8059       8058       8168       8169       8180       8179  
      8048       8049       8060       8059       8169       8170       8181       8180  
      8049       8050       8061       8060       8170       8171       8182       8181  
      8050       8051       8062       8061       8171       8172       8183       8182  
      8051       8052       8063       8062       8172       8173       8184       8183  
      8053       8054       8065       8064       8174       8175       8186       8185  
      8054       8055       8066       8065       8175       8176       8187       8186  
      8055       8056       8067       8066       8176       8177       8188       8187  
      8056       8057       8068       8067       8177       8178       8189       8188  
      8057       8058       8069       8068       8178       8179       8190       8189  
      8058       8059       8070       8069       8179       8180       8191       8190  
      8059       8060       8071       8070       8180       8181       8192       8191  
      8060       8061       8072       8071       8181       8182       8193       8192  
      8061       8062       8073       8072       8182       8183       8194       8193  
      8062       8063       8074       8073       8183       8184       8195       8194  
      8064       8065       8076       8075       8185       8186       8197       8196  
      8065       8066       8077       8076       8186       8187       8198       8197  
      8066       8067       8078       8077       8187       8188       8199       8198  
      8067       8068       8079       8078       8188       8189       8200       8199  
      8068       8069       8080       8079       8189       8190       8201       8200  
      8069       8070       8081       8080       8190       8191       8202       8201  
      8070       8071       8082       8081       8191       8192       8203       8202  
      8071       8072       8083       8082       8192       8193       8204       8203  
      8072       8073       8084       8083       8193       8194       8205       8204  
      8073       8074       8085       8084       8194       8195       8206       8205  
      8075       8076       8087       8086       8196       8197       8208       8207  
      8076       8077       8088       8087       8197       8198       8209       8208  
      8077       8078       8089       8088       8198       8199       8210       8209  
      8078       8079       8090       8089       8199       8200       8211       8210  
      8079       8080       8091       8090       8200       8201       8212       8211  
      8080       8081       8092       8091       8201       8202       8213       8212  
      8081       8082       8093       8092       8202       8203       8214       8213  
      8082       8083       8094       8093       8203       8204       8215       8214  
      8083       8084       8095       8094       8204       8205       8216       8215  
      8084       8085       8096       8095       8205       8206       8217       8216  
      8086       8087       8098       8097       8207       8208       8219       8218  
      8087       8088       8099       8098       8208       8209       8220       8219  
      8088       8089       8100       8099       8209       8210       8221       8220  
      8089       8090       8101       8100       8210       8211       8222       8221  
      8090       8091       8102       8101       8211       8212       8223       8222  
      8091       8092       8103       8102       8212       8213       8224       8223  
      8092       8093       8104       8103       8213       8214       8225       8224  
      8093       8094       8105       8104       8214       8215       8226       8225  
      8094       8095       8106       8105       8215       8216       8227       8226  
      8095       8096       8107       8106       8216       8217       8228       8227  
      8108       8109       8120       8119       8229       8230       8241       8240  
      8109       8110       8121       8120       8230       8231       8242       8241  
      8110       8111       8122       8121       8231       8232       8243       8242  
      8111       8112       8123       8122       8232       8233       8244       8243  
      8112       8113       8124       8123       8233       8234       8245       8244  
      8113       8114       8125       8124       8234       8235       8246       8245  
      8114       8115       8126       8125       8235       8236       8247       8246  
      8115       8116       8127       8126       8236       8237       8248       8247  
      8116       8117       8128       8127       8237       8238       8249       8248  
      8117       8118       8129       8128       8238       8239       8250       8249  
      8119       8120       8131       8130       8240       8241       8252       8251  
      8120       8121       8132       8131       8241       8242       8253       8252  
      8121       8122       8133       8132       8242       8243       8254       8253  
      8122       8123       8134       8133       8243       8244       8255       8254  
      8123       8124       8135       8134       8244       8245       8256       8255  
      8124       8125       8136       8135       8245       8246       8257       8256  
      8125       8126       8137       8136       8246       8247       8258       8257  
      8126       8127       8138       8137       8247       8248       8259       8258  
      8127       8128       8139       8138       8248       8249       8260       8259  
      8128       8129       8140       8139       8249       8250       8261       8260  
      8130       8131       8142       8141       8251       8252       8263       8262  
      8131       8132       8143       8142       8252       8253       8264       8263  
      8132       8133       8144       8143       8253       8254       8265       8264  
      8133       8134       8145       8144       8254       8255       8266       8265  
      8134       8135       8146       8145       8255       8256       8267       8266  
      8135       8136       8147       8146       8256       8257       8268       8267  
      8136       8137       8148       8147       8257       8258       8269       8268  
      8137       8138       8149       8148       8258       8259       8270       8269  
      8138       8139       8150       8149       8259       8260       8271       8270  
      8139       8140       8151       8150       8260       8261       8272       8271  
      8141       8142       8153       8152       8262       8263       8274       8273  
      8142       8143       8154       8153       8263       8264       8275       8274  
      8143       8144       8155       8154       8264       8265       8276       8275  
      8144       8145       8156       8155       8265       8266       8277       8276  
      8145       8146       8157       8156       8266       8267       8278       8277  
      8146       8147       8158       8157       8267       8268       8279       8278  
      8147       8148       8159       8158       8268       8269       8280       8279  
      8148       8149       8160       8159       8269       8270       8281       8280  
      8149       8150       8161       8160       8270       8271       8282       8281  
      8150       8151       8162       8161       8271       8272       8283       8282  
      8152       8153       8164       8163       8273       8274       8285       8284  
      8153       8154       8165       8164       8274       8275       8286       8285  
      8154       8155       8166       8165       8275       8276       8287       8286  
      8155       8156       8167       8166       8276       8277       8288       8287  
      8156       8157       8168       8167       8277       8278       8289       8288  
      8157       8158       8169       8168       8278       8279       8290       8289  
      8158       8159       8170       8169       8279       8280       8291       8290  
      8159       8160       8171       8170       8280       8281       8292       8291  
      8160       8161       8172       8171       8281       8282       8293       8292  
      8161       8162       8173       8172       8282       8283       8294       8293  
      8163       8164       8175       8174       8284       8285       8296       8295  
      8164       8165       8176       8175       8285       8286       8297       8296  
      8165       8166       8177       8176       8286       8287       8298       8297  
      8166       8167       8178       8177       8287       8288       8299       8298  
      8167       8168       8179       8178       8288       8289       8300       8299  
      8168       8169       8180       8179       8289       8290       8301       8300  
      8169       8170       8181       8180       8290       8291       8302       8301  
      8170       8171       8182       8181       8291       8292       8303       8302  
      8171       8172       8183       8182       8292       8293       8304       8303  
      8172       8173       8184       8183       8293       8294       8305       8304  
      8174       8175       8186       8185       8295       8296       8307       8306  
      8175       8176       8187       8186       8296       8297       8308       8307  
      8176       8177       8188       8187       8297       8298       8309       8308  
      8177       8178       8189       8188       8298       8299       8310       8309  
      8178       8179       8190       8189       8299       8300       8311       8310  
      8179       8180       8191       8190       8300       8301       8312       8311  
      8180       8181       8192       8191       8301       8302       8313       8312  
      8181       8182       8193       8192       8302       8303       8314       8313  
      8182       8183       8194       8193       8303       8304       8315       8314  
      8183       8184       8195       8194       8304       8305       8316       8315  
      8185       8186       8197       8196       8306       8307       8318       8317  
      8186       8187       8198       8197       8307       8308       8319       8318  
      8187       8188       8199       8198       8308       8309       8320       8319  
      8188       8189       8200       8199       8309       8310       8321       8320  
      8189       8190       8201       8200       8310       8311       8322       8321  
      8190       8191       8202       8201       8311       8312       8323       8322  
      8191       8192       8203       8202       8312       8313       8324       8323  
      8192       8193       8204       8203       8313       8314       8325       8324  
      8193       8194       8205       8204       8314       8315       8326       8325  
      8194       8195       8206       8205       8315       8316       8327       8326  
      8196       8197       8208       8207       8317       8318       8329       8328  
      8197       8198       8209       8208       8318       8319       8330       8329  
      8198       8199       8210       8209       8319       8320       8331       8330  
      8199       8200       8211       8210       8320       8321       8332       8331  
      8200       8201       8212       8211       8321       8322       8333       8332  
      8201       8202       8213       8212       8322       8323       8334       8333  
      8202       8203       8214       8213       8323       8324       8335       8334  
      8203       8204       8215       8214       8324       8325       8336       8335  
      8204       8205       8216       8215       8325       8326       8337       8336  
      8205       8206       8217       8216       8326       8327       8338       8337  
      8207       8208       8219       8218       8328       8329       8340       8339  
      8208       8209       8220       8219       8329       8330       8341       8340  
      8209       8210       8221       8220       8330       8331       8342       8341  
      8210       8211       8222       8221       8331       8332       8343       8342  
      8211       8212       8223       8222       8332       8333       8344       8343  
      8212       8213       8224       8223       8333       8334       8345       8344  
      8213       8214       8225       8224       8334       8335       8346       8345  
      8214       8215       8226       8225       8335       8336       8347       8346  
      8215       8216       8227       8226       8336       8337       8348       8347  
      8216       8217       8228       8227       8337       8338       8349       8348  
      8229       8230       8241       8240       8350       8351       8362       8361  
      8230       8231       8242       8241       8351       8352       8363       8362  
      8231       8232       8243       8242       8352       8353       8364       8363  
      8232       8233       8244       8243       8353       8354       8365       8364  
      8233       8234       8245       8244       8354       8355       8366       8365  
      8234       8235       8246       8245       8355       8356       8367       8366  
      8235       8236       8247       8246       8356       8357       8368       8367  
      8236       8237       8248       8247       8357       8358       8369       8368  
      8237       8238       8249       8248       8358       8359       8370       8369  
      8238       8239       8250       8249       8359       8360       8371       8370  
      8240       8241       8252       8251       8361       8362       8373       8372  
      8241       8242       8253       8252       8362       8363       8374       8373  
      8242       8243       8254       8253       8363       8364       8375       8374  
      8243       8244       8255       8254       8364       8365       8376       8375  
      8244       8245       8256       8255       8365       8366       8377       8376  
      8245       8246       8257       8256       8366       8367       8378       8377  
      8246       8247       8258       8257       8367       8368       8379       8378  
      8247       8248       8259       8258       8368       8369       8380       8379  
      8248       8249       8260       8259       8369       8370       8381       8380  
      8249       8250       8261       8260       8370       8371       8382       8381  
      8251       8252       8263       8262       8372       8373       8384       8383  
      8252       8253       8264       8263       8373       8374       8385       8384  
      8253       8254       8265       8264       8374       8375       8386       8385  
      8254       8255       8266       8265       8375       8376       8387       8386  
      8255       8256       8267       8266       8376       8377       8388       8387  
      8256       8257       8268       8267       8377       8378       8389       8388  
      8257       8258       8269       8268       8378       8379       8390       8389  
      8258       8259       8270       8269       8379       8380       8391       8390  
      8259       8260       8271       8270       8380       8381       8392       8391  
      8260       8261       8272       8271       8381       8382       8393       8392  
      8262       8263       8274       8273       8383       8384       8395       8394  
      8263       8264       8275       8274       8384       8385       8396       8395  
      8264       8265       8276       8275       8385       8386       8397       8396  
      8265       8266       8277       8276       8386       8387       8398       8397  
      8266       8267       8278       8277       8387       8388       8399       8398  
      8267       8268       8279       8278       8388       8389       8400       8399  
      8268       8269       8280       8279       8389       8390       8401       8400  
      8269       8270       8281       8280       8390       8391       8402       8401  
      8270       8271       8282       8281       8391       8392       8403       8402  
      8271       8272       8283       8282       8392       8393       8404       8403  
      8273       8274       8285       8284       8394       8395       8406       8405  
      8274       8275       8286       8285       8395       8396       8407       8406  
      8275       8276       8287       8286       8396       8397       8408       8407  
      8276       8277       8288       8287       8397       8398       8409       8408  
      8277       8278       8289       8288       8398       8399       8410       8409  
      8278       8279       8290       8289       8399       8400       8411       8410  
      8279       8280       8291       8290       8400       8401       8412       8411  
      8280       8281       8292       8291       8401       8402       8413       8412  
      8281       8282       8293       8292       8402       8403       8414       8413  
      8282       8283       8294       8293       8403       8404       8415       8414  
      8284       8285       8296       8295       8405       8406       8417       8416  
      8285       8286       8297       8296       8406       8407       8418       8417  
      8286       8287       8298       8297       8407       8408       8419       8418  
      8287       8288       8299       8298       8408       8409       8420       8419  
      8288       8289       8300       8299       8409       8410       8421       8420  
      8289       8290       8301       8300       8410       8411       8422       8421  
      8290       8291       8302       8301       8411       8412       8423       8422  
      8291       8292       8303       8302       8412       8413       8424       8423  
      8292       8293       8304       8303       8413       8414       8425       8424  
      8293       8294       8305       8304       8414       8415       8426       8425  
      8295       8296       8307       8306       8416       8417       8428       8427  
      8296       8297       8308       8307       8417       8418       8429       8428  
      8297       8298       8309       8308       8418       8419       8430       8429  
      8298       8299       8310       8309       8419       8420       8431       8430  
      8299       8300       8311       8310       8420       8421       8432       8431  
      8300       8301       8312       8311       8421       8422       8433       8432  
      8301       8302       8313       8312       8422       8423       8434       8433  
      8302       8303       8314       8313       8423       8424       8435       8434  
      8303       8304       8315       8314       8424       8425       8436       8435  
      8304       8305       8316       8315       8425       8426       8437       8436  
      8306       8307       8318       8317       8427       8428       8439       8438  
      8307       8308       8319       8318       8428       8429       8440       8439  
      8308       8309       8320       8319       8429       8430       8441       8440  
      8309       8310       8321       8320       8430       8431       8442       8441  
      8310       8311       8322       8321       8431       8432       8443       8442  
      8311       8312       8323       8322       8432       8433       8444       8443  
      8312       8313       8324       8323       8433       8434       8445       8444  
      8313       8314       8325       8324       8434       8435       8446       8445  
      8314       8315       8326       8325       8435       8436       8447       8446  
      8315       8316       8327       8326       8436       8437       8448       8447  
      8317       8318       8329       8328       8438       8439       8450       8449  
      8318       8319       8330       8329       8439       8440       8451       8450  
      8319       8320       8331       8330       8440       8441       8452       8451  
      8320       8321       8332       8331       8441       8442       8453       8452  
      8321       8322       8333       8332       8442       8443       8454       8453  
      8322       8323       8334       8333       8443       8444       8455       8454  
      8323       8324       8335       8334       8444       8445       8456       8455  
      8324       8325       8336       8335       8445       8446       8457       8456  
      8325       8326       8337       8336       8446       8447       8458       8457  
      8326       8327       8338       8337       8447       8448       8459       8458  
      8328       8329       8340       8339       8449       8450       8461       8460  
      8329       8330       8341       8340       8450       8451       8462       8461  
      8330       8331       8342       8341       8451       8452       8463       8462  
      8331       8332       8343       8342       8452       8453       8464       8463  
      8332       8333       8344       8343       8453       8454       8465       8464  
      8333       8334       8345       8344       8454       8455       8466       8465  
      8334       8335       8346       8345       8455       8456       8467       8466  
      8335       8336       8347       8346       8456       8457       8468       8467  
      8336       8337       8348       8347       8457       8458       8469       8468  
      8337       8338       8349       8348       8458       8459       8470       8469  
      8350       8351       8362       8361       8471       8472       8483       8482  
      8351       8352       8363       8362       8472       8473       8484       8483  
      8352       8353       8364       8363       8473       8474       8485       8484  
      8353       8354       8365       8364       8474       8475       8486       8485  
      8354       8355       8366       8365       8475       8476       8487       8486  
      8355       8356       8367       8366       8476       8477       8488       8487  
      8356       8357       8368       8367       8477       8478       8489       8488  
      8357       8358       8369       8368       8478       8479       8490       8489  
      8358       8359       8370       8369       8479       8480       8491       8490  
      8359       8360       8371       8370       8480       8481       8492       8491  
      8361       8362       8373       8372       8482       8483       8494       8493  
      8362       8363       8374       8373       8483       8484       8495       8494  
      8363       8364       8375       8374       8484       8485       8496       8495  
      8364       8365       8376       8375       8485       8486       8497       8496  
      8365       8366       8377       8376       8486       8487       8498       8497  
      8366       8367       8378       8377       8487       8488       8499       8498  
      8367       8368       8379       8378       8488       8489       8500       8499  
      8368       8369       8380       8379       8489       8490       8501       8500  
      8369       8370       8381       8380       8490       8491       8502       8501  
      8370       8371       8382       8381       8491       8492       8503       8502  
      8372       8373       8384       8383       8493       8494       8505       8504  
      8373       8374       8385       8384       8494       8495       8506       8505  
      8374       8375       8386       8385       8495       8496       8507       8506  
      8375       8376       8387       8386       8496       8497       8508       8507  
      8376       8377       8388       8387       8497       8498       8509       8508  
      8377       8378       8389       8388       8498       8499       8510       8509  
      8378       8379       8390       8389       8499       8500       8511       8510  
      8379       8380       8391       8390       8500       8501       8512       8511  
      8380       8381       8392       8391       8501       8502       8513       8512  
      8381       8382       8393       8392       8502       8503       8514       8513  
      8383       8384       8395       8394       8504       8505       8516       8515  
      8384       8385       8396       8395       8505       8506       8517       8516  
      8385       8386       8397       8396       8506       8507       8518       8517  
      8386       8387       8398       8397       8507       8508       8519       8518  
      8387       8388       8399       8398       8508       8509       8520       8519  
      8388       8389       8400       8399       8509       8510       8521       8520  
      8389       8390       8401       8400       8510       8511       8522       8521  
      8390       8391       8402       8401       8511       8512       8523       8522  
      8391       8392       8403       8402       8512       8513       8524       8523  
      8392       8393       8404       8403       8513       8514       8525       8524  
      8394       8395       8406       8405       8515       8516       8527       8526  
      8395       8396       8407       8406       8516       8517       8528       8527  
      8396       8397       8408       8407       8517       8518       8529       8528  
      8397       8398       8409       8408       8518       8519       8530       8529  
      8398       8399       8410       8409       8519       8520       8531       8530  
      8399       8400       8411       8410       8520       8521       8532       8531  
      8400       8401       8412       8411       8521       8522       8533       8532  
      8401       8402       8413       8412       8522       8523       8534       8533  
      8402       8403       8414       8413       8523       8524       8535       8534  
      8403       8404       8415       8414       8524       8525       8536       8535  
      8405       8406       8417       8416       8526       8527       8538       8537  
      8406       8407       8418       8417       8527       8528       8539       8538  
      8407       8408       8419       8418       8528       8529       8540       8539  
      8408       8409       8420       8419       8529       8530       8541       8540  
      8409       8410       8421       8420       8530       8531       8542       8541  
      8410       8411       8422       8421       8531       8532       8543       8542  
      8411       8412       8423       8422       8532       8533       8544       8543  
      8412       8413       8424       8423       8533       8534       8545       8544  
      8413       8414       8425       8424       8534       8535       8546       8545  
      8414       8415       8426       8425       8535       8536       8547       8546  
      8416       8417       8428       8427       8537       8538       8549       8548  
      8417       8418       8429       8428       8538       8539       8550       8549  
      8418       8419       8430       8429       8539       8540       8551       8550  
      8419       8420       8431       8430       8540       8541       8552       8551  
      8420       8421       8432       8431       8541       8542       8553       8552  
      8421       8422       8433       8432       8542       8543       8554       8553  
      8422       8423       8434       8433       8543       8544       8555       8554  
      8423       8424       8435       8434       8544       8545       8556       8555  
      8424       8425       8436       8435       8545       8546       8557       8556  
      8425       8426       8437       8436       8546       8547       8558       8557  
      8427       8428       8439       8438       8548       8549       8560       8559  
      8428       8429       8440       8439       8549       8550       8561       8560  
      8429       8430       8441       8440       8550       8551       8562       8561  
      8430       8431       8442       8441       8551       8552       8563       8562  
      8431       8432       8443       8442       8552       8553       8564       8563  
      8432       8433       8444       8443       8553       8554       8565       8564  
      8433       8434       8445       8444       8554       8555       8566       8565  
      8434       8435       8446       8445       8555       8556       8567       8566  
      8435       8436       8447       8446       8556       8557       8568       8567  
      8436       8437       8448       8447       8557       8558       8569       8568  
      8438       8439       8450       8449       8559       8560       8571       8570  
      8439       8440       8451       8450       8560       8561       8572       8571  
      8440       8441       8452       8451       8561       8562       8573       8572  
      8441       8442       8453       8452       8562       8563       8574       8573  
      8442       8443       8454       8453       8563       8564       8575       8574  
      8443       8444       8455       8454       8564       8565       8576       8575  
      8444       8445       8456       8455       8565       8566       8577       8576  
      8445       8446       8457       8456       8566       8567       8578       8577  
      8446       8447       8458       8457       8567       8568       8579       8578  
      8447       8448       8459       8458       8568       8569       8580       8579  
      8449       8450       8461       8460       8570       8571       8582       8581  
      8450       8451       8462       8461       8571       8572       8583       8582  
      8451       8452       8463       8462       8572       8573       8584       8583  
      8452       8453       8464       8463       8573       8574       8585       8584  
      8453       8454       8465       8464       8574       8575       8586       8585  
      8454       8455       8466       8465       8575       8576       8587       8586  
      8455       8456       8467       8466       8576       8577       8588       8587  
      8456       8457       8468       8467       8577       8578       8589       8588  
      8457       8458       8469       8468       8578       8579       8590       8589  
      8458       8459       8470       8469       8579       8580       8591       8590  
      8471       8472       8483       8482       8592       8593       8604       8603  
      8472       8473       8484       8483       8593       8594       8605       8604  
      8473       8474       8485       8484       8594       8595       8606       8605  
      8474       8475       8486       8485       8595       8596       8607       8606  
      8475       8476       8487       8486       8596       8597       8608       8607  
      8476       8477       8488       8487       8597       8598       8609       8608  
      8477       8478       8489       8488       8598       8599       8610       8609  
      8478       8479       8490       8489       8599       8600       8611       8610  
      8479       8480       8491       8490       8600       8601       8612       8611  
      8480       8481       8492       8491       8601       8602       8613       8612  
      8482       8483       8494       8493       8603       8604       8615       8614  
      8483       8484       8495       8494       8604       8605       8616       8615  
      8484       8485       8496       8495       8605       8606       8617       8616  
      8485       8486       8497       8496       8606       8607       8618       8617  
      8486       8487       8498       8497       8607       8608       8619       8618  
      8487       8488       8499       8498       8608       8609       8620       8619  
      8488       8489       8500       8499       8609       8610       8621       8620  
      8489       8490       8501       8500       8610       8611       8622       8621  
      8490       8491       8502       8501       8611       8612       8623       8622  
      8491       8492       8503       8502       8612       8613       8624       8623  
      8493       8494       8505       8504       8614       8615       8626       8625  
      8494       8495       8506       8505       8615       8616       8627       8626  
      8495       8496       8507       8506       8616       8617       8628       8627  
      8496       8497       8508       8507       8617       8618       8629       8628  
      8497       8498       8509       8508       8618       8619       8630       8629  
      8498       8499       8510       8509       8619       8620       8631       8630  
      8499       8500       8511       8510       8620       8621       8632       8631  
      8500       8501       8512       8511       8621       8622       8633       8632  
      8501       8502       8513       8512       8622       8623       8634       8633  
      8502       8503       8514       8513       8623       8624       8635       8634  
      8504       8505       8516       8515       8625       8626       8637       8636  
      8505       8506       8517       8516       8626       8627       8638       8637  
      8506       8507       8518       8517       8627       8628       8639       8638  
      8507       8508       8519       8518       8628       8629       8640       8639  
      8508       8509       8520       8519       8629       8630       8641       8640  
      8509       8510       8521       8520       8630       8631       8642       8641  
      8510       8511       8522       8521       8631       8632       8643       8642  
      8511       8512       8523       8522       8632       8633       8644       8643  
      8512       8513       8524       8523       8633       8634       8645       8644  
      8513       8514       8525       8524       8634       8635       8646       8645  
      8515       8516       8527       8526       8636       8637       8648       8647  
      8516       8517       8528       8527       8637       8638       8649       8648  
      8517       8518       8529       8528       8638       8639       8650       8649  
      8518       8519       8530       8529       8639       8640       8651       8650  
      8519       8520       8531       8530       8640       8641       8652       8651  
      8520       8521       8532       8531       8641       8642       8653       8652  
      8521       8522       8533       8532       8642       8643       8654       8653  
      8522       8523       8534       8533       8643       8644       8655       8654  
      8523       8524       8535       8534       8644       8645       8656       8655  
      8524       8525       8536       8535       8645       8646       8657       8656  
      8526       8527       8538       8537       8647       8648       8659       8658  
      8527       8528       8539       8538       8648       8649       8660       8659  
      8528       8529       8540       8539       8649       8650       8661       8660  
      8529       8530       8541       8540       8650       8651       8662       8661  
      8530       8531       8542       8541       8651       8652       8663       8662  
      8531       8532       8543       8542       8652       8653       8664       8663  
      8532       8533       8544       8543       8653       8654       8665       8664  
      8533       8534       8545       8544       8654       8655       8666       8665  
      8534       8535       8546       8545       8655       8656       8667       8666  
      8535       8536       8547       8546       8656       8657       8668       8667  
      8537       8538       8549       8548       8658       8659       8670       8669  
      8538       8539       8550       8549       8659       8660       8671       8670  
      8539       8540       8551       8550       8660       8661       8672       8671  
      8540       8541       8552       8551       8661       8662       8673       8672  
      8541       8542       8553       8552       8662       8663       8674       8673  
      8542       8543       8554       8553       8663       8664       8675       8674  
      8543       8544       8555       8554       8664       8665       8676       8675  
      8544       8545       8556       8555       8665       8666       8677       8676  
      8545       8546       8557       8556       8666       8667       8678       8677  
      8546       8547       8558       8557       8667       8668       8679       8678  
      8548       8549       8560       8559       8669       8670       8681       8680  
      8549       8550       8561       8560       8670       8671       8682       8681  
      8550       8551       8562       8561       8671       8672       8683       8682  
      8551       8552       8563       8562       8672       8673       8684       8683  
      8552       8553       8564       8563       8673       8674       8685       8684  
      8553       8554       8565       8564       8674       8675       8686       8685  
      8554       8555       8566       8565       8675       8676       8687       8686  
      8555       8556       8567       8566       8676       8677       8688       8687  
      8556       8557       8568       8567       8677       8678       8689       8688  
      8557       8558       8569       8568       8678       8679       8690       8689  
      8559       8560       8571       8570       8680       8681       8692       8691  
      8560       8561       8572       8571       8681       8682       8693       8692  
      8561       8562       8573       8572       8682       8683       8694       8693  
      8562       8563       8574       8573       8683       8684       8695       8694  
      8563       8564       8575       8574       8684       8685       8696       8695  
      8564       8565       8576       8575       8685       8686       8697       8696  
      8565       8566       8577       8576       8686       8687       8698       8697  
      8566       8567       8578       8577       8687       8688       8699       8698  
      8567       8568       8579       8578       8688       8689       8700       8699  
      8568       8569       8580       8579       8689       8690       8701       8700  
      8570       8571       8582       8581       8691       8692       8703       8702  
      8571       8572       8583       8582       8692       8693       8704       8703  
      8572       8573       8584       8583       8693       8694       8705       8704  
      8573       8574       8585       8584       8694       8695       8706       8705  
      8574       8575       8586       8585       8695       8696       8707       8706  
      8575       8576       8587       8586       8696       8697       8708       8707  
      8576       8577       8588       8587       8697       8698       8709       8708  
      8577       8578       8589       8588       8698       8699       8710       8709  
      8578       8579       8590       8589       8699       8700       8711       8710  
      8579       8580       8591       8590       8700       8701       8712       8711  
      8592       8593       8604       8603       8713       8714       8725       8724  
      8593       8594       8605       8604       8714       8715       8726       8725  
      8594       8595       8606       8605       8715       8716       8727       8726  
      8595       8596       8607       8606       8716       8717       8728       8727  
      8596       8597       8608       8607       8717       8718       8729       8728  
      8597       8598       8609       8608       8718       8719       8730       8729  
      8598       8599       8610       8609       8719       8720       8731       8730  
      8599       8600       8611       8610       8720       8721       8732       8731  
      8600       8601       8612       8611       8721       8722       8733       8732  
      8601       8602       8613       8612       8722       8723       8734       8733  
      8603       8604       8615       8614       8724       8725       8736       8735  
      8604       8605       8616       8615       8725       8726       8737       8736  
      8605       8606       8617       8616       8726       8727       8738       8737  
      8606       8607       8618       8617       8727       8728       8739       8738  
      8607       8608       8619       8618       8728       8729       8740       8739  
      8608       8609       8620       8619       8729       8730       8741       8740  
      8609       8610       8621       8620       8730       8731       8742       8741  
      8610       8611       8622       8621       8731       8732       8743       8742  
      8611       8612       8623       8622       8732       8733       8744       8743  
      8612       8613       8624       8623       8733       8734       8745       8744  
      8614       8615       8626       8625       8735       8736       8747       8746  
      8615       8616       8627       8626       8736       8737       8748       8747  
      8616       8617       8628       8627       8737       8738       8749       8748  
      8617       8618       8629       8628       8738       8739       8750       8749  
      8618       8619       8630       8629       8739       8740       8751       8750  
      8619       8620       8631       8630       8740       8741       8752       8751  
      8620       8621       8632       8631       8741       8742       8753       8752  
      8621       8622       8633       8632       8742       8743       8754       8753  
      8622       8623       8634       8633       8743       8744       8755       8754  
      8623       8624       8635       8634       8744       8745       8756       8755  
      8625       8626       8637       8636       8746       8747       8758       8757  
      8626       8627       8638       8637       8747       8748       8759       8758  
      8627       8628       8639       8638       8748       8749       8760       8759  
      8628       8629       8640       8639       8749       8750       8761       8760  
      8629       8630       8641       8640       8750       8751       8762       8761  
      8630       8631       8642       8641       8751       8752       8763       8762  
      8631       8632       8643       8642       8752       8753       8764       8763  
      8632       8633       8644       8643       8753       8754       8765       8764  
      8633       8634       8645       8644       8754       8755       8766       8765  
      8634       8635       8646       8645       8755       8756       8767       8766  
      8636       8637       8648       8647       8757       8758       8769       8768  
      8637       8638       8649       8648       8758       8759       8770       8769  
      8638       8639       8650       8649       8759       8760       8771       8770  
      8639       8640       8651       8650       8760       8761       8772       8771  
      8640       8641       8652       8651       8761       8762       8773       8772  
      8641       8642       8653       8652       8762       8763       8774       8773  
      8642       8643       8654       8653       8763       8764       8775       8774  
      8643       8644       8655       8654       8764       8765       8776       8775  
      8644       8645       8656       8655       8765       8766       8777       8776  
      8645       8646       8657       8656       8766       8767       8778       8777  
      8647       8648       8659       8658       8768       8769       8780       8779  
      8648       8649       8660       8659       8769       8770       8781       8780  
      8649       8650       8661       8660       8770       8771       8782       8781  
      8650       8651       8662       8661       8771       8772       8783       8782  
      8651       8652       8663       8662       8772       8773       8784       8783  
      8652       8653       8664       8663       8773       8774       8785       8784  
      8653       8654       8665       8664       8774       8775       8786       8785  
      8654       8655       8666       8665       8775       8776       8787       8786  
      8655       8656       8667       8666       8776       8777       8788       8787  
      8656       8657       8668       8667       8777       8778       8789       8788  
      8658       8659       8670       8669       8779       8780       8791       8790  
      8659       8660       8671       8670       8780       8781       8792       8791  
      8660       8661       8672       8671       8781       8782       8793       8792  
      8661       8662       8673       8672       8782       8783       8794       8793  
      8662       8663       8674       8673       8783       8784       8795       8794  
      8663       8664       8675       8674       8784       8785       8796       8795  
      8664       8665       8676       8675       8785       8786       8797       8796  
      8665       8666       8677       8676       8786       8787       8798       8797  
      8666       8667       8678       8677       8787       8788       8799       8798  
      8667       8668       8679       8678       8788       8789       8800       8799  
      8669       8670       8681       8680       8790       8791       8802       8801  
      8670       8671       8682       8681       8791       8792       8803       8802  
      8671       8672       8683       8682       8792       8793       8804       8803  
      8672       8673       8684       8683       8793       8794       8805       8804  
      8673       8674       8685       8684       8794       8795       8806       8805  
      8674       8675       8686       8685       8795       8796       8807       8806  
      8675       8676       8687       8686       8796       8797       8808       8807  
      8676       8677       8688       8687       8797       8798       8809       8808  
      8677       8678       8689       8688       8798       8799       8810       8809  
      8678       8679       8690       8689       8799       8800       8811       8810  
      8680       8681       8692       8691       8801       8802       8813       8812  
      8681       8682       8693       8692       8802       8803       8814       8813  
      8682       8683       8694       8693       8803       8804       8815       8814  
      8683       8684       8695       8694       8804       8805       8816       8815  
      8684       8685       8696       8695       8805       8806       8817       8816  
      8685       8686       8697       8696       8806       8807       8818       8817  
      8686       8687       8698       8697       8807       8808       8819       8818  
      8687       8688       8699       8698       8808       8809       8820       8819  
      8688       8689       8700       8699       8809       8810       8821       8820  
      8689       8690       8701       8700       8810       8811       8822       8821  
      8691       8692       8703       8702       8812       8813       8824       8823  
      8692       8693       8704       8703       8813       8814       8825       8824  
      8693       8694       8705       8704       8814       8815       8826       8825  
      8694       8695       8706       8705       8815       8816       8827       8826  
      8695       8696       8707       8706       8816       8817       8828       8827  
      8696       8697       8708       8707       8817       8818       8829       8828  
      8697       8698       8709       8708       8818       8819       8830       8829  
      8698       8699       8710       8709       8819       8820       8831       8830  
      8699       8700       8711       8710       8820       8821       8832       8831  
      8700       8701       8712       8711       8821       8822       8833       8832  
      8713       8714       8725       8724       8834       8835       8846       8845  
      8714       8715       8726       8725       8835       8836       8847       8846  
      8715       8716       8727       8726       8836       8837       8848       8847  
      8716       8717       8728       8727       8837       8838       8849       8848  
      8717       8718       8729       8728       8838       8839       8850       8849  
      8718       8719       8730       8729       8839       8840       8851       8850  
      8719       8720       8731       8730       8840       8841       8852       8851  
      8720       8721       8732       8731       8841       8842       8853       8852  
      8721       8722       8733       8732       8842       8843       8854       8853  
      8722       8723       8734       8733       8843       8844       8855       8854  
      8724       8725       8736       8735       8845       8846       8857       8856  
      8725       8726       8737       8736       8846       8847       8858       8857  
      8726       8727       8738       8737       8847       8848       8859       8858  
      8727       8728       8739       8738       8848       8849       8860       8859  
      8728       8729       8740       8739       8849       8850       8861       8860  
      8729       8730       8741       8740       8850       8851       8862       8861  
      8730       8731       8742       8741       8851       8852       8863       8862  
      8731       8732       8743       8742       8852       8853       8864       8863  
      8732       8733       8744       8743       8853       8854       8865       8864  
      8733       8734       8745       8744       8854       8855       8866       8865  
      8735       8736       8747       8746       8856       8857       8868       8867  
      8736       8737       8748       8747       8857       8858       8869       8868  
      8737       8738       8749       8748       8858       8859       8870       8869  
      8738       8739       8750       8749       8859       8860       8871       8870  
      8739       8740       8751       8750       8860       8861       8872       8871  
      8740       8741       8752       8751       8861       8862       8873       8872  
      8741       8742       8753       8752       8862       8863       8874       8873  
      8742       8743       8754       8753       8863       8864       8875       8874  
      8743       8744       8755       8754       8864       8865       8876       8875  
      8744       8745       8756       8755       8865       8866       8877       8876  
      8746       8747       8758       8757       8867       8868       8879       8878  
      8747       8748       8759       8758       8868       8869       8880       8879  
      8748       8749       8760       8759       8869       8870       8881       8880  
      8749       8750       8761       8760       8870       8871       8882       8881  
      8750       8751       8762       8761       8871       8872       8883       8882  
      8751       8752       8763       8762       8872       8873       8884       8883  
      8752       8753       8764       8763       8873       8874       8885       8884  
      8753       8754       8765       8764       8874       8875       8886       8885  
      8754       8755       8766       8765       8875       8876       8887       8886  
      8755       8756       8767       8766       8876       8877       8888       8887  
      8757       8758       8769       8768       8878       8879       8890       8889  
      8758       8759       8770       8769       8879       8880       8891       8890  
      8759       8760       8771       8770       8880       8881       8892       8891  
      8760       8761       8772       8771       8881       8882       8893       8892  
      8761       8762       8773       8772       8882       8883       8894       8893  
      8762       8763       8774       8773       8883       8884       8895       8894  
      8763       8764       8775       8774       8884       8885       8896       8895  
      8764       8765       8776       8775       8885       8886       8897       8896  
      8765       8766       8777       8776       8886       8887       8898       8897  
      8766       8767       8778       8777       8887       8888       8899       8898  
      8768       8769       8780       8779       8889       8890       8901       8900  
      8769       8770       8781       8780       8890       8891       8902       8901  
      8770       8771       8782       8781       8891       8892       8903       8902  
      8771       8772       8783       8782       8892       8893       8904       8903  
      8772       8773       8784       8783       8893       8894       8905       8904  
      8773       8774       8785       8784       8894       8895       8906       8905  
      8774       8775       8786       8785       8895       8896       8907       8906  
      8775       8776       8787       8786       8896       8897       8908       8907  
      8776       8777       8788       8787       8897       8898       8909       8908  
      8777       8778       8789       8788       8898       8899       8910       8909  
      8779       8780       8791       8790       8900       8901       8912       8911  
      8780       8781       8792       8791       8901       8902       8913       8912  
      8781       8782       8793       8792       8902       8903       8914       8913  
      8782       8783       8794       8793       8903       8904       8915       8914  
      8783       8784       8795       8794       8904       8905       8916       8915  
      8784       8785       8796       8795       8905       8906       8917       8916  
      8785       8786       8797       8796       8906       8907       8918       8917  
      8786       8787       8798       8797       8907       8908       8919       8918  
      8787       8788       8799       8798       8908       8909       8920       8919  
      8788       8789       8800       8799       8909       8910       8921       8920  
      8790       8791       8802       8801       8911       8912       8923       8922  
      8791       8792       8803       8802       8912       8913       8924       8923  
      8792       8793       8804       8803       8913       8914       8925       8924  
      8793       8794       8805       8804       8914       8915       8926       8925  
      8794       8795       8806       8805       8915       8916       8927       8926  
      8795       8796       8807       8806       8916       8917       8928       8927  
      8796       8797       8808       8807       8917       8918       8929       8928  
      8797       8798       8809       8808       8918       8919       8930       8929  
      8798       8799       8810       8809       8919       8920       8931       8930  
      8799       8800       8811       8810       8920       8921       8932       8931  
      8801       8802       8813       8812       8922       8923       8934       8933  
      8802       8803       8814       8813       8923       8924       8935       8934  
      8803       8804       8815       8814       8924       8925       8936       8935  
      8804       8805       8816       8815       8925       8926       8937       8936  
      8805       8806       8817       8816       8926       8927       8938       8937  
      8806       8807       8818       8817       8927       8928       8939       8938  
      8807       8808       8819       8818       8928       8929       8940       8939  
      8808       8809       8820       8819       8929       8930       8941       8940  
      8809       8810       8821       8820       8930       8931       8942       8941  
      8810       8811       8822       8821       8931       8932       8943       8942  
      8812       8813       8824       8823       8933       8934       8945       8944  
      8813       8814       8825       8824       8934       8935       8946       8945  
      8814       8815       8826       8825       8935       8936       8947       8946  
      8815       8816       8827       8826       8936       8937       8948       8947  
      8816       8817       8828       8827       8937       8938       8949       8948  
      8817       8818       8829       8828       8938       8939       8950       8949  
      8818       8819       8830       8829       8939       8940       8951       8950  
      8819       8820       8831       8830       8940       8941       8952       8951  
      8820       8821       8832       8831       8941       8942       8953       8952  
      8821       8822       8833       8832       8942       8943       8954       8953  
      8834       8835       8846       8845       8955       8956       8967       8966  
      8835       8836       8847       8846       8956       8957       8968       8967  
      8836       8837       8848       8847       8957       8958       8969       8968  
      8837       8838       8849       8848       8958       8959       8970       8969  
      8838       8839       8850       8849       8959       8960       8971       8970  
      8839       8840       8851       8850       8960       8961       8972       8971  
      8840       8841       8852       8851       8961       8962       8973       8972  
      8841       8842       8853       8852       8962       8963       8974       8973  
      8842       8843       8854       8853       8963       8964       8975       8974  
      8843       8844       8855       8854       8964       8965       8976       8975  
      8845       8846       8857       8856       8966       8967       8978       8977  
      8846       8847       8858       8857       8967       8968       8979       8978  
      8847       8848       8859       8858       8968       8969       8980       8979  
      8848       8849       8860       8859       8969       8970       8981       8980  
      8849       8850       8861       8860       8970       8971       8982       8981  
      8850       8851       8862       8861       8971       8972       8983       8982  
      8851       8852       8863       8862       8972       8973       8984       8983  
      8852       8853       8864       8863       8973       8974       8985       8984  
      8853       8854       8865       8864       8974       8975       8986       8985  
      8854       8855       8866       8865       8975       8976       8987       8986  
      8856       8857       8868       8867       8977       8978       8989       8988  
      8857       8858       8869       8868       8978       8979       8990       8989  
      8858       8859       8870       8869       8979       8980       8991       8990  
      8859       8860       8871       8870       8980       8981       8992       8991  
      8860       8861       8872       8871       8981       8982       8993       8992  
      8861       8862       8873       8872       8982       8983       8994       8993  
      8862       8863       8874       8873       8983       8984       8995       8994  
      8863       8864       8875       8874       8984       8985       8996       8995  
      8864       8865       8876       8875       8985       8986       8997       8996  
      8865       8866       8877       8876       8986       8987       8998       8997  
      8867       8868       8879       8878       8988       8989       9000       8999  
      8868       8869       8880       8879       8989       8990       9001       9000  
      8869       8870       8881       8880       8990       8991       9002       9001  
      8870       8871       8882       8881       8991       8992       9003       9002  
      8871       8872       8883       8882       8992       8993       9004       9003  
      8872       8873       8884       8883       8993       8994       9005       9004  
      8873       8874       8885       8884       8994       8995       9006       9005  
      8874       8875       8886       8885       8995       8996       9007       9006  
      8875       8876       8887       8886       8996       8997       9008       9007  
      8876       8877       8888       8887       8997       8998       9009       9008  
      8878       8879       8890       8889       8999       9000       9011       9010  
      8879       8880       8891       8890       9000       9001       9012       9011  
      8880       8881       8892       8891       9001       9002       9013       9012  
      8881       8882       8893       8892       9002       9003       9014       9013  
      8882       8883       8894       8893       9003       9004       9015       9014  
      8883       8884       8895       8894       9004       9005       9016       9015  
      8884       8885       8896       8895       9005       9006       9017       9016  
      8885       8886       8897       8896       9006       9007       9018       9017  
      8886       8887       8898       8897       9007       9008       9019       9018  
      8887       8888       8899       8898       9008       9009       9020       9019  
      8889       8890       8901       8900       9010       9011       9022       9021  
      8890       8891       8902       8901       9011       9012       9023       9022  
      8891       8892       8903       8902       9012       9013       9024       9023  
      8892       8893       8904       8903       9013       9014       9025       9024  
      8893       8894       8905       8904       9014       9015       9026       9025  
      8894       8895       8906       8905       9015       9016       9027       9026  
      8895       8896       8907       8906       9016       9017       9028       9027  
      8896       8897       8908       8907       9017       9018       9029       9028  
      8897       8898       8909       8908       9018       9019       9030       9029  
      8898       8899       8910       8909       9019       9020       9031       9030  
      8900       8901       8912       8911       9021       9022       9033       9032  
      8901       8902       8913       8912       9022       9023       9034       9033  
      8902       8903       8914       8913       9023       9024       9035       9034  
      8903       8904       8915       8914       9024       9025       9036       9035  
      8904       8905       8916       8915       9025       9026       9037       9036  
      8905       8906       8917       8916       9026       9027       9038       9037  
      8906       8907       8918       8917       9027       9028       9039       9038  
      8907       8908       8919       8918       9028       9029       9040       9039  
      8908       8909       8920       8919       9029       9030       9041       9040  
      8909       8910       8921       8920       9030       9031       9042       9041  
      8911       8912       8923       8922       9032       9033       9044       9043  
      8912       8913       8924       8923       9033       9034       9045       9044  
      8913       8914       8925       8924       9034       9035       9046       9045  
      8914       8915       8926       8925       9035       9036       9047       9046  
      8915       8916       8927       8926       9036       9037       9048       9047  
      8916       8917       8928       8927       9037       9038       9049       9048  
      8917       8918       8929       8928       9038       9039       9050       9049  
      8918       8919       8930       8929       9039       9040       9051       9050  
      8919       8920       8931       8930       9040       9041       9052       9051  
      8920       8921       8932       8931       9041       9042       9053       9052  
      8922       8923       8934       8933       9043       9044       9055       9054  
      8923       8924       8935       8934       9044       9045       9056       9055  
      8924       8925       8936       8935       9045       9046       9057       9056  
      8925       8926       8937       8936       9046       9047       9058       9057  
      8926       8927       8938       8937       9047       9048       9059       9058  
      8927       8928       8939       8938       9048       9049       9060       9059  
      8928       8929       8940       8939       9049       9050       9061       9060  
      8929       8930       8941       8940       9050       9051       9062       9061  
      8930       8931       8942       8941       9051       9052       9063       9062  
      8931       8932       8943       8942       9052       9053       9064       9063  
      8933       8934       8945       8944       9054       9055       9066       9065  
      8934       8935       8946       8945       9055       9056       9067       9066  
      8935       8936       8947       8946       9056       9057       9068       9067  
      8936       8937       8948       8947       9057       9058       9069       9068  
      8937       8938       8949       8948       9058       9059       9070       9069  
      8938       8939       8950       8949       9059       9060       9071       9070  
      8939       8940       8951       8950       9060       9061       9072       9071  
      8940       8941       8952       8951       9061       9062       9073       9072  
      8941       8942       8953       8952       9062       9063       9074       9073  
      8942       8943       8954       8953       9063       9064       9075       9074  
      8955       8956       8967       8966       9076       9077       9088       9087  
      8956       8957       8968       8967       9077       9078       9089       9088  
      8957       8958       8969       8968       9078       9079       9090       9089  
      8958       8959       8970       8969       9079       9080       9091       9090  
      8959       8960       8971       8970       9080       9081       9092       9091  
      8960       8961       8972       8971       9081       9082       9093       9092  
      8961       8962       8973       8972       9082       9083       9094       9093  
      8962       8963       8974       8973       9083       9084       9095       9094  
      8963       8964       8975       8974       9084       9085       9096       9095  
      8964       8965       8976       8975       9085       9086       9097       9096  
      8966       8967       8978       8977       9087       9088       9099       9098  
      8967       8968       8979       8978       9088       9089       9100       9099  
      8968       8969       8980       8979       9089       9090       9101       9100  
      8969       8970       8981       8980       9090       9091       9102       9101  
      8970       8971       8982       8981       9091       9092       9103       9102  
      8971       8972       8983       8982       9092       9093       9104       9103  
      8972       8973       8984       8983       9093       9094       9105       9104  
      8973       8974       8985       8984       9094       9095       9106       9105  
      8974       8975       8986       8985       9095       9096       9107       9106  
      8975       8976       8987       8986       9096       9097       9108       9107  
      8977       8978       8989       8988       9098       9099       9110       9109  
      8978       8979       8990       8989       9099       9100       9111       9110  
      8979       8980       8991       8990       9100       9101       9112       9111  
      8980       8981       8992       8991       9101       9102       9113       9112  
      8981       8982       8993       8992       9102       9103       9114       9113  
      8982       8983       8994       8993       9103       9104       9115       9114  
      8983       8984       8995       8994       9104       9105       9116       9115  
      8984       8985       8996       8995       9105       9106       9117       9116  
      8985       8986       8997       8996       9106       9107       9118       9117  
      8986       8987       8998       8997       9107       9108       9119       9118  
      8988       8989       9000       8999       9109       9110       9121       9120  
      8989       8990       9001       9000       9110       9111       9122       9121  
      8990       8991       9002       9001       9111       9112       9123       9122  
      8991       8992       9003       9002       9112       9113       9124       9123  
      8992       8993       9004       9003       9113       9114       9125       9124  
      8993       8994       9005       9004       9114       9115       9126       9125  
      8994       8995       9006       9005       9115       9116       9127       9126  
      8995       8996       9007       9006       9116       9117       9128       9127  
      8996       8997       9008       9007       9117       9118       9129       9128  
      8997       8998       9009       9008       9118       9119       9130       9129  
      8999       9000       9011       9010       9120       9121       9132       9131  
      9000       9001       9012       9011       9121       9122       9133       9132  
      9001       9002       9013       9012       9122       9123       9134       9133  
      9002       9003       9014       9013       9123       9124       9135       9134  
      9003       9004       9015       9014       9124       9125       9136       9135  
      9004       9005       9016       9015       9125       9126       9137       9136  
      9005       9006       9017       9016       9126       9127       9138       9137  
      9006       9007       9018       9017       9127       9128       9139       9138  
      9007       9008       9019       9018       9128       9129       9140       9139  
      9008       9009       9020       9019       9129       9130       9141       9140  
      9010       9011       9022       9021       9131       9132       9143       9142  
      9011       9012       9023       9022       9132       9133       9144       9143  
      9012       9013       9024       9023       9133       9134       9145       9144  
      9013       9014       9025       9024       9134       9135       9146       9145  
      9014       9015       9026       9025       9135       9136       9147       9146  
      9015       9016       9027       9026       9136       9137       9148       9147  
      9016       9017       9028       9027       9137       9138       9149       9148  
      9017       9018       9029       9028       9138       9139       9150       9149  
      9018       9019       9030       9029       9139       9140       9151       9150  
      9019       9020       9031       9030       9140       9141       9152       9151  
      9021       9022       9033       9032       9142       9143       9154       9153  
      9022       9023       9034       9033       9143       9144       9155       9154  
      9023       9024       9035       9034       9144       9145       9156       9155  
      9024       9025       9036       9035       9145       9146       9157       9156  
      9025       9026       9037       9036       9146       9147       9158       9157  
      9026       9027       9038       9037       9147       9148       9159       9158  
      9027       9028       9039       9038       9148       9149       9160       9159  
      9028       9029       9040       9039       9149       9150       9161       9160  
      9029       9030       9041       9040       9150       9151       9162       9161  
      9030       9031       9042       9041       9151       9152       9163       9162  
      9032       9033       9044       9043       9153       9154       9165       9164  
      9033       9034       9045       9044       9154       9155       9166       9165  
      9034       9035       9046       9045       9155       9156       9167       9166  
      9035       9036       9047       9046       9156       9157       9168       9167  
      9036       9037       9048       9047       9157       9158       9169       9168  
      9037       9038       9049       9048       9158       9159       9170       9169  
      9038       9039       9050       9049       9159       9160       9171       9170  
      9039       9040       9051       9050       9160       9161       9172       9171  
      9040       9041       9052       9051       9161       9162       9173       9172  
      9041       9042       9053       9052       9162       9163       9174       9173  
      9043       9044       9055       9054       9164       9165       9176       9175  
      9044       9045       9056       9055       9165       9166       9177       9176  
      9045       9046       9057       9056       9166       9167       9178       9177  
      9046       9047       9058       9057       9167       9168       9179       9178  
      9047       9048       9059       9058       9168       9169       9180       9179  
      9048       9049       9060       9059       9169       9170       9181       9180  
      9049       9050       9061       9060       9170       9171       9182       9181  
      9050       9051       9062       9061       9171       9172       9183       9182  
      9051       9052       9063       9062       9172       9173       9184       9183  
      9052       9053       9064       9063       9173       9174       9185       9184  
      9054       9055       9066       9065       9175       9176       9187       9186  
      9055       9056       9067       9066       9176       9177       9188       9187  
      9056       9057       9068       9067       9177       9178       9189       9188  
      9057       9058       9069       9068       9178       9179       9190       9189  
      9058       9059       9070       9069       9179       9180       9191       9190  
      9059       9060       9071       9070       9180       9181       9192       9191  
      9060       9061       9072       9071       9181       9182       9193       9192  
      9061       9062       9073       9072       9182       9183       9194       9193  
      9062       9063       9074       9073       9183       9184       9195       9194  
      9063       9064       9075       9074       9184       9185       9196       9195  
      9076       9077       9088       9087       9197       9198       9209       9208  
      9077       9078       9089       9088       9198       9199       9210       9209  
      9078       9079       9090       9089       9199       9200       9211       9210  
      9079       9080       9091       9090       9200       9201       9212       9211  
      9080       9081       9092       9091       9201       9202       9213       9212  
      9081       9082       9093       9092       9202       9203       9214       9213  
      9082       9083       9094       9093       9203       9204       9215       9214  
      9083       9084       9095       9094       9204       9205       9216       9215  
      9084       9085       9096       9095       9205       9206       9217       9216  
      9085       9086       9097       9096       9206       9207       9218       9217  
      9087       9088       9099       9098       9208       9209       9220       9219  
      9088       9089       9100       9099       9209       9210       9221       9220  
      9089       9090       9101       9100       9210       9211       9222       9221  
      9090       9091       9102       9101       9211       9212       9223       9222  
      9091       9092       9103       9102       9212       9213       9224       9223  
      9092       9093       9104       9103       9213       9214       9225       9224  
      9093       9094       9105       9104       9214       9215       9226       9225  
      9094       9095       9106       9105       9215       9216       9227       9226  
      9095       9096       9107       9106       9216       9217       9228       9227  
      9096       9097       9108       9107       9217       9218       9229       9228  
      9098       9099       9110       9109       9219       9220       9231       9230  
      9099       9100       9111       9110       9220       9221       9232       9231  
      9100       9101       9112       9111       9221       9222       9233       9232  
      9101       9102       9113       9112       9222       9223       9234       9233  
      9102       9103       9114       9113       9223       9224       9235       9234  
      9103       9104       9115       9114       9224       9225       9236       9235  
      9104       9105       9116       9115       9225       9226       9237       9236  
      9105       9106       9117       9116       9226       9227       9238       9237  
      9106       9107       9118       9117       9227       9228       9239       9238  
      9107       9108       9119       9118       9228       9229       9240       9239  
      9109       9110       9121       9120       9230       9231       9242       9241  
      9110       9111       9122       9121       9231       9232       9243       9242  
      9111       9112       9123       9122       9232       9233       9244       9243  
      9112       9113       9124       9123       9233       9234       9245       9244  
      9113       9114       9125       9124       9234       9235       9246       9245  
      9114       9115       9126       9125       9235       9236       9247       9246  
      9115       9116       9127       9126       9236       9237       9248       9247  
      9116       9117       9128       9127       9237       9238       9249       9248  
      9117       9118       9129       9128       9238       9239       9250       9249  
      9118       9119       9130       9129       9239       9240       9251       9250  
      9120       9121       9132       9131       9241       9242       9253       9252  
      9121       9122       9133       9132       9242       9243       9254       9253  
      9122       9123       9134       9133       9243       9244       9255       9254  
      9123       9124       9135       9134       9244       9245       9256       9255  
      9124       9125       9136       9135       9245       9246       9257       9256  
      9125       9126       9137       9136       9246       9247       9258       9257  
      9126       9127       9138       9137       9247       9248       9259       9258  
      9127       9128       9139       9138       9248       9249       9260       9259  
      9128       9129       9140       9139       9249       9250       9261       9260  
      9129       9130       9141       9140       9250       9251       9262       9261  
      9131       9132       9143       9142       9252       9253       9264       9263  
      9132       9133       9144       9143       9253       9254       9265       9264  
      9133       9134       9145       9144       9254       9255       9266       9265  
      9134       9135       9146       9145       9255       9256       9267       9266  
      9135       9136       9147       9146       9256       9257       9268       9267  
      9136       9137       9148       9147       9257       9258       9269       9268  
      9137       9138       9149       9148       9258       9259       9270       9269  
      9138       9139       9150       9149       9259       9260       9271       9270  
      9139       9140       9151       9150       9260       9261       9272       9271  
      9140       9141       9152       9151       9261       9262       9273       9272  
      9142       9143       9154       9153       9263       9264       9275       9274  
      9143       9144       9155       9154       9264       9265       9276       9275  
      9144       9145       9156       9155       9265       9266       9277       9276  
      9145       9146       9157       9156       9266       9267       9278       9277  
      9146       9147       9158       9157       9267       9268       9279       9278  
      9147       9148       9159       9158       9268       9269       9280       9279  
      9148       9149       9160       9159       9269       9270       9281       9280  
      9149       9150       9161       9160       9270       9271       9282       9281  
      9150       9151       9162       9161       9271       9272       9283       9282  
      9151       9152       9163       9162       9272       9273       9284       9283  
      9153       9154       9165       9164       9274       9275       9286       9285  
      9154       9155       9166       9165       9275       9276       9287       9286  
      9155       9156       9167       9166       9276       9277       9288       9287  
      9156       9157       9168       9167       9277       9278       9289       9288  
      9157       9158       9169       9168       9278       9279       9290       9289  
      9158       9159       9170       9169       9279       9280       9291       9290  
      9159       9160       9171       9170       9280       9281       9292       9291  
      9160       9161       9172       9171       9281       9282       9293       9292  
      9161       9162       9173       9172       9282       9283       9294       9293  
      9162       9163       9174       9173       9283       9284       9295       9294  
      9164       9165       9176       9175       9285       9286       9297       9296  
      9165       9166       9177       9176       9286       9287       9298       9297  
      9166       9167       9178       9177       9287       9288       9299       9298  
      9167       9168       9179       9178       9288       9289       9300       9299  
      9168       9169       9180       9179       9289       9290       9301       9300  
      9169       9170       9181       9180       9290       9291       9302       9301  
      9170       9171       9182       9181       9291       9292       9303       9302  
      9171       9172       9183       9182       9292       9293       9304       9303  
      9172       9173       9184       9183       9293       9294       9305       9304  
      9173       9174       9185       9184       9294       9295       9306       9305  
      9175       9176       9187       9186       9296       9297       9308       9307  
      9176       9177       9188       9187       9297       9298       9309       9308  
      9177       9178       9189       9188       9298       9299       9310       9309  
      9178       9179       9190       9189       9299       9300       9311       9310  
      9179       9180       9191       9190       9300       9301       9312       9311  
      9180       9181       9192       9191       9301       9302       9313       9312  
      9181       9182       9193       9192       9302       9303       9314       9313  
      9182       9183       9194       9193       9303       9304       9315       9314  
      9183       9184       9195       9194       9304       9305       9316       9315  
      9184       9185       9196       9195       9305       9306       9317       9316  
      9197       9198       9209       9208       9318       9319       9330       9329  
      9198       9199       9210       9209       9319       9320       9331       9330  
      9199       9200       9211       9210       9320       9321       9332       9331  
      9200       9201       9212       9211       9321       9322       9333       9332  
      9201       9202       9213       9212       9322       9323       9334       9333  
      9202       9203       9214       9213       9323       9324       9335       9334  
      9203       9204       9215       9214       9324       9325       9336       9335  
      9204       9205       9216       9215       9325       9326       9337       9336  
      9205       9206       9217       9216       9326       9327       9338       9337  
      9206       9207       9218       9217       9327       9328       9339       9338  
      9208       9209       9220       9219       9329       9330       9341       9340  
      9209       9210       9221       9220       9330       9331       9342       9341  
      9210       9211       9222       9221       9331       9332       9343       9342  
      9211       9212       9223       9222       9332       9333       9344       9343  
      9212       9213       9224       9223       9333       9334       9345       9344  
      9213       9214       9225       9224       9334       9335       9346       9345  
      9214       9215       9226       9225       9335       9336       9347       9346  
      9215       9216       9227       9226       9336       9337       9348       9347  
      9216       9217       9228       9227       9337       9338       9349       9348  
      9217       9218       9229       9228       9338       9339       9350       9349  
      9219       9220       9231       9230       9340       9341       9352       9351  
      9220       9221       9232       9231       9341       9342       9353       9352  
      9221       9222       9233       9232       9342       9343       9354       9353  
      9222       9223       9234       9233       9343       9344       9355       9354  
      9223       9224       9235       9234       9344       9345       9356       9355  
      9224       9225       9236       9235       9345       9346       9357       9356  
      9225       9226       9237       9236       9346       9347       9358       9357  
      9226       9227       9238       9237       9347       9348       9359       9358  
      9227       9228       9239       9238       9348       9349       9360       9359  
      9228       9229       9240       9239       9349       9350       9361       9360  
      9230       9231       9242       9241       9351       9352       9363       9362  
      9231       9232       9243       9242       9352       9353       9364       9363  
      9232       9233       9244       9243       9353       9354       9365       9364  
      9233       9234       9245       9244       9354       9355       9366       9365  
      9234       9235       9246       9245       9355       9356       9367       9366  
      9235       9236       9247       9246       9356       9357       9368       9367  
      9236       9237       9248       9247       9357       9358       9369       9368  
      9237       9238       9249       9248       9358       9359       9370       9369  
      9238       9239       9250       9249       9359       9360       9371       9370  
      9239       9240       9251       9250       9360       9361       9372       9371  
      9241       9242       9253       9252       9362       9363       9374       9373  
      9242       9243       9254       9253       9363       9364       9375       9374  
      9243       9244       9255       9254       9364       9365       9376       9375  
      9244       9245       9256       9255       9365       9366       9377       9376  
      9245       9246       9257       9256       9366       9367       9378       9377  
      9246       9247       9258       9257       9367       9368       9379       9378  
      9247       9248       9259       9258       9368       9369       9380       9379  
      9248       9249       9260       9259       9369       9370       9381       9380  
      9249       9250       9261       9260       9370       9371       9382       9381  
      9250       9251       9262       9261       9371       9372       9383       9382  
      9252       9253       9264       9263       9373       9374       9385       9384  
      9253       9254       9265       9264       9374       9375       9386       9385  
      9254       9255       9266       9265       9375       9376       9387       9386  
      9255       9256       9267       9266       9376       9377       9388       9387  
      9256       9257       9268       9267       9377       9378       9389       9388  
      9257       9258       9269       9268       9378       9379       9390       9389  
      9258       9259       9270       9269       9379       9380       9391       9390  
      9259       9260       9271       9270       9380       9381       9392       9391  
      9260       9261       9272       9271       9381       9382       9393       9392  
      9261       9262       9273       9272       9382       9383       9394       9393  
      9263       9264       9275       9274       9384       9385       9396       9395  
      9264       9265       9276       9275       9385       9386       9397       9396  
      9265       9266       9277       9276       9386       9387       9398       9397  
      9266       9267       9278       9277       9387       9388       9399       9398  
      9267       9268       9279       9278       9388       9389       9400       9399  
      9268       9269       9280       9279       9389       9390       9401       9400  
      9269       9270       9281       9280       9390       9391       9402       9401  
      9270       9271       9282       9281       9391       9392       9403       9402  
      9271       9272       9283       9282       9392       9393       9404       9403  
      9272       9273       9284       9283       9393       9394       9405       9404  
      9274       9275       9286       9285       9395       9396       9407       9406  
      9275       9276       9287       9286       9396       9397       9408       9407  
      9276       9277       9288       9287       9397       9398       9409       9408  
      9277       9278       9289       9288       9398       9399       9410       9409  
      9278       9279       9290       9289       9399       9400       9411       9410  
      9279       9280       9291       9290       9400       9401       9412       9411  
      9280       9281       9292       9291       9401       9402       9413       9412  
      9281       9282       9293       9292       9402       9403       9414       9413  
      9282       9283       9294       9293       9403       9404       9415       9414  
      9283       9284       9295       9294       9404       9405       9416       9415  
      9285       9286       9297       9296       9406       9407       9418       9417  
      9286       9287       9298       9297       9407       9408       9419       9418  
      9287       9288       9299       9298       9408       9409       9420       9419  
      9288       9289       9300       9299       9409       9410       9421       9420  
      9289       9290       9301       9300       9410       9411       9422       9421  
      9290       9291       9302       9301       9411       9412       9423       9422  
      9291       9292       9303       9302       9412       9413       9424       9423  
      9292       9293       9304       9303       9413       9414       9425       9424  
      9293       9294       9305       9304       9414       9415       9426       9425  
      9294       9295       9306       9305       9415       9416       9427       9426  
      9296       9297       9308       9307       9417       9418       9429       9428  
      9297       9298       9309       9308       9418       9419       9430       9429  
      9298       9299       9310       9309       9419       9420       9431       9430  
      9299       9300       9311       9310       9420       9421       9432       9431  
      9300       9301       9312       9311       9421       9422       9433       9432  
      9301       9302       9313       9312       9422       9423       9434       9433  
      9302       9303       9314       9313       9423       9424       9435       9434  
      9303       9304       9315       9314       9424       9425       9436       9435  
      9304       9305       9316       9315       9425       9426       9437       9436  
      9305       9306       9317       9316       9426       9427       9438       9437  
      9318       9319       9330       9329       9439       9440       9451       9450  
      9319       9320       9331       9330       9440       9441       9452       9451  
      9320       9321       9332       9331       9441       9442       9453       9452  
      9321       9322       9333       9332       9442       9443       9454       9453  
      9322       9323       9334       9333       9443       9444       9455       9454  
      9323       9324       9335       9334       9444       9445       9456       9455  
      9324       9325       9336       9335       9445       9446       9457       9456  
      9325       9326       9337       9336       9446       9447       9458       9457  
      9326       9327       9338       9337       9447       9448       9459       9458  
      9327       9328       9339       9338       9448       9449       9460       9459  
      9329       9330       9341       9340       9450       9451       9462       9461  
      9330       9331       9342       9341       9451       9452       9463       9462  
      9331       9332       9343       9342       9452       9453       9464       9463  
      9332       9333       9344       9343       9453       9454       9465       9464  
      9333       9334       9345       9344       9454       9455       9466       9465  
      9334       9335       9346       9345       9455       9456       9467       9466  
      9335       9336       9347       9346       9456       9457       9468       9467  
      9336       9337       9348       9347       9457       9458       9469       9468  
      9337       9338       9349       9348       9458       9459       9470       9469  
      9338       9339       9350       9349       9459       9460       9471       9470  
      9340       9341       9352       9351       9461       9462       9473       9472  
      9341       9342       9353       9352       9462       9463       9474       9473  
      9342       9343       9354       9353       9463       9464       9475       9474  
      9343       9344       9355       9354       9464       9465       9476       9475  
      9344       9345       9356       9355       9465       9466       9477       9476  
      9345       9346       9357       9356       9466       9467       9478       9477  
      9346       9347       9358       9357       9467       9468       9479       9478  
      9347       9348       9359       9358       9468       9469       9480       9479  
      9348       9349       9360       9359       9469       9470       9481       9480  
      9349       9350       9361       9360       9470       9471       9482       9481  
      9351       9352       9363       9362       9472       9473       9484       9483  
      9352       9353       9364       9363       9473       9474       9485       9484  
      9353       9354       9365       9364       9474       9475       9486       9485  
      9354       9355       9366       9365       9475       9476       9487       9486  
      9355       9356       9367       9366       9476       9477       9488       9487  
      9356       9357       9368       9367       9477       9478       9489       9488  
      9357       9358       9369       9368       9478       9479       9490       9489  
      9358       9359       9370       9369       9479       9480       9491       9490  
      9359       9360       9371       9370       9480       9481       9492       9491  
      9360       9361       9372       9371       9481       9482       9493       9492  
      9362       9363       9374       9373       9483       9484       9495       9494  
      9363       9364       9375       9374       9484       9485       9496       9495  
      9364       9365       9376       9375       9485       9486       9497       9496  
      9365       9366       9377       9376       9486       9487       9498       9497  
      9366       9367       9378       9377       9487       9488       9499       9498  
      9367       9368       9379       9378       9488       9489       9500       9499  
      9368       9369       9380       9379       9489       9490       9501       9500  
      9369       9370       9381       9380       9490       9491       9502       9501  
      9370       9371       9382       9381       9491       9492       9503       9502  
      9371       9372       9383       9382       9492       9493       9504       9503  
      9373       9374       9385       9384       9494       9495       9506       9505  
      9374       9375       9386       9385       9495       9496       9507       9506  
      9375       9376       9387       9386       9496       9497       9508       9507  
      9376       9377       9388       9387       9497       9498       9509       9508  
      9377       9378       9389       9388       9498       9499       9510       9509  
      9378       9379       9390       9389       9499       9500       9511       9510  
      9379       9380       9391       9390       9500       9501       9512       9511  
      9380       9381       9392       9391       9501       9502       9513       9512  
      9381       9382       9393       9392       9502       9503       9514       9513  
      9382       9383       9394       9393       9503       9504       9515       9514  
      9384       9385       9396       9395       9505       9506       9517       9516  
      9385       9386       9397       9396       9506       9507       9518       9517  
      9386       9387       9398       9397       9507       9508       9519       9518  
      9387       9388       9399       9398       9508       9509       9520       9519  
      9388       9389       9400       9399       9509       9510       9521       9520  
      9389       9390       9401       9400       9510       9511       9522       9521  
      9390       9391       9402       9401       9511       9512       9523       9522  
      9391       9392       9403       9402       9512       9513       9524       9523  
      9392       9393       9404       9403       9513       9514       9525       9524  
      9393       9394       9405       9404       9514       9515       9526       9525  
      9395       9396       9407       9406       9516       9517       9528       9527  
      9396       9397       9408       9407       9517       9518       9529       9528  
      9397       9398       9409       9408       9518       9519       9530       9529  
      9398       9399       9410       9409       9519       9520       9531       9530  
      9399       9400       9411       9410       9520       9521       9532       9531  
      9400       9401       9412       9411       9521       9522       9533       9532  
      9401       9402       9413       9412       9522       9523       9534       9533  
      9402       9403       9414       9413       9523       9524       9535       9534  
      9403       9404       9415       9414       9524       9525       9536       9535  
      9404       9405       9416       9415       9525       9526       9537       9536  
      9406       9407       9418       9417       9527       9528       9539       9538  
      9407       9408       9419       9418       9528       9529       9540       9539  
      9408       9409       9420       9419       9529       9530       9541       9540  
      9409       9410       9421       9420       9530       9531       9542       9541  
      9410       9411       9422       9421       9531       9532       9543       9542  
      9411       9412       9423       9422       9532       9533       9544       9543  
      9412       9413       9424       9423       9533       9534       9545       9544  
      9413       9414       9425       9424       9534       9535       9546       9545  
      9414       9415       9426       9425       9535       9536       9547       9546  
      9415       9416       9427       9426       9536       9537       9548       9547  
      9417       9418       9429       9428       9538       9539       9550       9549  
      9418       9419       9430       9429       9539       9540       9551       9550  
      9419       9420       9431       9430       9540       9541       9552       9551  
      9420       9421       9432       9431       9541       9542       9553       9552  
      9421       9422       9433       9432       9542       9543       9554       9553  
      9422       9423       9434       9433       9543       9544       9555       9554  
      9423       9424       9435       9434       9544       9545       9556       9555  
      9424       9425       9436       9435       9545       9546       9557       9556  
      9425       9426       9437       9436       9546       9547       9558       9557  
      9426       9427       9438       9437       9547       9548       9559       9558  
      9439       9440       9451       9450       9560       9561       9572       9571  
      9440       9441       9452       9451       9561       9562       9573       9572  
      9441       9442       9453       9452       9562       9563       9574       9573  
      9442       9443       9454       9453       9563       9564       9575       9574  
      9443       9444       9455       9454       9564       9565       9576       9575  
      9444       9445       9456       9455       9565       9566       9577       9576  
      9445       9446       9457       9456       9566       9567       9578       9577  
      9446       9447       9458       9457       9567       9568       9579       9578  
      9447       9448       9459       9458       9568       9569       9580       9579  
      9448       9449       9460       9459       9569       9570       9581       9580  
      9450       9451       9462       9461       9571       9572       9583       9582  
      9451       9452       9463       9462       9572       9573       9584       9583  
      9452       9453       9464       9463       9573       9574       9585       9584  
      9453       9454       9465       9464       9574       9575       9586       9585  
      9454       9455       9466       9465       9575       9576       9587       9586  
      9455       9456       9467       9466       9576       9577       9588       9587  
      9456       9457       9468       9467       9577       9578       9589       9588  
      9457       9458       9469       9468       9578       9579       9590       9589  
      9458       9459       9470       9469       9579       9580       9591       9590  
      9459       9460       9471       9470       9580       9581       9592       9591  
      9461       9462       9473       9472       9582       9583       9594       9593  
      9462       9463       9474       9473       9583       9584       9595       9594  
      9463       9464       9475       9474       9584       9585       9596       9595  
      9464       9465       9476       9475       9585       9586       9597       9596  
      9465       9466       9477       9476       9586       9587       9598       9597  
      9466       9467       9478       9477       9587       9588       9599       9598  
      9467       9468       9479       9478       9588       9589       9600       9599  
      9468       9469       9480       9479       9589       9590       9601       9600  
      9469       9470       9481       9480       9590       9591       9602       9601  
      9470       9471       9482       9481       9591       9592       9603       9602  
      9472       9473       9484       9483       9593       9594       9605       9604  
      9473       9474       9485       9484       9594       9595       9606       9605  
      9474       9475       9486       9485       9595       9596       9607       9606  
      9475       9476       9487       9486       9596       9597       9608       9607  
      9476       9477       9488       9487       9597       9598       9609       9608  
      9477       9478       9489       9488       9598       9599       9610       9609  
      9478       9479       9490       9489       9599       9600       9611       9610  
      9479       9480       9491       9490       9600       9601       9612       9611  
      9480       9481       9492       9491       9601       9602       9613       9612  
      9481       9482       9493       9492       9602       9603       9614       9613  
      9483       9484       9495       9494       9604       9605       9616       9615  
      9484       9485       9496       9495       9605       9606       9617       9616  
      9485       9486       9497       9496       9606       9607       9618       9617  
      9486       9487       9498       9497       9607       9608       9619       9618  
      9487       9488       9499       9498       9608       9609       9620       9619  
      9488       9489       9500       9499       9609       9610       9621       9620  
      9489       9490       9501       9500       9610       9611       9622       9621  
      9490       9491       9502       9501       9611       9612       9623       9622  
      9491       9492       9503       9502       9612       9613       9624       9623  
      9492       9493       9504       9503       9613       9614       9625       9624  
      9494       9495       9506       9505       9615       9616       9627       9626  
      9495       9496       9507       9506       9616       9617       9628       9627  
      9496       9497       9508       9507       9617       9618       9629       9628  
      9497       9498       9509       9508       9618       9619       9630       9629  
      9498       9499       9510       9509       9619       9620       9631       9630  
      9499       9500       9511       9510       9620       9621       9632       9631  
      9500       9501       9512       9511       9621       9622       9633       9632  
      9501       9502       9513       9512       9622       9623       9634       9633  
      9502       9503       9514       9513       9623       9624       9635       9634  
      9503       9504       9515       9514       9624       9625       9636       9635  
      9505       9506       9517       9516       9626       9627       9638       9637  
      9506       9507       9518       9517       9627       9628       9639       9638  
      9507       9508       9519       9518       9628       9629       9640       9639  
      9508       9509       9520       9519       9629       9630       9641       9640  
      9509       9510       9521       9520       9630       9631       9642       9641  
      9510       9511       9522       9521       9631       9632       9643       9642  
      9511       9512       9523       9522       9632       9633       9644       9643  
      9512       9513       9524       9523       9633       9634       9645       9644  
      9513       9514       9525       9524       9634       9635       9646       9645  
      9514       9515       9526       9525       9635       9636       9647       9646  
      9516       9517       9528       9527       9637       9638       9649       9648  
      9517       9518       9529       9528       9638       9639       9650       9649  
      9518       9519       9530       9529       9639       9640       9651       9650  
      9519       9520       9531       9530       9640       9641       9652       9651  
      9520       9521       9532       9531       9641       9642       9653       9652  
      9521       9522       9533       9532       9642       9643       9654       9653  
      9522       9523       9534       9533       9643       9644       9655       9654  
      9523       9524       9535       9534       9644       9645       9656       9655  
      9524       9525       9536       9535       9645       9646       9657       9656  
      9525       9526       9537       9536       9646       9647       9658       9657  
      9527       9528       9539       9538       9648       9649       9660       9659  
      9528       9529       9540       9539       9649       9650       9661       9660  
      9529       9530       9541       9540       9650       9651       9662       9661  
      9530       9531       9542       9541       9651       9652       9663       9662  
      9531       9532       9543       9542       9652       9653       9664       9663  
      9532       9533       9544       9543       9653       9654       9665       9664  
      9533       9534       9545       9544       9654       9655       9666       9665  
      9534       9535       9546       9545       9655       9656       9667       9666  
      9535       9536       9547       9546       9656       9657       9668       9667  
      9536       9537       9548       9547       9657       9658       9669       9668  
      9538       9539       9550       9549       9659       9660       9671       9670  
      9539       9540       9551       9550       9660       9661       9672       9671  
      9540       9541       9552       9551       9661       9662       9673       9672  
      9541       9542       9553       9552       9662       9663       9674       9673  
      9542       9543       9554       9553       9663       9664       9675       9674  
      9543       9544       9555       9554       9664       9665       9676       9675  
      9544       9545       9556       9555       9665       9666       9677       9676  
      9545       9546       9557       9556       9666       9667       9678       9677  
      9546       9547       9558       9557       9667       9668       9679       9678  
      9547       9548       9559       9558       9668       9669       9680       9679  
      9560       9561       9572       9571       9681       9682       9693       9692  
      9561       9562       9573       9572       9682       9683       9694       9693  
      9562       9563       9574       9573       9683       9684       9695       9694  
      9563       9564       9575       9574       9684       9685       9696       9695  
      9564       9565       9576       9575       9685       9686       9697       9696  
      9565       9566       9577       9576       9686       9687       9698       9697  
      9566       9567       9578       9577       9687       9688       9699       9698  
      9567       9568       9579       9578       9688       9689       9700       9699  
      9568       9569       9580       9579       9689       9690       9701       9700  
      9569       9570       9581       9580       9690       9691       9702       9701  
      9571       9572       9583       9582       9692       9693       9704       9703  
      9572       9573       9584       9583       9693       9694       9705       9704  
      9573       9574       9585       9584       9694       9695       9706       9705  
      9574       9575       9586       9585       9695       9696       9707       9706  
      9575       9576       9587       9586       9696       9697       9708       9707  
      9576       9577       9588       9587       9697       9698       9709       9708  
      9577       9578       9589       9588       9698       9699       9710       9709  
      9578       9579       9590       9589       9699       9700       9711       9710  
      9579       9580       9591       9590       9700       9701       9712       9711  
      9580       9581       9592       9591       9701       9702       9713       9712  
      9582       9583       9594       9593       9703       9704       9715       9714  
      9583       9584       9595       9594       9704       9705       9716       9715  
      9584       9585       9596       9595       9705       9706       9717       9716  
      9585       9586       9597       9596       9706       9707       9718       9717  
      9586       9587       9598       9597       9707       9708       9719       9718  
      9587       9588       9599       9598       9708       9709       9720       9719  
      9588       9589       9600       9599       9709       9710       9721       9720  
      9589       9590       9601       9600       9710       9711       9722       9721  
      9590       9591       9602       9601       9711       9712       9723       9722  
      9591       9592       9603       9602       9712       9713       9724       9723  
      9593       9594       9605       9604       9714       9715       9726       9725  
      9594       9595       9606       9605       9715       9716       9727       9726  
      9595       9596       9607       9606       9716       9717       9728       9727  
      9596       9597       9608       9607       9717       9718       9729       9728  
      9597       9598       9609       9608       9718       9719       9730       9729  
      9598       9599       9610       9609       9719       9720       9731       9730  
      9599       9600       9611       9610       9720       9721       9732       9731  
      9600       9601       9612       9611       9721       9722       9733       9732  
      9601       9602       9613       9612       9722       9723       9734       9733  
      9602       9603       9614       9613       9723       9724       9735       9734  
      9604       9605       9616       9615       9725       9726       9737       9736  
      9605       9606       9617       9616       9726       9727       9738       9737  
      9606       9607       9618       9617       9727       9728       9739       9738  
      9607       9608       9619       9618       9728       9729       9740       9739  
      9608       9609       9620       9619       9729       9730       9741       9740  
      9609       9610       9621       9620       9730       9731       9742       9741  
      9610       9611       9622       9621       9731       9732       9743       9742  
      9611       9612       9623       9622       9732       9733       9744       9743  
      9612       9613       9624       9623       9733       9734       9745       9744  
      9613       9614       9625       9624       9734       9735       9746       9745  
      9615       9616       9627       9626       9736       9737       9748       9747  
      9616       9617       9628       9627       9737       9738       9749       9748  
      9617       9618       9629       9628       9738       9739       9750       9749  
      9618       9619       9630       9629       9739       9740       9751       9750  
      9619       9620       9631       9630       9740       9741       9752       9751  
      9620       9621       9632       9631       9741       9742       9753       9752  
      9621       9622       9633       9632       9742       9743       9754       9753  
      9622       9623       9634       9633       9743       9744       9755       9754  
      9623       9624       9635       9634       9744       9745       9756       9755  
      9624       9625       9636       9635       9745       9746       9757       9756  
      9626       9627       9638       9637       9747       9748       9759       9758  
      9627       9628       9639       9638       9748       9749       9760       9759  
      9628       9629       9640       9639       9749       9750       9761       9760  
      9629       9630       9641       9640       9750       9751       9762       9761  
      9630       9631       9642       9641       9751       9752       9763       9762  
      9631       9632       9643       9642       9752       9753       9764       9763  
      9632       9633       9644       9643       9753       9754       9765       9764  
      9633       9634       9645       9644       9754       9755       9766       9765  
      9634       9635       9646       9645       9755       9756       9767       9766  
      9635       9636       9647       9646       9756       9757       9768       9767  
      9637       9638       9649       9648       9758       9759       9770       9769  
      9638       9639       9650       9649       9759       9760       9771       9770  
      9639       9640       9651       9650       9760       9761       9772       9771  
      9640       9641       9652       9651       9761       9762       9773       9772  
      9641       9642       9653       9652       9762       9763       9774       9773  
      9642       9643       9654       9653       9763       9764       9775       9774  
      9643       9644       9655       9654       9764       9765       9776       9775  
      9644       9645       9656       9655       9765       9766       9777       9776  
      9645       9646       9657       9656       9766       9767       9778       9777  
      9646       9647       9658       9657       9767       9768       9779       9778  
      9648       9649       9660       9659       9769       9770       9781       9780  
      9649       9650       9661       9660       9770       9771       9782       9781  
      9650       9651       9662       9661       9771       9772       9783       9782  
      9651       9652       9663       9662       9772       9773       9784       9783  
      9652       9653       9664       9663       9773       9774       9785       9784  
      9653       9654       9665       9664       9774       9775       9786       9785  
      9654       9655       9666       9665       9775       9776       9787       9786  
      9655       9656       9667       9666       9776       9777       9788       9787  
      9656       9657       9668       9667       9777       9778       9789       9788  
      9657       9658       9669       9668       9778       9779       9790       9789  
      9659       9660       9671       9670       9780       9781       9792       9791  
      9660       9661       9672       9671       9781       9782       9793       9792  
      9661       9662       9673       9672       9782       9783       9794       9793  
      9662       9663       9674       9673       9783       9784       9795       9794  
      9663       9664       9675       9674       9784       9785       9796       9795  
      9664       9665       9676       9675       9785       9786       9797       9796  
      9665       9666       9677       9676       9786       9787       9798       9797  
      9666       9667       9678       9677       9787       9788       9799       9798  
      9667       9668       9679       9678       9788       9789       9800       9799  
      9668       9669       9680       9679       9789       9790       9801       9800  
      9681       9682       9693       9692       9802       9803       9814       9813  
      9682       9683       9694       9693       9803       9804       9815       9814  
      9683       9684       9695       9694       9804       9805       9816       9815  
      9684       9685       9696       9695       9805       9806       9817       9816  
      9685       9686       9697       9696       9806       9807       9818       9817  
      9686       9687       9698       9697       9807       9808       9819       9818  
      9687       9688       9699       9698       9808       9809       9820       9819  
      9688       9689       9700       9699       9809       9810       9821       9820  
      9689       9690       9701       9700       9810       9811       9822       9821  
      9690       9691       9702       9701       9811       9812       9823       9822  
      9692       9693       9704       9703       9813       9814       9825       9824  
      9693       9694       9705       9704       9814       9815       9826       9825  
      9694       9695       9706       9705       9815       9816       9827       9826  
      9695       9696       9707       9706       9816       9817       9828       9827  
      9696       9697       9708       9707       9817       9818       9829       9828  
      9697       9698       9709       9708       9818       9819       9830       9829  
      9698       9699       9710       9709       9819       9820       9831       9830  
      9699       9700       9711       9710       9820       9821       9832       9831  
      9700       9701       9712       9711       9821       9822       9833       9832  
      9701       9702       9713       9712       9822       9823       9834       9833  
      9703       9704       9715       9714       9824       9825       9836       9835  
      9704       9705       9716       9715       9825       9826       9837       9836  
      9705       9706       9717       9716       9826       9827       9838       9837  
      9706       9707       9718       9717       9827       9828       9839       9838  
      9707       9708       9719       9718       9828       9829       9840       9839  
      9708       9709       9720       9719       9829       9830       9841       9840  
      9709       9710       9721       9720       9830       9831       9842       9841  
      9710       9711       9722       9721       9831       9832       9843       9842  
      9711       9712       9723       9722       9832       9833       9844       9843  
      9712       9713       9724       9723       9833       9834       9845       9844  
      9714       9715       9726       9725       9835       9836       9847       9846  
      9715       9716       9727       9726       9836       9837       9848       9847  
      9716       9717       9728       9727       9837       9838       9849       9848  
      9717       9718       9729       9728       9838       9839       9850       9849  
      9718       9719       9730       9729       9839       9840       9851       9850  
      9719       9720       9731       9730       9840       9841       9852       9851  
      9720       9721       9732       9731       9841       9842       9853       9852  
      9721       9722       9733       9732       9842       9843       9854       9853  
      9722       9723       9734       9733       9843       9844       9855       9854  
      9723       9724       9735       9734       9844       9845       9856       9855  
      9725       9726       9737       9736       9846       9847       9858       9857  
      9726       9727       9738       9737       9847       9848       9859       9858  
      9727       9728       9739       9738       9848       9849       9860       9859  
      9728       9729       9740       9739       9849       9850       9861       9860  
      9729       9730       9741       9740       9850       9851       9862       9861  
      9730       9731       9742       9741       9851       9852       9863       9862  
      9731       9732       9743       9742       9852       9853       9864       9863  
      9732       9733       9744       9743       9853       9854       9865       9864  
      9733       9734       9745       9744       9854       9855       9866       9865  
      9734       9735       9746       9745       9855       9856       9867       9866  
      9736       9737       9748       9747       9857       9858       9869       9868  
      9737       9738       9749       9748       9858       9859       9870       9869  
      9738       9739       9750       9749       9859       9860       9871       9870  
      9739       9740       9751       9750       9860       9861       9872       9871  
      9740       9741       9752       9751       9861       9862       9873       9872  
      9741       9742       9753       9752       9862       9863       9874       9873  
      9742       9743       9754       9753       9863       9864       9875       9874  
      9743       9744       9755       9754       9864       9865       9876       9875  
      9744       9745       9756       9755       9865       9866       9877       9876  
      9745       9746       9757       9756       9866       9867       9878       9877  
      9747       9748       9759       9758       9868       9869       9880       9879  
      9748       9749       9760       9759       9869       9870       9881       9880  
      9749       9750       9761       9760       9870       9871       9882       9881  
      9750       9751       9762       9761       9871       9872       9883       9882  
      9751       9752       9763       9762       9872       9873       9884       9883  
      9752       9753       9764       9763       9873       9874       9885       9884  
      9753       9754       9765       9764       9874       9875       9886       9885  
      9754       9755       9766       9765       9875       9876       9887       9886  
      9755       9756       9767       9766       9876       9877       9888       9887  
      9756       9757       9768       9767       9877       9878       9889       9888  
      9758       9759       9770       9769       9879       9880       9891       9890  
      9759       9760       9771       9770       9880       9881       9892       9891  
      9760       9761       9772       9771       9881       9882       9893       9892  
      9761       9762       9773       9772       9882       9883       9894       9893  
      9762       9763       9774       9773       9883       9884       9895       9894  
      9763       9764       9775       9774       9884       9885       9896       9895  
      9764       9765       9776       9775       9885       9886       9897       9896  
      9765       9766       9777       9776       9886       9887       9898       9897  
      9766       9767       9778       9777       9887       9888       9899       9898  
      9767       9768       9779       9778       9888       9889       9900       9899  
      9769       9770       9781       9780       9890       9891       9902       9901  
      9770       9771       9782       9781       9891       9892       9903       9902  
      9771       9772       9783       9782       9892       9893       9904       9903  
      9772       9773       9784       9783       9893       9894       9905       9904  
      9773       9774       9785       9784       9894       9895       9906       9905  
      9774       9775       9786       9785       9895       9896       9907       9906  
      9775       9776       9787       9786       9896       9897       9908       9907  
      9776       9777       9788       9787       9897       9898       9909       9908  
      9777       9778       9789       9788       9898       9899       9910       9909  
      9778       9779       9790       9789       9899       9900       9911       9910  
      9780       9781       9792       9791       9901       9902       9913       9912  
      9781       9782       9793       9792       9902       9903       9914       9913  
      9782       9783       9794       9793       9903       9904       9915       9914  
      9783       9784       9795       9794       9904       9905       9916       9915  
      9784       9785       9796       9795       9905       9906       9917       9916  
      9785       9786       9797       9796       9906       9907       9918       9917  
      9786       9787       9798       9797       9907       9908       9919       9918  
      9787       9788       9799       9798       9908       9909       9920       9919  
      9788       9789       9800       9799       9909       9910       9921       9920  
      9789       9790       9801       9800       9910       9911       9922       9921  
      9802       9803       9814       9813       9923       9924       9935       9934  
      9803       9804       9815       9814       9924       9925       9936       9935  
      9804       9805       9816       9815       9925       9926       9937       9936  
      9805       9806       9817       9816       9926       9927       9938       9937  
      9806       9807       9818       9817       9927       9928       9939       9938  
      9807       9808       9819       9818       9928       9929       9940       9939  
      9808       9809       9820       9819       9929       9930       9941       9940  
      9809       9810       9821       9820       9930       9931       9942       9941  
      9810       9811       9822       9821       9931       9932       9943       9942  
      9811       9812       9823       9822       9932       9933       9944       9943  
      9813       9814       9825       9824       9934       9935       9946       9945  
      9814       9815       9826       9825       9935       9936       9947       9946  
      9815       9816       9827       9826       9936       9937       9948       9947  
      9816       9817       9828       9827       9937       9938       9949       9948  
      9817       9818       9829       9828       9938       9939       9950       9949  
      9818       9819       9830       9829       9939       9940       9951       9950  
      9819       9820       9831       9830       9940       9941       9952       9951  
      9820       9821       9832       9831       9941       9942       9953       9952  
      9821       9822       9833       9832       9942       9943       9954       9953  
      9822       9823       9834       9833       9943       9944       9955       9954  
      9824       9825       9836       9835       9945       9946       9957       9956  
      9825       9826       9837       9836       9946       9947       9958       9957  
      9826       9827       9838       9837       9947       9948       9959       9958  
      9827       9828       9839       9838       9948       9949       9960       9959  
      9828       9829       9840       9839       9949       9950       9961       9960  
      9829       9830       9841       9840       9950       9951       9962       9961  
      9830       9831       9842       9841       9951       9952       9963       9962  
      9831       9832       9843       9842       9952       9953       9964       9963  
      9832       9833       9844       9843       9953       9954       9965       9964  
      9833       9834       9845       9844       9954       9955       9966       9965  
      9835       9836       9847       9846       9956       9957       9968       9967  
      9836       9837       9848       9847       9957       9958       9969       9968  
      9837       9838       9849       9848       9958       9959       9970       9969  
      9838       9839       9850       9849       9959       9960       9971       9970  
      9839       9840       9851       9850       9960       9961       9972       9971  
      9840       9841       9852       9851       9961       9962       9973       9972  
      9841       9842       9853       9852       9962       9963       9974       9973  
      9842       9843       9854       9853       9963       9964       9975       9974  
      9843       9844       9855       9854       9964       9965       9976       9975  
      9844       9845       9856       9855       9965       9966       9977       9976  
      9846       9847       9858       9857       9967       9968       9979       9978  
      9847       9848       9859       9858       9968       9969       9980       9979  
      9848       9849       9860       9859       9969       9970       9981       9980  
      9849       9850       9861       9860       9970       9971       9982       9981  
      9850       9851       9862       9861       9971       9972       9983       9982  
      9851       9852       9863       9862       9972       9973       9984       9983  
      9852       9853       9864       9863       9973       9974       9985       9984  
      9853       9854       9865       9864       9974       9975       9986       9985  
      9854       9855       9866       9865       9975       9976       9987       9986  
      9855       9856       9867       9866       9976       9977       9988       9987  
      9857       9858       9869       9868       9978       9979       9990       9989  
      9858       9859       9870       9869       9979       9980       9991       9990  
      9859       9860       9871       9870       9980       9981       9992       9991  
      9860       9861       9872       9871       9981       9982       9993       9992  
      9861       9862       9873       9872       9982       9983       9994       9993  
      9862       9863       9874       9873       9983       9984       9995       9994  
      9863       9864       9875       9874       9984       9985       9996       9995  
      9864       9865       9876       9875       9985       9986       9997       9996  
      9865       9866       9877       9876       9986       9987       9998       9997  
      9866       9867       9878       9877       9987       9988       9999       9998  
      9868       9869       9880       9879       9989       9990      10001      10000  
      9869       9870       9881       9880       9990       9991      10002      10001  
      9870       9871       9882       9881       9991       9992      10003      10002  
      9871       9872       9883       9882       9992       9993      10004      10003  
      9872       9873       9884       9883       9993       9994      10005      10004  
      9873       9874       9885       9884       9994       9995      10006      10005  
      9874       9875       9886       9885       9995       9996      10007      10006  
      9875       9876       9887       9886       9996       9997      10008      10007  
      9876       9877       9888       9887       9997       9998      10009      10008  
      9877       9878       9889       9888       9998       9999      10010      10009  
      9879       9880       9891       9890      10000      10001      10012      10011  
      9880       9881       9892       9891      10001      10002      10013      10012  
      9881       9882       9893       9892      10002      10003      10014      10013  
      9882       9883       9894       9893      10003      10004      10015      10014  
      9883       9884       9895       9894      10004      10005      10016      10015  
      9884       9885       9896       9895      10005      10006      10017      10016  
      9885       9886       9897       9896      10006      10007      10018      10017  
      9886       9887       9898       9897      10007      10008      10019      10018  
      9887       9888       9899       9898      10008      10009      10020      10019  
      9888       9889       9900       9899      10009      10010      10021      10020  
      9890       9891       9902       9901      10011      10012      10023      10022  
      9891       9892       9903       9902      10012      10013      10024      10023  
      9892       9893       9904       9903      10013      10014      10025      10024  
      9893       9894       9905       9904      10014      10015      10026      10025  
      9894       9895       9906       9905      10015      10016      10027      10026  
      9895       9896       9907       9906      10016      10017      10028      10027  
      9896       9897       9908       9907      10017      10018      10029      10028  
      9897       9898       9909       9908      10018      10019      10030      10029  
      9898       9899       9910       9909      10019      10020      10031      10030  
      9899       9900       9911       9910      10020      10021      10032      10031  
      9901       9902       9913       9912      10022      10023      10034      10033  
      9902       9903       9914       9913      10023      10024      10035      10034  
      9903       9904       9915       9914      10024      10025      10036      10035  
      9904       9905       9916       9915      10025      10026      10037      10036  
      9905       9906       9917       9916      10026      10027      10038      10037  
      9906       9907       9918       9917      10027      10028      10039      10038  
      9907       9908       9919       9918      10028      10029      10040      10039  
      9908       9909       9920       9919      10029      10030      10041      10040  
      9909       9910       9921       9920      10030      10031      10042      10041  
      9910       9911       9922       9921      10031      10032      10043      10042  
      9923       9924       9935       9934      10044      10045      10056      10055  
      9924       9925       9936       9935      10045      10046      10057      10056  
      9925       9926       9937       9936      10046      10047      10058      10057  
      9926       9927       9938       9937      10047      10048      10059      10058  
      9927       9928       9939       9938      10048      10049      10060      10059  
      9928       9929       9940       9939      10049      10050      10061      10060  
      9929       9930       9941       9940      10050      10051      10062      10061  
      9930       9931       9942       9941      10051      10052      10063      10062  
      9931       9932       9943       9942      10052      10053      10064      10063  
      9932       9933       9944       9943      10053      10054      10065      10064  
      9934       9935       9946       9945      10055      10056      10067      10066  
      9935       9936       9947       9946      10056      10057      10068      10067  
      9936       9937       9948       9947      10057      10058      10069      10068  
      9937       9938       9949       9948      10058      10059      10070      10069  
      9938       9939       9950       9949      10059      10060      10071      10070  
      9939       9940       9951       9950      10060      10061      10072      10071  
      9940       9941       9952       9951      10061      10062      10073      10072  
      9941       9942       9953       9952      10062      10063      10074      10073  
      9942       9943       9954       9953      10063      10064      10075      10074  
      9943       9944       9955       9954      10064      10065      10076      10075  
      9945       9946       9957       9956      10066      10067      10078      10077  
      9946       9947       9958       9957      10067      10068      10079      10078  
      9947       9948       9959       9958      10068      10069      10080      10079  
      9948       9949       9960       9959      10069      10070      10081      10080  
      9949       9950       9961       9960      10070      10071      10082      10081  
      9950       9951       9962       9961      10071      10072      10083      10082  
      9951       9952       9963       9962      10072      10073      10084      10083  
      9952       9953       9964       9963      10073      10074      10085      10084  
      9953       9954       9965       9964      10074      10075      10086      10085  
      9954       9955       9966       9965      10075      10076      10087      10086  
      9956       9957       9968       9967      10077      10078      10089      10088  
      9957       9958       9969       9968      10078      10079      10090      10089  
      9958       9959       9970       9969      10079      10080      10091      10090  
      9959       9960       9971       9970      10080      10081      10092      10091  
      9960       9961       9972       9971      10081      10082      10093      10092  
      9961       9962       9973       9972      10082      10083      10094      10093  
      9962       9963       9974       9973      10083      10084      10095      10094  
      9963       9964       9975       9974      10084      10085      10096      10095  
      9964       9965       9976       9975      10085      10086      10097      10096  
      9965       9966       9977       9976      10086      10087      10098      10097  
      9967       9968       9979       9978      10088      10089      10100      10099  
      9968       9969       9980       9979      10089      10090      10101      10100  
      9969       9970       9981       9980      10090      10091      10102      10101  
      9970       9971       9982       9981      10091      10092      10103      10102  
      9971       9972       9983       9982      10092      10093      10104      10103  
      9972       9973       9984       9983      10093      10094      10105      10104  
      9973       9974       9985       9984      10094      10095      10106      10105  
      9974       9975       9986       9985      10095      10096      10107      10106  
      9975       9976       9987       9986      10096      10097      10108      10107  
      9976       9977       9988       9987      10097      10098      10109      10108  
      9978       9979       9990       9989      10099      10100      10111      10110  
      9979       9980       9991       9990      10100      10101      10112      10111  
      9980       9981       9992       9991      10101      10102      10113      10112  
      9981       9982       9993       9992      10102      10103      10114      10113  
      9982       9983       9994       9993      10103      10104      10115      10114  
      9983       9984       9995       9994      10104      10105      10116      10115  
      9984       9985       9996       9995      10105      10106      10117      10116  
      9985       9986       9997       9996      10106      10107      10118      10117  
      9986       9987       9998       9997      10107      10108      10119      10118  
      9987       9988       9999       9998      10108      10109      10120      10119  
      9989       9990      10001      10000      10110      10111      10122      10121  
      9990       9991      10002      10001      10111      10112      10123      10122  
      9991       9992      10003      10002      10112      10113      10124      10123  
      9992       9993      10004      10003      10113      10114      10125      10124  
      9993       9994      10005      10004      10114      10115      10126      10125  
      9994       9995      10006      10005      10115      10116      10127      10126  
      9995       9996      10007      10006      10116      10117      10128      10127  
      9996       9997      10008      10007      10117      10118      10129      10128  
      9997       9998      10009      10008      10118      10119      10130      10129  
      9998       9999      10010      10009      10119      10120      10131      10130  
     10000      10001      10012      10011      10121      10122      10133      10132  
     10001      10002      10013      10012      10122      10123      10134      10133  
     10002      10003      10014      10013      10123      10124      10135      10134  
     10003      10004      10015      10014      10124      10125      10136      10135  
     10004      10005      10016      10015      10125      10126      10137      10136  
     10005      10006      10017      10016      10126      10127      10138      10137  
     10006      10007      10018      10017      10127      10128      10139      10138  
     10007      10008      10019      10018      10128      10129      10140      10139  
     10008      10009      10020      10019      10129      10130      10141      10140  
     10009      10010      10021      10020      10130      10131      10142      10141  
     10011      10012      10023      10022      10132      10133      10144      10143  
     10012      10013      10024      10023      10133      10134      10145      10144  
     10013      10014      10025      10024      10134      10135      10146      10145  
     10014      10015      10026      10025      10135      10136      10147      10146  
     10015      10016      10027      10026      10136      10137      10148      10147  
     10016      10017      10028      10027      10137      10138      10149      10148  
     10017      10018      10029      10028      10138      10139      10150      10149  
     10018      10019      10030      10029      10139      10140      10151      10150  
     10019      10020      10031      10030      10140      10141      10152      10151  
     10020      10021      10032      10031      10141      10142      10153      10152  
     10022      10023      10034      10033      10143      10144      10155      10154  
     10023      10024      10035      10034      10144      10145      10156      10155  
     10024      10025      10036      10035      10145      10146      10157      10156  
     10025      10026      10037      10036      10146      10147      10158      10157  
     10026      10027      10038      10037      10147      10148      10159      10158  
     10027      10028      10039      10038      10148      10149      10160      10159  
     10028      10029      10040      10039      10149      10150      10161      10160  
     10029      10030      10041      10040      10150      10151      10162      10161  
     10030      10031      10042      10041      10151      10152      10163      10162  
     10031      10032      10043      10042      10152      10153      10164      10163  
     10044      10045      10056      10055      10165      10166      10177      10176  
     10045      10046      10057      10056      10166      10167      10178      10177  
     10046      10047      10058      10057      10167      10168      10179      10178  
     10047      10048      10059      10058      10168      10169      10180      10179  
     10048      10049      10060      10059      10169      10170      10181      10180  
     10049      10050      10061      10060      10170      10171      10182      10181  
     10050      10051      10062      10061      10171      10172      10183      10182  
     10051      10052      10063      10062      10172      10173      10184      10183  
     10052      10053      10064      10063      10173      10174      10185      10184  
     10053      10054      10065      10064      10174      10175      10186      10185  
     10055      10056      10067      10066      10176      10177      10188      10187  
     10056      10057      10068      10067      10177      10178      10189      10188  
     10057      10058      10069      10068      10178      10179      10190      10189  
     10058      10059      10070      10069      10179      10180      10191      10190  
     10059      10060      10071      10070      10180      10181      10192      10191  
     10060      10061      10072      10071      10181      10182      10193      10192  
     10061      10062      10073      10072      10182      10183      10194      10193  
     10062      10063      10074      10073      10183      10184      10195      10194  
     10063      10064      10075      10074      10184      10185      10196      10195  
     10064      10065      10076      10075      10185      10186      10197      10196  
     10066      10067      10078      10077      10187      10188      10199      10198  
     10067      10068      10079      10078      10188      10189      10200      10199  
     10068      10069      10080      10079      10189      10190      10201      10200  
     10069      10070      10081      10080      10190      10191      10202      10201  
     10070      10071      10082      10081      10191      10192      10203      10202  
     10071      10072      10083      10082      10192      10193      10204      10203  
     10072      10073      10084      10083      10193      10194      10205      10204  
     10073      10074      10085      10084      10194      10195      10206      10205  
     10074      10075      10086      10085      10195      10196      10207      10206  
     10075      10076      10087      10086      10196      10197      10208      10207  
     10077      10078      10089      10088      10198      10199      10210      10209  
     10078      10079      10090      10089      10199      10200      10211      10210  
     10079      10080      10091      10090      10200      10201      10212      10211  
     10080      10081      10092      10091      10201      10202      10213      10212  
     10081      10082      10093      10092      10202      10203      10214      10213  
     10082      10083      10094      10093      10203      10204      10215      10214  
     10083      10084      10095      10094      10204      10205      10216      10215  
     10084      10085      10096      10095      10205      10206      10217      10216  
     10085      10086      10097      10096      10206      10207      10218      10217  
     10086      10087      10098      10097      10207      10208      10219      10218  
     10088      10089      10100      10099      10209      10210      10221      10220  
     10089      10090      10101      10100      10210      10211      10222      10221  
     10090      10091      10102      10101      10211      10212      10223      10222  
     10091      10092      10103      10102      10212      10213      10224      10223  
     10092      10093      10104      10103      10213      10214      10225      10224  
     10093      10094      10105      10104      10214      10215      10226      10225  
     10094      10095      10106      10105      10215      10216      10227      10226  
     10095      10096      10107      10106      10216      10217      10228      10227  
     10096      10097      10108      10107      10217      10218      10229      10228  
     10097      10098      10109      10108      10218      10219      10230      10229  
     10099      10100      10111      10110      10220      10221      10232      10231  
     10100      10101      10112      10111      10221      10222      10233      10232  
     10101      10102      10113      10112      10222      10223      10234      10233  
     10102      10103      10114      10113      10223      10224      10235      10234  
     10103      10104      10115      10114      10224      10225      10236      10235  
     10104      10105      10116      10115      10225      10226      10237      10236  
     10105      10106      10117      10116      10226      10227      10238      10237  
     10106      10107      10118      10117      10227      10228      10239      10238  
     10107      10108      10119      10118      10228      10229      10240      10239  
     10108      10109      10120      10119      10229      10230      10241      10240  
     10110      10111      10122      10121      10231      10232      10243      10242  
     10111      10112      10123      10122      10232      10233      10244      10243  
     10112      10113      10124      10123      10233      10234      10245      10244  
     10113      10114      10125      10124      10234      10235      10246      10245  
     10114      10115      10126      10125      10235      10236      10247      10246  
     10115      10116      10127      10126      10236      10237      10248      10247  
     10116      10117      10128      10127      10237      10238      10249      10248  
     10117      10118      10129      10128      10238      10239      10250      10249  
     10118      10119      10130      10129      10239      10240      10251      10250  
     10119      10120      10131      10130      10240      10241      10252      10251  
     10121      10122      10133      10132      10242      10243      10254      10253  
     10122      10123      10134      10133      10243      10244      10255      10254  
     10123      10124      10135      10134      10244      10245      10256      10255  
     10124      10125      10136      10135      10245      10246      10257      10256  
     10125      10126      10137      10136      10246      10247      10258      10257  
     10126      10127      10138      10137      10247      10248      10259      10258  
     10127      10128      10139      10138      10248      10249      10260      10259  
     10128      10129      10140      10139      10249      10250      10261      10260  
     10129      10130      10141      10140      10250      10251      10262      10261  
     10130      10131      10142      10141      10251      10252      10263      10262  
     10132      10133      10144      10143      10253      10254      10265      10264  
     10133      10134      10145      10144      10254      10255      10266      10265  
     10134      10135      10146      10145      10255      10256      10267      10266  
     10135      10136      10147      10146      10256      10257      10268      10267  
     10136      10137      10148      10147      10257      10258      10269      10268  
     10137      10138      10149      10148      10258      10259      10270      10269  
     10138      10139      10150      10149      10259      10260      10271      10270  
     10139      10140      10151      10150      10260      10261      10272      10271  
     10140      10141      10152      10151      10261      10262      10273      10272  
     10141      10142      10153      10152      10262      10263      10274      10273  
     10143      10144      10155      10154      10264      10265      10276      10275  
     10144      10145      10156      10155      10265      10266      10277      10276  
     10145      10146      10157      10156      10266      10267      10278      10277  
     10146      10147      10158      10157      10267      10268      10279      10278  
     10147      10148      10159      10158      10268      10269      10280      10279  
     10148      10149      10160      10159      10269      10270      10281      10280  
     10149      10150      10161      10160      10270      10271      10282      10281  
     10150      10151      10162      10161      10271      10272      10283      10282  
     10151      10152      10163      10162      10272      10273      10284      10283  
     10152      10153      10164      10163      10273      10274      10285      10284  
     10165      10166      10177      10176      10286      10287      10298      10297  
     10166      10167      10178      10177      10287      10288      10299      10298  
     10167      10168      10179      10178      10288      10289      10300      10299  
     10168      10169      10180      10179      10289      10290      10301      10300  
     10169      10170      10181      10180      10290      10291      10302      10301  
     10170      10171      10182      10181      10291      10292      10303      10302  
     10171      10172      10183      10182      10292      10293      10304      10303  
     10172      10173      10184      10183      10293      10294      10305      10304  
     10173      10174      10185      10184      10294      10295      10306      10305  
     10174      10175      10186      10185      10295      10296      10307      10306  
     10176      10177      10188      10187      10297      10298      10309      10308  
     10177      10178      10189      10188      10298      10299      10310      10309  
     10178      10179      10190      10189      10299      10300      10311      10310  
     10179      10180      10191      10190      10300      10301      10312      10311  
     10180      10181      10192      10191      10301      10302      10313      10312  
     10181      10182      10193      10192      10302      10303      10314      10313  
     10182      10183      10194      10193      10303      10304      10315      10314  
     10183      10184      10195      10194      10304      10305      10316      10315  
     10184      10185      10196      10195      10305      10306      10317      10316  
     10185      10186      10197      10196      10306      10307      10318      10317  
     10187      10188      10199      10198      10308      10309      10320      10319  
     10188      10189      10200      10199      10309      10310      10321      10320  
     10189      10190      10201      10200      10310      10311      10322      10321  
     10190      10191      10202      10201      10311      10312      10323      10322  
     10191      10192      10203      10202      10312      10313      10324      10323  
     10192      10193      10204      10203      10313      10314      10325      10324  
     10193      10194      10205      10204      10314      10315      10326      10325  
     10194      10195      10206      10205      10315      10316      10327      10326  
     10195      10196      10207      10206      10316      10317      10328      10327  
     10196      10197      10208      10207      10317      10318      10329      10328  
     10198      10199      10210      10209      10319      10320      10331      10330  
     10199      10200      10211      10210      10320      10321      10332      10331  
     10200      10201      10212      10211      10321      10322      10333      10332  
     10201      10202      10213      10212      10322      10323      10334      10333  
     10202      10203      10214      10213      10323      10324      10335      10334  
     10203      10204      10215      10214      10324      10325      10336      10335  
     10204      10205      10216      10215      10325      10326      10337      10336  
     10205      10206      10217      10216      10326      10327      10338      10337  
     10206      10207      10218      10217      10327      10328      10339      10338  
     10207      10208      10219      10218      10328      10329      10340      10339  
     10209      10210      10221      10220      10330      10331      10342      10341  
     10210      10211      10222      10221      10331      10332      10343      10342  
     10211      10212      10223      10222      10332      10333      10344      10343  
     10212      10213      10224      10223      10333      10334      10345      10344  
     10213      10214      10225      10224      10334      10335      10346      10345  
     10214      10215      10226      10225      10335      10336      10347      10346  
     10215      10216      10227      10226      10336      10337      10348      10347  
     10216      10217      10228      10227      10337      10338      10349      10348  
     10217      10218      10229      10228      10338      10339      10350      10349  
     10218      10219      10230      10229      10339      10340      10351      10350  
     10220      10221      10232      10231      10341      10342      10353      10352  
     10221      10222      10233      10232      10342      10343      10354      10353  
     10222      10223      10234      10233      10343      10344      10355      10354  
     10223      10224      10235      10234      10344      10345      10356      10355  
     10224      10225      10236      10235      10345      10346      10357      10356  
     10225      10226      10237      10236      10346      10347      10358      10357  
     10226      10227      10238      10237      10347      10348      10359      10358  
     10227      10228      10239      10238      10348      10349      10360      10359  
     10228      10229      10240      10239      10349      10350      10361      10360  
     10229      10230      10241      10240      10350      10351      10362      10361  
     10231      10232      10243      10242      10352      10353      10364      10363  
     10232      10233      10244      10243      10353      10354      10365      10364  
     10233      10234      10245      10244      10354      10355      10366      10365  
     10234      10235      10246      10245      10355      10356      10367      10366  
     10235      10236      10247      10246      10356      10357      10368      10367  
     10236      10237      10248      10247      10357      10358      10369      10368  
     10237      10238      10249      10248      10358      10359      10370      10369  
     10238      10239      10250      10249      10359      10360      10371      10370  
     10239      10240      10251      10250      10360      10361      10372      10371  
     10240      10241      10252      10251      10361      10362      10373      10372  
     10242      10243      10254      10253      10363      10364      10375      10374  
     10243      10244      10255      10254      10364      10365      10376      10375  
     10244      10245      10256      10255      10365      10366      10377      10376  
     10245      10246      10257      10256      10366      10367      10378      10377  
     10246      10247      10258      10257      10367      10368      10379      10378  
     10247      10248      10259      10258      10368      10369      10380      10379  
     10248      10249      10260      10259      10369      10370      10381      10380  
     10249      10250      10261      10260      10370      10371      10382      10381  
     10250      10251      10262      10261      10371      10372      10383      10382  
     10251      10252      10263      10262      10372      10373      10384      10383  
     10253      10254      10265      10264      10374      10375      10386      10385  
     10254      10255      10266      10265      10375      10376      10387      10386  
     10255      10256      10267      10266      10376      10377      10388      10387  
     10256      10257      10268      10267      10377      10378      10389      10388  
     10257      10258      10269      10268      10378      10379      10390      10389  
     10258      10259      10270      10269      10379      10380      10391      10390  
     10259      10260      10271      10270      10380      10381      10392      10391  
     10260      10261      10272      10271      10381      10382      10393      10392  
     10261      10262      10273      10272      10382      10383      10394      10393  
     10262      10263      10274      10273      10383      10384      10395      10394  
     10264      10265      10276      10275      10385      10386      10397      10396  
     10265      10266      10277      10276      10386      10387      10398      10397  
     10266      10267      10278      10277      10387      10388      10399      10398  
     10267      10268      10279      10278      10388      10389      10400      10399  
     10268      10269      10280      10279      10389      10390      10401      10400  
     10269      10270      10281      10280      10390      10391      10402      10401  
     10270      10271      10282      10281      10391      10392      10403      10402  
     10271      10272      10283      10282      10392      10393      10404      10403  
     10272      10273      10284      10283      10393      10394      10405      10404  
     10273      10274      10285      10284      10394      10395      10406      10405  
     10286      10287      10298      10297      10407      10408      10419      10418  
     10287      10288      10299      10298      10408      10409      10420      10419  
     10288      10289      10300      10299      10409      10410      10421      10420  
     10289      10290      10301      10300      10410      10411      10422      10421  
     10290      10291      10302      10301      10411      10412      10423      10422  
     10291      10292      10303      10302      10412      10413      10424      10423  
     10292      10293      10304      10303      10413      10414      10425      10424  
     10293      10294      10305      10304      10414      10415      10426      10425  
     10294      10295      10306      10305      10415      10416      10427      10426  
     10295      10296      10307      10306      10416      10417      10428      10427  
     10297      10298      10309      10308      10418      10419      10430      10429  
     10298      10299      10310      10309      10419      10420      10431      10430  
     10299      10300      10311      10310      10420      10421      10432      10431  
     10300      10301      10312      10311      10421      10422      10433      10432  
     10301      10302      10313      10312      10422      10423      10434      10433  
     10302      10303      10314      10313      10423      10424      10435      10434  
     10303      10304      10315      10314      10424      10425      10436      10435  
     10304      10305      10316      10315      10425      10426      10437      10436  
     10305      10306      10317      10316      10426      10427      10438      10437  
     10306      10307      10318      10317      10427      10428      10439      10438  
     10308      10309      10320      10319      10429      10430      10441      10440  
     10309      10310      10321      10320      10430      10431      10442      10441  
     10310      10311      10322      10321      10431      10432      10443      10442  
     10311      10312      10323      10322      10432      10433      10444      10443  
     10312      10313      10324      10323      10433      10434      10445      10444  
     10313      10314      10325      10324      10434      10435      10446      10445  
     10314      10315      10326      10325      10435      10436      10447      10446  
     10315      10316      10327      10326      10436      10437      10448      10447  
     10316      10317      10328      10327      10437      10438      10449      10448  
     10317      10318      10329      10328      10438      10439      10450      10449  
     10319      10320      10331      10330      10440      10441      10452      10451  
     10320      10321      10332      10331      10441      10442      10453      10452  
     10321      10322      10333      10332      10442      10443      10454      10453  
     10322      10323      10334      10333      10443      10444      10455      10454  
     10323      10324      10335      10334      10444      10445      10456      10455  
     10324      10325      10336      10335      10445      10446      10457      10456  
     10325      10326      10337      10336      10446      10447      10458      10457  
     10326      10327      10338      10337      10447      10448      10459      10458  
     10327      10328      10339      10338      10448      10449      10460      10459  
     10328      10329      10340      10339      10449      10450      10461      10460  
     10330      10331      10342      10341      10451      10452      10463      10462  
     10331      10332      10343      10342      10452      10453      10464      10463  
     10332      10333      10344      10343      10453      10454      10465      10464  
     10333      10334      10345      10344      10454      10455      10466      10465  
     10334      10335      10346      10345      10455      10456      10467      10466  
     10335      10336      10347      10346      10456      10457      10468      10467  
     10336      10337      10348      10347      10457      10458      10469      10468  
     10337      10338      10349      10348      10458      10459      10470      10469  
     10338      10339      10350      10349      10459      10460      10471      10470  
     10339      10340      10351      10350      10460      10461      10472      10471  
     10341      10342      10353      10352      10462      10463      10474      10473  
     10342      10343      10354      10353      10463      10464      10475      10474  
     10343      10344      10355      10354      10464      10465      10476      10475  
     10344      10345      10356      10355      10465      10466      10477      10476  
     10345      10346      10357      10356      10466      10467      10478      10477  
     10346      10347      10358      10357      10467      10468      10479      10478  
     10347      10348      10359      10358      10468      10469      10480      10479  
     10348      10349      10360      10359      10469      10470      10481      10480  
     10349      10350      10361      10360      10470      10471      10482      10481  
     10350      10351      10362      10361      10471      10472      10483      10482  
     10352      10353      10364      10363      10473      10474      10485      10484  
     10353      10354      10365      10364      10474      10475      10486      10485  
     10354      10355      10366      10365      10475      10476      10487      10486  
     10355      10356      10367      10366      10476      10477      10488      10487  
     10356      10357      10368      10367      10477      10478      10489      10488  
     10357      10358      10369      10368      10478      10479      10490      10489  
     10358      10359      10370      10369      10479      10480      10491      10490  
     10359      10360      10371      10370      10480      10481      10492      10491  
     10360      10361      10372      10371      10481      10482      10493      10492  
     10361      10362      10373      10372      10482      10483      10494      10493  
     10363      10364      10375      10374      10484      10485      10496      10495  
     10364      10365      10376      10375      10485      10486      10497      10496  
     10365      10366      10377      10376      10486      10487      10498      10497  
     10366      10367      10378      10377      10487      10488      10499      10498  
     10367      10368      10379      10378      10488      10489      10500      10499  
     10368      10369      10380      10379      10489      10490      10501      10500  
     10369      10370      10381      10380      10490      10491      10502      10501  
     10370      10371      10382      10381      10491      10492      10503      10502  
     10371      10372      10383      10382      10492      10493      10504      10503  
     10372      10373      10384      10383      10493      10494      10505      10504  
     10374      10375      10386      10385      10495      10496      10507      10506  
     10375      10376      10387      10386      10496      10497      10508      10507  
     10376      10377      10388      10387      10497      10498      10509      10508  
     10377      10378      10389      10388      10498      10499      10510      10509  
     10378      10379      10390      10389      10499      10500      10511      10510  
     10379      10380      10391      10390      10500      10501      10512      10511  
     10380      10381      10392      10391      10501      10502      10513      10512  
     10381      10382      10393      10392      10502      10503      10514      10513  
     10382      10383      10394      10393      10503      10504      10515      10514  
     10383      10384      10395      10394      10504      10505      10516      10515  
     10385      10386      10397      10396      10506      10507      10518      10517  
     10386      10387      10398      10397      10507      10508      10519      10518  
     10387      10388      10399      10398      10508      10509      10520      10519  
     10388      10389      10400      10399      10509      10510      10521      10520  
     10389      10390      10401      10400      10510      10511      10522      10521  
     10390      10391      10402      10401      10511      10512      10523      10522  
     10391      10392      10403      10402      10512      10513      10524      10523  
     10392      10393      10404      10403      10513      10514      10525      10524  
     10393      10394      10405      10404      10514      10515      10526      10525  
     10394      10395      10406      10405      10515      10516      10527      10526  
     10407      10408      10419      10418      10528      10529      10540      10539  
     10408      10409      10420      10419      10529      10530      10541      10540  
     10409      10410      10421      10420      10530      10531      10542      10541  
     10410      10411      10422      10421      10531      10532      10543      10542  
     10411      10412      10423      10422      10532      10533      10544      10543  
     10412      10413      10424      10423      10533      10534      10545      10544  
     10413      10414      10425      10424      10534      10535      10546      10545  
     10414      10415      10426      10425      10535      10536      10547      10546  
     10415      10416      10427      10426      10536      10537      10548      10547  
     10416      10417      10428      10427      10537      10538      10549      10548  
     10418      10419      10430      10429      10539      10540      10551      10550  
     10419      10420      10431      10430      10540      10541      10552      10551  
     10420      10421      10432      10431      10541      10542      10553      10552  
     10421      10422      10433      10432      10542      10543      10554      10553  
     10422      10423      10434      10433      10543      10544      10555      10554  
     10423      10424      10435      10434      10544      10545      10556      10555  
     10424      10425      10436      10435      10545      10546      10557      10556  
     10425      10426      10437      10436      10546      10547      10558      10557  
     10426      10427      10438      10437      10547      10548      10559      10558  
     10427      10428      10439      10438      10548      10549      10560      10559  
     10429      10430      10441      10440      10550      10551      10562      10561  
     10430      10431      10442      10441      10551      10552      10563      10562  
     10431      10432      10443      10442      10552      10553      10564      10563  
     10432      10433      10444      10443      10553      10554      10565      10564  
     10433      10434      10445      10444      10554      10555      10566      10565  
     10434      10435      10446      10445      10555      10556      10567      10566  
     10435      10436      10447      10446      10556      10557      10568      10567  
     10436      10437      10448      10447      10557      10558      10569      10568  
     10437      10438      10449      10448      10558      10559      10570      10569  
     10438      10439      10450      10449      10559      10560      10571      10570  
     10440      10441      10452      10451      10561      10562      10573      10572  
     10441      10442      10453      10452      10562      10563      10574      10573  
     10442      10443      10454      10453      10563      10564      10575      10574  
     10443      10444      10455      10454      10564      10565      10576      10575  
     10444      10445      10456      10455      10565      10566      10577      10576  
     10445      10446      10457      10456      10566      10567      10578      10577  
     10446      10447      10458      10457      10567      10568      10579      10578  
     10447      10448      10459      10458      10568      10569      10580      10579  
     10448      10449      10460      10459      10569      10570      10581      10580  
     10449      10450      10461      10460      10570      10571      10582      10581  
     10451      10452      10463      10462      10572      10573      10584      10583  
     10452      10453      10464      10463      10573      10574      10585      10584  
     10453      10454      10465      10464      10574      10575      10586      10585  
     10454      10455      10466      10465      10575      10576      10587      10586  
     10455      10456      10467      10466      10576      10577      10588      10587  
     10456      10457      10468      10467      10577      10578      10589      10588  
     10457      10458      10469      10468      10578      10579      10590      10589  
     10458      10459      10470      10469      10579      10580      10591      10590  
     10459      10460      10471      10470      10580      10581      10592      10591  
     10460      10461      10472      10471      10581      10582      10593      10592  
     10462      10463      10474      10473      10583      10584      10595      10594  
     10463      10464      10475      10474      10584      10585      10596      10595  
     10464      10465      10476      10475      10585      10586      10597      10596  
     10465      10466      10477      10476      10586      10587      10598      10597  
     10466      10467      10478      10477      10587      10588      10599      10598  
     10467      10468      10479      10478      10588      10589      10600      10599  
     10468      10469      10480      10479      10589      10590      10601      10600  
     10469      10470      10481      10480      10590      10591      10602      10601  
     10470      10471      10482      10481      10591      10592      10603      10602  
     10471      10472      10483      10482      10592      10593      10604      10603  
     10473      10474      10485      10484      10594      10595      10606      10605  
     10474      10475      10486      10485      10595      10596      10607      10606  
     10475      10476      10487      10486      10596      10597      10608      10607  
     10476      10477      10488      10487      10597      10598      10609      10608  
     10477      10478      10489      10488      10598      10599      10610      10609  
     10478      10479      10490      10489      10599      10600      10611      10610  
     10479      10480      10491      10490      10600      10601      10612      10611  
     10480      10481      10492      10491      10601      10602      10613      10612  
     10481      10482      10493      10492      10602      10603      10614      10613  
     10482      10483      10494      10493      10603      10604      10615      10614  
     10484      10485      10496      10495      10605      10606      10617      10616  
     10485      10486      10497      10496      10606      10607      10618      10617  
     10486      10487      10498      10497      10607      10608      10619      10618  
     10487      10488      10499      10498      10608      10609      10620      10619  
     10488      10489      10500      10499      10609      10610      10621      10620  
     10489      10490      10501      10500      10610      10611      10622      10621  
     10490      10491      10502      10501      10611      10612      10623      10622  
     10491      10492      10503      10502      10612      10613      10624      10623  
     10492      10493      10504      10503      10613      10614      10625      10624  
     10493      10494      10505      10504      10614      10615      10626      10625  
     10495      10496      10507      10506      10616      10617      10628      10627  
     10496      10497      10508      10507      10617      10618      10629      10628  
     10497      10498      10509      10508      10618      10619      10630      10629  
     10498      10499      10510      10509      10619      10620      10631      10630  
     10499      10500      10511      10510      10620      10621      10632      10631  
     10500      10501      10512      10511      10621      10622      10633      10632  
     10501      10502      10513      10512      10622      10623      10634      10633  
     10502      10503      10514      10513      10623      10624      10635      10634  
     10503      10504      10515      10514      10624      10625      10636      10635  
     10504      10505      10516      10515      10625      10626      10637      10636  
     10506      10507      10518      10517      10627      10628      10639      10638  
     10507      10508      10519      10518      10628      10629      10640      10639  
     10508      10509      10520      10519      10629      10630      10641      10640  
     10509      10510      10521      10520      10630      10631      10642      10641  
     10510      10511      10522      10521      10631      10632      10643      10642  
     10511      10512      10523      10522      10632      10633      10644      10643  
     10512      10513      10524      10523      10633      10634      10645      10644  
     10513      10514      10525      10524      10634      10635      10646      10645  
     10514      10515      10526      10525      10635      10636      10647      10646  
     10515      10516      10527      10526      10636      10637      10648      10647  
     10528      10529      10540      10539      10649      10650      10661      10660  
     10529      10530      10541      10540      10650      10651      10662      10661  
     10530      10531      10542      10541      10651      10652      10663      10662  
     10531      10532      10543      10542      10652      10653      10664      10663  
     10532      10533      10544      10543      10653      10654      10665      10664  
     10533      10534      10545      10544      10654      10655      10666      10665  
     10534      10535      10546      10545      10655      10656      10667      10666  
     10535      10536      10547      10546      10656      10657      10668      10667  
     10536      10537      10548      10547      10657      10658      10669      10668  
     10537      10538      10549      10548      10658      10659      10670      10669  
     10539      10540      10551      10550      10660      10661      10672      10671  
     10540      10541      10552      10551      10661      10662      10673      10672  
     10541      10542      10553      10552      10662      10663      10674      10673  
     10542      10543      10554      10553      10663      10664      10675      10674  
     10543      10544      10555      10554      10664      10665      10676      10675  
     10544      10545      10556      10555      10665      10666      10677      10676  
     10545      10546      10557      10556      10666      10667      10678      10677  
     10546      10547      10558      10557      10667      10668      10679      10678  
     10547      10548      10559      10558      10668      10669      10680      10679  
     10548      10549      10560      10559      10669      10670      10681      10680  
     10550      10551      10562      10561      10671      10672      10683      10682  
     10551      10552      10563      10562      10672      10673      10684      10683  
     10552      10553      10564      10563      10673      10674      10685      10684  
     10553      10554      10565      10564      10674      10675      10686      10685  
     10554      10555      10566      10565      10675      10676      10687      10686  
     10555      10556      10567      10566      10676      10677      10688      10687  
     10556      10557      10568      10567      10677      10678      10689      10688  
     10557      10558      10569      10568      10678      10679      10690      10689  
     10558      10559      10570      10569      10679      10680      10691      10690  
     10559      10560      10571      10570      10680      10681      10692      10691  
     10561      10562      10573      10572      10682      10683      10694      10693  
     10562      10563      10574      10573      10683      10684      10695      10694  
     10563      10564      10575      10574      10684      10685      10696      10695  
     10564      10565      10576      10575      10685      10686      10697      10696  
     10565      10566      10577      10576      10686      10687      10698      10697  
     10566      10567      10578      10577      10687      10688      10699      10698  
     10567      10568      10579      10578      10688      10689      10700      10699  
     10568      10569      10580      10579      10689      10690      10701      10700  
     10569      10570      10581      10580      10690      10691      10702      10701  
     10570      10571      10582      10581      10691      10692      10703      10702  
     10572      10573      10584      10583      10693      10694      10705      10704  
     10573      10574      10585      10584      10694      10695      10706      10705  
     10574      10575      10586      10585      10695      10696      10707      10706  
     10575      10576      10587      10586      10696      10697      10708      10707  
     10576      10577      10588      10587      10697      10698      10709      10708  
     10577      10578      10589      10588      10698      10699      10710      10709  
     10578      10579      10590      10589      10699      10700      10711      10710  
     10579      10580      10591      10590      10700      10701      10712      10711  
     10580      10581      10592      10591      10701      10702      10713      10712  
     10581      10582      10593      10592      10702      10703      10714      10713  
     10583      10584      10595      10594      10704      10705      10716      10715  
     10584      10585      10596      10595      10705      10706      10717      10716  
     10585      10586      10597      10596      10706      10707      10718      10717  
     10586      10587      10598      10597      10707      10708      10719      10718  
     10587      10588      10599      10598      10708      10709      10720      10719  
     10588      10589      10600      10599      10709      10710      10721      10720  
     10589      10590      10601      10600      10710      10711      10722      10721  
     10590      10591      10602      10601      10711      10712      10723      10722  
     10591      10592      10603      10602      10712      10713      10724      10723  
     10592      10593      10604      10603      10713      10714      10725      10724  
     10594      10595      10606      10605      10715      10716      10727      10726  
     10595      10596      10607      10606      10716      10717      10728      10727  
     10596      10597      10608      10607      10717      10718      10729      10728  
     10597      10598      10609      10608      10718      10719      10730      10729  
     10598      10599      10610      10609      10719      10720      10731      10730  
     10599      10600      10611      10610      10720      10721      10732      10731  
     10600      10601      10612      10611      10721      10722      10733      10732  
     10601      10602      10613      10612      10722      10723      10734      10733  
     10602      10603      10614      10613      10723      10724      10735      10734  
     10603      10604      10615      10614      10724      10725      10736      10735  
     10605      10606      10617      10616      10726      10727      10738      10737  
     10606      10607      10618      10617      10727      10728      10739      10738  
     10607      10608      10619      10618      10728      10729      10740      10739  
     10608      10609      10620      10619      10729      10730      10741      10740  
     10609      10610      10621      10620      10730      10731      10742      10741  
     10610      10611      10622      10621      10731      10732      10743      10742  
     10611      10612      10623      10622      10732      10733      10744      10743  
     10612      10613      10624      10623      10733      10734      10745      10744  
     10613      10614      10625      10624      10734      10735      10746      10745  
     10614      10615      10626      10625      10735      10736      10747      10746  
     10616      10617      10628      10627      10737      10738      10749      10748  
     10617      10618      10629      10628      10738      10739      10750      10749  
     10618      10619      10630      10629      10739      10740      10751      10750  
     10619      10620      10631      10630      10740      10741      10752      10751  
     10620      10621      10632      10631      10741      10742      10753      10752  
     10621      10622      10633      10632      10742      10743      10754      10753  
     10622      10623      10634      10633      10743      10744      10755      10754  
     10623      10624      10635      10634      10744      10745      10756      10755  
     10624      10625      10636      10635      10745      10746      10757      10756  
     10625      10626      10637      10636      10746      10747      10758      10757  
     10627      10628      10639      10638      10748      10749      10760      10759  
     10628      10629      10640      10639      10749      10750      10761      10760  
     10629      10630      10641      10640      10750      10751      10762      10761  
     10630      10631      10642      10641      10751      10752      10763      10762  
     10631      10632      10643      10642      10752      10753      10764      10763  
     10632      10633      10644      10643      10753      10754      10765      10764  
     10633      10634      10645      10644      10754      10755      10766      10765  
     10634      10635      10646      10645      10755      10756      10767      10766  
     10635      10636      10647      10646      10756      10757      10768      10767  
     10636      10637      10648      10647      10757      10758      10769      10768  
     10649      10650      10661      10660      10770      10771      10782      10781  
     10650      10651      10662      10661      10771      10772      10783      10782  
     10651      10652      10663      10662      10772      10773      10784      10783  
     10652      10653      10664      10663      10773      10774      10785      10784  
     10653      10654      10665      10664      10774      10775      10786      10785  
     10654      10655      10666      10665      10775      10776      10787      10786  
     10655      10656      10667      10666      10776      10777      10788      10787  
     10656      10657      10668      10667      10777      10778      10789      10788  
     10657      10658      10669      10668      10778      10779      10790      10789  
     10658      10659      10670      10669      10779      10780      10791      10790  
     10660      10661      10672      10671      10781      10782      10793      10792  
     10661      10662      10673      10672      10782      10783      10794      10793  
     10662      10663      10674      10673      10783      10784      10795      10794  
     10663      10664      10675      10674      10784      10785      10796      10795  
     10664      10665      10676      10675      10785      10786      10797      10796  
     10665      10666      10677      10676      10786      10787      10798      10797  
     10666      10667      10678      10677      10787      10788      10799      10798  
     10667      10668      10679      10678      10788      10789      10800      10799  
     10668      10669      10680      10679      10789      10790      10801      10800  
     10669      10670      10681      10680      10790      10791      10802      10801  
     10671      10672      10683      10682      10792      10793      10804      10803  
     10672      10673      10684      10683      10793      10794      10805      10804  
     10673      10674      10685      10684      10794      10795      10806      10805  
     10674      10675      10686      10685      10795      10796      10807      10806  
     10675      10676      10687      10686      10796      10797      10808      10807  
     10676      10677      10688      10687      10797      10798      10809      10808  
     10677      10678      10689      10688      10798      10799      10810      10809  
     10678      10679      10690      10689      10799      10800      10811      10810  
     10679      10680      10691      10690      10800      10801      10812      10811  
     10680      10681      10692      10691      10801      10802      10813      10812  
     10682      10683      10694      10693      10803      10804      10815      10814  
     10683      10684      10695      10694      10804      10805      10816      10815  
     10684      10685      10696      10695      10805      10806      10817      10816  
     10685      10686      10697      10696      10806      10807      10818      10817  
     10686      10687      10698      10697      10807      10808      10819      10818  
     10687      10688      10699      10698      10808      10809      10820      10819  
     10688      10689      10700      10699      10809      10810      10821      10820  
     10689      10690      10701      10700      10810      10811      10822      10821  
     10690      10691      10702      10701      10811      10812      10823      10822  
     10691      10692      10703      10702      10812      10813      10824      10823  
     10693      10694      10705      10704      10814      10815      10826      10825  
     10694      10695      10706      10705      10815      10816      10827      10826  
     10695      10696      10707      10706      10816      10817      10828      10827  
     10696      10697      10708      10707      10817      10818      10829      10828  
     10697      10698      10709      10708      10818      10819      10830      10829  
     10698      10699      10710      10709      10819      10820      10831      10830  
     10699      10700      10711      10710      10820      10821      10832      10831  
     10700      10701      10712      10711      10821      10822      10833      10832  
     10701      10702      10713      10712      10822      10823      10834      10833  
     10702      10703      10714      10713      10823      10824      10835      10834  
     10704      10705      10716      10715      10825      10826      10837      10836  
     10705      10706      10717      10716      10826      10827      10838      10837  
     10706      10707      10718      10717      10827      10828      10839      10838  
     10707      10708      10719      10718      10828      10829      10840      10839  
     10708      10709      10720      10719      10829      10830      10841      10840  
     10709      10710      10721      10720      10830      10831      10842      10841  
     10710      10711      10722      10721      10831      10832      10843      10842  
     10711      10712      10723      10722      10832      10833      10844      10843  
     10712      10713      10724      10723      10833      10834      10845      10844  
     10713      10714      10725      10724      10834      10835      10846      10845  
     10715      10716      10727      10726      10836      10837      10848      10847  
     10716      10717      10728      10727      10837      10838      10849      10848  
     10717      10718      10729      10728      10838      10839      10850      10849  
     10718      10719      10730      10729      10839      10840      10851      10850  
     10719      10720      10731      10730      10840      10841      10852      10851  
     10720      10721      10732      10731      10841      10842      10853      10852  
     10721      10722      10733      10732      10842      10843      10854      10853  
     10722      10723      10734      10733      10843      10844      10855      10854  
     10723      10724      10735      10734      10844      10845      10856      10855  
     10724      10725      10736      10735      10845      10846      10857      10856  
     10726      10727      10738      10737      10847      10848      10859      10858  
     10727      10728      10739      10738      10848      10849      10860      10859  
     10728      10729      10740      10739      10849      10850      10861      10860  
     10729      10730      10741      10740      10850      10851      10862      10861  
     10730      10731      10742      10741      10851      10852      10863      10862  
     10731      10732      10743      10742      10852      10853      10864      10863  
     10732      10733      10744      10743      10853      10854      10865      10864  
     10733      10734      10745      10744      10854      10855      10866      10865  
     10734      10735      10746      10745      10855      10856      10867      10866  
     10735      10736      10747      10746      10856      10857      10868      10867  
     10737      10738      10749      10748      10858      10859      10870      10869  
     10738      10739      10750      10749      10859      10860      10871      10870  
     10739      10740      10751      10750      10860      10861      10872      10871  
     10740      10741      10752      10751      10861      10862      10873      10872  
     10741      10742      10753      10752      10862      10863      10874      10873  
     10742      10743      10754      10753      10863      10864      10875      10874  
     10743      10744      10755      10754      10864      10865      10876      10875  
     10744      10745      10756      10755      10865      10866      10877      10876  
     10745      10746      10757      10756      10866      10867      10878      10877  
     10746      10747      10758      10757      10867      10868      10879      10878  
     10748      10749      10760      10759      10869      10870      10881      10880  
     10749      10750      10761      10760      10870      10871      10882      10881  
     10750      10751      10762      10761      10871      10872      10883      10882  
     10751      10752      10763      10762      10872      10873      10884      10883  
     10752      10753      10764      10763      10873      10874      10885      10884  
     10753      10754      10765      10764      10874      10875      10886      10885  
     10754      10755      10766      10765      10875      10876      10887      10886  
     10755      10756      10767      10766      10876      10877      10888      10887  
     10756      10757      10768      10767      10877      10878      10889      10888  
     10757      10758      10769      10768      10878      10879      10890      10889  
     10770      10771      10782      10781      10891      10892      10903      10902  
     10771      10772      10783      10782      10892      10893      10904      10903  
     10772      10773      10784      10783      10893      10894      10905      10904  
     10773      10774      10785      10784      10894      10895      10906      10905  
     10774      10775      10786      10785      10895      10896      10907      10906  
     10775      10776      10787      10786      10896      10897      10908      10907  
     10776      10777      10788      10787      10897      10898      10909      10908  
     10777      10778      10789      10788      10898      10899      10910      10909  
     10778      10779      10790      10789      10899      10900      10911      10910  
     10779      10780      10791      10790      10900      10901      10912      10911  
     10781      10782      10793      10792      10902      10903      10914      10913  
     10782      10783      10794      10793      10903      10904      10915      10914  
     10783      10784      10795      10794      10904      10905      10916      10915  
     10784      10785      10796      10795      10905      10906      10917      10916  
     10785      10786      10797      10796      10906      10907      10918      10917  
     10786      10787      10798      10797      10907      10908      10919      10918  
     10787      10788      10799      10798      10908      10909      10920      10919  
     10788      10789      10800      10799      10909      10910      10921      10920  
     10789      10790      10801      10800      10910      10911      10922      10921  
     10790      10791      10802      10801      10911      10912      10923      10922  
     10792      10793      10804      10803      10913      10914      10925      10924  
     10793      10794      10805      10804      10914      10915      10926      10925  
     10794      10795      10806      10805      10915      10916      10927      10926  
     10795      10796      10807      10806      10916      10917      10928      10927  
     10796      10797      10808      10807      10917      10918      10929      10928  
     10797      10798      10809      10808      10918      10919      10930      10929  
     10798      10799      10810      10809      10919      10920      10931      10930  
     10799      10800      10811      10810      10920      10921      10932      10931  
     10800      10801      10812      10811      10921      10922      10933      10932  
     10801      10802      10813      10812      10922      10923      10934      10933  
     10803      10804      10815      10814      10924      10925      10936      10935  
     10804      10805      10816      10815      10925      10926      10937      10936  
     10805      10806      10817      10816      10926      10927      10938      10937  
     10806      10807      10818      10817      10927      10928      10939      10938  
     10807      10808      10819      10818      10928      10929      10940      10939  
     10808      10809      10820      10819      10929      10930      10941      10940  
     10809      10810      10821      10820      10930      10931      10942      10941  
     10810      10811      10822      10821      10931      10932      10943      10942  
     10811      10812      10823      10822      10932      10933      10944      10943  
     10812      10813      10824      10823      10933      10934      10945      10944  
     10814      10815      10826      10825      10935      10936      10947      10946  
     10815      10816      10827      10826      10936      10937      10948      10947  
     10816      10817      10828      10827      10937      10938      10949      10948  
     10817      10818      10829      10828      10938      10939      10950      10949  
     10818      10819      10830      10829      10939      10940      10951      10950  
     10819      10820      10831      10830      10940      10941      10952      10951  
     10820      10821      10832      10831      10941      10942      10953      10952  
     10821      10822      10833      10832      10942      10943      10954      10953  
     10822      10823      10834      10833      10943      10944      10955      10954  
     10823      10824      10835      10834      10944      10945      10956      10955  
     10825      10826      10837      10836      10946      10947      10958      10957  
     10826      10827      10838      10837      10947      10948      10959      10958  
     10827      10828      10839      10838      10948      10949      10960      10959  
     10828      10829      10840      10839      10949      10950      10961      10960  
     10829      10830      10841      10840      10950      10951      10962      10961  
     10830      10831      10842      10841      10951      10952      10963      10962  
     10831      10832      10843      10842      10952      10953      10964      10963  
     10832      10833      10844      10843      10953      10954      10965      10964  
     10833      10834      10845      10844      10954      10955      10966      10965  
     10834      10835      10846      10845      10955      10956      10967      10966  
     10836      10837      10848      10847      10957      10958      10969      10968  
     10837      10838      10849      10848      10958      10959      10970      10969  
     10838      10839      10850      10849      10959      10960      10971      10970  
     10839      10840      10851      10850      10960      10961      10972      10971  
     10840      10841      10852      10851      10961      10962      10973      10972  
     10841      10842      10853      10852      10962      10963      10974      10973  
     10842      10843      10854      10853      10963      10964      10975      10974  
     10843      10844      10855      10854      10964      10965      10976      10975  
     10844      10845      10856      10855      10965      10966      10977      10976  
     10845      10846      10857      10856      10966      10967      10978      10977  
     10847      10848      10859      10858      10968      10969      10980      10979  
     10848      10849      10860      10859      10969      10970      10981      10980  
     10849      10850      10861      10860      10970      10971      10982      10981  
     10850      10851      10862      10861      10971      10972      10983      10982  
     10851      10852      10863      10862      10972      10973      10984      10983  
     10852      10853      10864      10863      10973      10974      10985      10984  
     10853      10854      10865      10864      10974      10975      10986      10985  
     10854      10855      10866      10865      10975      10976      10987      10986  
     10855      10856      10867      10866      10976      10977      10988      10987  
     10856      10857      10868      10867      10977      10978      10989      10988  
     10858      10859      10870      10869      10979      10980      10991      10990  
     10859      10860      10871      10870      10980      10981      10992      10991  
     10860      10861      10872      10871      10981      10982      10993      10992  
     10861      10862      10873      10872      10982      10983      10994      10993  
     10862      10863      10874      10873      10983      10984      10995      10994  
     10863      10864      10875      10874      10984      10985      10996      10995  
     10864      10865      10876      10875      10985      10986      10997      10996  
     10865      10866      10877      10876      10986      10987      10998      10997  
     10866      10867      10878      10877      10987      10988      10999      10998  
     10867      10868      10879      10878      10988      10989      11000      10999  
     10869      10870      10881      10880      10990      10991      11002      11001  
     10870      10871      10882      10881      10991      10992      11003      11002  
     10871      10872      10883      10882      10992      10993      11004      11003  
     10872      10873      10884      10883      10993      10994      11005      11004  
     10873      10874      10885      10884      10994      10995      11006      11005  
     10874      10875      10886      10885      10995      10996      11007      11006  
     10875      10876      10887      10886      10996      10997      11008      11007  
     10876      10877      10888      10887      10997      10998      11009      11008  
     10877      10878      10889      10888      10998      10999      11010      11009  
     10878      10879      10890      10889      10999      11000      11011      11010  
     10891      10892      10903      10902      11012      11013      11024      11023  
     10892      10893      10904      10903      11013      11014      11025      11024  
     10893      10894      10905      10904      11014      11015      11026      11025  
     10894      10895      10906      10905      11015      11016      11027      11026  
     10895      10896      10907      10906      11016      11017      11028      11027  
     10896      10897      10908      10907      11017      11018      11029      11028  
     10897      10898      10909      10908      11018      11019      11030      11029  
     10898      10899      10910      10909      11019      11020      11031      11030  
     10899      10900      10911      10910      11020      11021      11032      11031  
     10900      10901      10912      10911      11021      11022      11033      11032  
     10902      10903      10914      10913      11023      11024      11035      11034  
     10903      10904      10915      10914      11024      11025      11036      11035  
     10904      10905      10916      10915      11025      11026      11037      11036  
     10905      10906      10917      10916      11026      11027      11038      11037  
     10906      10907      10918      10917      11027      11028      11039      11038  
     10907      10908      10919      10918      11028      11029      11040      11039  
     10908      10909      10920      10919      11029      11030      11041      11040  
     10909      10910      10921      10920      11030      11031      11042      11041  
     10910      10911      10922      10921      11031      11032      11043      11042  
     10911      10912      10923      10922      11032      11033      11044      11043  
     10913      10914      10925      10924      11034      11035      11046      11045  
     10914      10915      10926      10925      11035      11036      11047      11046  
     10915      10916      10927      10926      11036      11037      11048      11047  
     10916      10917      10928      10927      11037      11038      11049      11048  
     10917      10918      10929      10928      11038      11039      11050      11049  
     10918      10919      10930      10929      11039      11040      11051      11050  
     10919      10920      10931      10930      11040      11041      11052      11051  
     10920      10921      10932      10931      11041      11042      11053      11052  
     10921      10922      10933      10932      11042      11043      11054      11053  
     10922      10923      10934      10933      11043      11044      11055      11054  
     10924      10925      10936      10935      11045      11046      11057      11056  
     10925      10926      10937      10936      11046      11047      11058      11057  
     10926      10927      10938      10937      11047      11048      11059      11058  
     10927      10928      10939      10938      11048      11049      11060      11059  
     10928      10929      10940      10939      11049      11050      11061      11060  
     10929      10930      10941      10940      11050      11051      11062      11061  
     10930      10931      10942      10941      11051      11052      11063      11062  
     10931      10932      10943      10942      11052      11053      11064      11063  
     10932      10933      10944      10943      11053      11054      11065      11064  
     10933      10934      10945      10944      11054      11055      11066      11065  
     10935      10936      10947      10946      11056      11057      11068      11067  
     10936      10937      10948      10947      11057      11058      11069      11068  
     10937      10938      10949      10948      11058      11059      11070      11069  
     10938      10939      10950      10949      11059      11060      11071      11070  
     10939      10940      10951      10950      11060      11061      11072      11071  
     10940      10941      10952      10951      11061      11062      11073      11072  
     10941      10942      10953      10952      11062      11063      11074      11073  
     10942      10943      10954      10953      11063      11064      11075      11074  
     10943      10944      10955      10954      11064      11065      11076      11075  
     10944      10945      10956      10955      11065      11066      11077      11076  
     10946      10947      10958      10957      11067      11068      11079      11078  
     10947      10948      10959      10958      11068      11069      11080      11079  
     10948      10949      10960      10959      11069      11070      11081      11080  
     10949      10950      10961      10960      11070      11071      11082      11081  
     10950      10951      10962      10961      11071      11072      11083      11082  
     10951      10952      10963      10962      11072      11073      11084      11083  
     10952      10953      10964      10963      11073      11074      11085      11084  
     10953      10954      10965      10964      11074      11075      11086      11085  
     10954      10955      10966      10965      11075      11076      11087      11086  
     10955      10956      10967      10966      11076      11077      11088      11087  
     10957      10958      10969      10968      11078      11079      11090      11089  
     10958      10959      10970      10969      11079      11080      11091      11090  
     10959      10960      10971      10970      11080      11081      11092      11091  
     10960      10961      10972      10971      11081      11082      11093      11092  
     10961      10962      10973      10972      11082      11083      11094      11093  
     10962      10963      10974      10973      11083      11084      11095      11094  
     10963      10964      10975      10974      11084      11085      11096      11095  
     10964      10965      10976      10975      11085      11086      11097      11096  
     10965      10966      10977      10976      11086      11087      11098      11097  
     10966      10967      10978      10977      11087      11088      11099      11098  
     10968      10969      10980      10979      11089      11090      11101      11100  
     10969      10970      10981      10980      11090      11091      11102      11101  
     10970      10971      10982      10981      11091      11092      11103      11102  
     10971      10972      10983      10982      11092      11093      11104      11103  
     10972      10973      10984      10983      11093      11094      11105      11104  
     10973      10974      10985      10984      11094      11095      11106      11105  
     10974      10975      10986      10985      11095      11096      11107      11106  
     10975      10976      10987      10986      11096      11097      11108      11107  
     10976      10977      10988      10987      11097      11098      11109      11108  
     10977      10978      10989      10988      11098      11099      11110      11109  
     10979      10980      10991      10990      11100      11101      11112      11111  
     10980      10981      10992      10991      11101      11102      11113      11112  
     10981      10982      10993      10992      11102      11103      11114      11113  
     10982      10983      10994      10993      11103      11104      11115      11114  
     10983      10984      10995      10994      11104      11105      11116      11115  
     10984      10985      10996      10995      11105      11106      11117      11116  
     10985      10986      10997      10996      11106      11107      11118      11117  
     10986      10987      10998      10997      11107      11108      11119      11118  
     10987      10988      10999      10998      11108      11109      11120      11119  
     10988      10989      11000      10999      11109      11110      11121      11120  
     10990      10991      11002      11001      11111      11112      11123      11122  
     10991      10992      11003      11002      11112      11113      11124      11123  
     10992      10993      11004      11003      11113      11114      11125      11124  
     10993      10994      11005      11004      11114      11115      11126      11125  
     10994      10995      11006      11005      11115      11116      11127      11126  
     10995      10996      11007      11006      11116      11117      11128      11127  
     10996      10997      11008      11007      11117      11118      11129      11128  
     10997      10998      11009      11008      11118      11119      11130      11129  
     10998      10999      11010      11009      11119      11120      11131      11130  
     10999      11000      11011      11010      11120      11121      11132      11131  
     11012      11013      11024      11023      11133      11134      11145      11144  
     11013      11014      11025      11024      11134      11135      11146      11145  
     11014      11015      11026      11025      11135      11136      11147      11146  
     11015      11016      11027      11026      11136      11137      11148      11147  
     11016      11017      11028      11027      11137      11138      11149      11148  
     11017      11018      11029      11028      11138      11139      11150      11149  
     11018      11019      11030      11029      11139      11140      11151      11150  
     11019      11020      11031      11030      11140      11141      11152      11151  
     11020      11021      11032      11031      11141      11142      11153      11152  
     11021      11022      11033      11032      11142      11143      11154      11153  
     11023      11024      11035      11034      11144      11145      11156      11155  
     11024      11025      11036      11035      11145      11146      11157      11156  
     11025      11026      11037      11036      11146      11147      11158      11157  
     11026      11027      11038      11037      11147      11148      11159      11158  
     11027      11028      11039      11038      11148      11149      11160      11159  
     11028      11029      11040      11039      11149      11150      11161      11160  
     11029      11030      11041      11040      11150      11151      11162      11161  
     11030      11031      11042      11041      11151      11152      11163      11162  
     11031      11032      11043      11042      11152      11153      11164      11163  
     11032      11033      11044      11043      11153      11154      11165      11164  
     11034      11035      11046      11045      11155      11156      11167      11166  
     11035      11036      11047      11046      11156      11157      11168      11167  
     11036      11037      11048      11047      11157      11158      11169      11168  
     11037      11038      11049      11048      11158      11159      11170      11169  
     11038      11039      11050      11049      11159      11160      11171      11170  
     11039      11040      11051      11050      11160      11161      11172      11171  
     11040      11041      11052      11051      11161      11162      11173      11172  
     11041      11042      11053      11052      11162      11163      11174      11173  
     11042      11043      11054      11053      11163      11164      11175      11174  
     11043      11044      11055      11054      11164      11165      11176      11175  
     11045      11046      11057      11056      11166      11167      11178      11177  
     11046      11047      11058      11057      11167      11168      11179      11178  
     11047      11048      11059      11058      11168      11169      11180      11179  
     11048      11049      11060      11059      11169      11170      11181      11180  
     11049      11050      11061      11060      11170      11171      11182      11181  
     11050      11051      11062      11061      11171      11172      11183      11182  
     11051      11052      11063      11062      11172      11173      11184      11183  
     11052      11053      11064      11063      11173      11174      11185      11184  
     11053      11054      11065      11064      11174      11175      11186      11185  
     11054      11055      11066      11065      11175      11176      11187      11186  
     11056      11057      11068      11067      11177      11178      11189      11188  
     11057      11058      11069      11068      11178      11179      11190      11189  
     11058      11059      11070      11069      11179      11180      11191      11190  
     11059      11060      11071      11070      11180      11181      11192      11191  
     11060      11061      11072      11071      11181      11182      11193      11192  
     11061      11062      11073      11072      11182      11183      11194      11193  
     11062      11063      11074      11073      11183      11184      11195      11194  
     11063      11064      11075      11074      11184      11185      11196      11195  
     11064      11065      11076      11075      11185      11186      11197      11196  
     11065      11066      11077      11076      11186      11187      11198      11197  
     11067      11068      11079      11078      11188      11189      11200      11199  
     11068      11069      11080      11079      11189      11190      11201      11200  
     11069      11070      11081      11080      11190      11191      11202      11201  
     11070      11071      11082      11081      11191      11192      11203      11202  
     11071      11072      11083      11082      11192      11193      11204      11203  
     11072      11073      11084      11083      11193      11194      11205      11204  
     11073      11074      11085      11084      11194      11195      11206      11205  
     11074      11075      11086      11085      11195      11196      11207      11206  
     11075      11076      11087      11086      11196      11197      11208      11207  
     11076      11077      11088      11087      11197      11198      11209      11208  
     11078      11079      11090      11089      11199      11200      11211      11210  
     11079      11080      11091      11090      11200      11201      11212      11211  
     11080      11081      11092      11091      11201      11202      11213      11212  
     11081      11082      11093      11092      11202      11203      11214      11213  
     11082      11083      11094      11093      11203      11204      11215      11214  
     11083      11084      11095      11094      11204      11205      11216      11215  
     11084      11085      11096      11095      11205      11206      11217      11216  
     11085      11086      11097      11096      11206      11207      11218      11217  
     11086      11087      11098      11097      11207      11208      11219      11218  
     11087      11088      11099      11098      11208      11209      11220      11219  
     11089      11090      11101      11100      11210      11211      11222      11221  
     11090      11091      11102      11101      11211      11212      11223      11222  
     11091      11092      11103      11102      11212      11213      11224      11223  
     11092      11093      11104      11103      11213      11214      11225      11224  
     11093      11094      11105      11104      11214      11215      11226      11225  
     11094      11095      11106      11105      11215      11216      11227      11226  
     11095      11096      11107      11106      11216      11217      11228      11227  
     11096      11097      11108      11107      11217      11218      11229      11228  
     11097      11098      11109      11108      11218      11219      11230      11229  
     11098      11099      11110      11109      11219      11220      11231      11230  
     11100      11101      11112      11111      11221      11222      11233      11232  
     11101      11102      11113      11112      11222      11223      11234      11233  
     11102      11103      11114      11113      11223      11224      11235      11234  
     11103      11104      11115      11114      11224      11225      11236      11235  
     11104      11105      11116      11115      11225      11226      11237      11236  
     11105      11106      11117      11116      11226      11227      11238      11237  
     11106      11107      11118      11117      11227      11228      11239      11238  
     11107      11108      11119      11118      11228      11229      11240      11239  
     11108      11109      11120      11119      11229      11230      11241      11240  
     11109      11110      11121      11120      11230      11231      11242      11241  
     11111      11112      11123      11122      11232      11233      11244      11243  
     11112      11113      11124      11123      11233      11234      11245      11244  
     11113      11114      11125      11124      11234      11235      11246      11245  
     11114      11115      11126      11125      11235      11236      11247      11246  
     11115      11116      11127      11126      11236      11237      11248      11247  
     11116      11117      11128      11127      11237      11238      11249      11248  
     11117      11118      11129      11128      11238      11239      11250      11249  
     11118      11119      11130      11129      11239      11240      11251      11250  
     11119      11120      11131      11130      11240      11241      11252      11251  
     11120      11121      11132      11131      11241      11242      11253      11252  
     11133      11134      11145      11144      11254      11255      11266      11265  
     11134      11135      11146      11145      11255      11256      11267      11266  
     11135      11136      11147      11146      11256      11257      11268      11267  
     11136      11137      11148      11147      11257      11258      11269      11268  
     11137      11138      11149      11148      11258      11259      11270      11269  
     11138      11139      11150      11149      11259      11260      11271      11270  
     11139      11140      11151      11150      11260      11261      11272      11271  
     11140      11141      11152      11151      11261      11262      11273      11272  
     11141      11142      11153      11152      11262      11263      11274      11273  
     11142      11143      11154      11153      11263      11264      11275      11274  
     11144      11145      11156      11155      11265      11266      11277      11276  
     11145      11146      11157      11156      11266      11267      11278      11277  
     11146      11147      11158      11157      11267      11268      11279      11278  
     11147      11148      11159      11158      11268      11269      11280      11279  
     11148      11149      11160      11159      11269      11270      11281      11280  
     11149      11150      11161      11160      11270      11271      11282      11281  
     11150      11151      11162      11161      11271      11272      11283      11282  
     11151      11152      11163      11162      11272      11273      11284      11283  
     11152      11153      11164      11163      11273      11274      11285      11284  
     11153      11154      11165      11164      11274      11275      11286      11285  
     11155      11156      11167      11166      11276      11277      11288      11287  
     11156      11157      11168      11167      11277      11278      11289      11288  
     11157      11158      11169      11168      11278      11279      11290      11289  
     11158      11159      11170      11169      11279      11280      11291      11290  
     11159      11160      11171      11170      11280      11281      11292      11291  
     11160      11161      11172      11171      11281      11282      11293      11292  
     11161      11162      11173      11172      11282      11283      11294      11293  
     11162      11163      11174      11173      11283      11284      11295      11294  
     11163      11164      11175      11174      11284      11285      11296      11295  
     11164      11165      11176      11175      11285      11286      11297      11296  
     11166      11167      11178      11177      11287      11288      11299      11298  
     11167      11168      11179      11178      11288      11289      11300      11299  
     11168      11169      11180      11179      11289      11290      11301      11300  
     11169      11170      11181      11180      11290      11291      11302      11301  
     11170      11171      11182      11181      11291      11292      11303      11302  
     11171      11172      11183      11182      11292      11293      11304      11303  
     11172      11173      11184      11183      11293      11294      11305      11304  
     11173      11174      11185      11184      11294      11295      11306      11305  
     11174      11175      11186      11185      11295      11296      11307      11306  
     11175      11176      11187      11186      11296      11297      11308      11307  
     11177      11178      11189      11188      11298      11299      11310      11309  
     11178      11179      11190      11189      11299      11300      11311      11310  
     11179      11180      11191      11190      11300      11301      11312      11311  
     11180      11181      11192      11191      11301      11302      11313      11312  
     11181      11182      11193      11192      11302      11303      11314      11313  
     11182      11183      11194      11193      11303      11304      11315      11314  
     11183      11184      11195      11194      11304      11305      11316      11315  
     11184      11185      11196      11195      11305      11306      11317      11316  
     11185      11186      11197      11196      11306      11307      11318      11317  
     11186      11187      11198      11197      11307      11308      11319      11318  
     11188      11189      11200      11199      11309      11310      11321      11320  
     11189      11190      11201      11200      11310      11311      11322      11321  
     11190      11191      11202      11201      11311      11312      11323      11322  
     11191      11192      11203      11202      11312      11313      11324      11323  
     11192      11193      11204      11203      11313      11314      11325      11324  
     11193      11194      11205      11204      11314      11315      11326      11325  
     11194      11195      11206      11205      11315      11316      11327      11326  
     11195      11196      11207      11206      11316      11317      11328      11327  
     11196      11197      11208      11207      11317      11318      11329      11328  
     11197      11198      11209      11208      11318      11319      11330      11329  
     11199      11200      11211      11210      11320      11321      11332      11331  
     11200      11201      11212      11211      11321      11322      11333      11332  
     11201      11202      11213      11212      11322      11323      11334      11333  
     11202      11203      11214      11213      11323      11324      11335      11334  
     11203      11204      11215      11214      11324      11325      11336      11335  
     11204      11205      11216      11215      11325      11326      11337      11336  
     11205      11206      11217      11216      11326      11327      11338      11337  
     11206      11207      11218      11217      11327      11328      11339      11338  
     11207      11208      11219      11218      11328      11329      11340      11339  
     11208      11209      11220      11219      11329      11330      11341      11340  
     11210      11211      11222      11221      11331      11332      11343      11342  
     11211      11212      11223      11222      11332      11333      11344      11343  
     11212      11213      11224      11223      11333      11334      11345      11344  
     11213      11214      11225      11224      11334      11335      11346      11345  
     11214      11215      11226      11225      11335      11336      11347      11346  
     11215      11216      11227      11226      11336      11337      11348      11347  
     11216      11217      11228      11227      11337      11338      11349      11348  
     11217      11218      11229      11228      11338      11339      11350      11349  
     11218      11219      11230      11229      11339      11340      11351      11350  
     11219      11220      11231      11230      11340      11341      11352      11351  
     11221      11222      11233      11232      11342      11343      11354      11353  
     11222      11223      11234      11233      11343      11344      11355      11354  
     11223      11224      11235      11234      11344      11345      11356      11355  
     11224      11225      11236      11235      11345      11346      11357      11356  
     11225      11226      11237      11236      11346      11347      11358      11357  
     11226      11227      11238      11237      11347      11348      11359      11358  
     11227      11228      11239      11238      11348      11349      11360      11359  
     11228      11229      11240      11239      11349      11350      11361      11360  
     11229      11230      11241      11240      11350      11351      11362      11361  
     11230      11231      11242      11241      11351      11352      11363      11362  
     11232      11233      11244      11243      11353      11354      11365      11364  
     11233      11234      11245      11244      11354      11355      11366      11365  
     11234      11235      11246      11245      11355      11356      11367      11366  
     11235      11236      11247      11246      11356      11357      11368      11367  
     11236      11237      11248      11247      11357      11358      11369      11368  
     11237      11238      11249      11248      11358      11359      11370      11369  
     11238      11239      11250      11249      11359      11360      11371      11370  
     11239      11240      11251      11250      11360      11361      11372      11371  
     11240      11241      11252      11251      11361      11362      11373      11372  
     11241      11242      11253      11252      11362      11363      11374      11373  
     11254      11255      11266      11265      11375      11376      11387      11386  
     11255      11256      11267      11266      11376      11377      11388      11387  
     11256      11257      11268      11267      11377      11378      11389      11388  
     11257      11258      11269      11268      11378      11379      11390      11389  
     11258      11259      11270      11269      11379      11380      11391      11390  
     11259      11260      11271      11270      11380      11381      11392      11391  
     11260      11261      11272      11271      11381      11382      11393      11392  
     11261      11262      11273      11272      11382      11383      11394      11393  
     11262      11263      11274      11273      11383      11384      11395      11394  
     11263      11264      11275      11274      11384      11385      11396      11395  
     11265      11266      11277      11276      11386      11387      11398      11397  
     11266      11267      11278      11277      11387      11388      11399      11398  
     11267      11268      11279      11278      11388      11389      11400      11399  
     11268      11269      11280      11279      11389      11390      11401      11400  
     11269      11270      11281      11280      11390      11391      11402      11401  
     11270      11271      11282      11281      11391      11392      11403      11402  
     11271      11272      11283      11282      11392      11393      11404      11403  
     11272      11273      11284      11283      11393      11394      11405      11404  
     11273      11274      11285      11284      11394      11395      11406      11405  
     11274      11275      11286      11285      11395      11396      11407      11406  
     11276      11277      11288      11287      11397      11398      11409      11408  
     11277      11278      11289      11288      11398      11399      11410      11409  
     11278      11279      11290      11289      11399      11400      11411      11410  
     11279      11280      11291      11290      11400      11401      11412      11411  
     11280      11281      11292      11291      11401      11402      11413      11412  
     11281      11282      11293      11292      11402      11403      11414      11413  
     11282      11283      11294      11293      11403      11404      11415      11414  
     11283      11284      11295      11294      11404      11405      11416      11415  
     11284      11285      11296      11295      11405      11406      11417      11416  
     11285      11286      11297      11296      11406      11407      11418      11417  
     11287      11288      11299      11298      11408      11409      11420      11419  
     11288      11289      11300      11299      11409      11410      11421      11420  
     11289      11290      11301      11300      11410      11411      11422      11421  
     11290      11291      11302      11301      11411      11412      11423      11422  
     11291      11292      11303      11302      11412      11413      11424      11423  
     11292      11293      11304      11303      11413      11414      11425      11424  
     11293      11294      11305      11304      11414      11415      11426      11425  
     11294      11295      11306      11305      11415      11416      11427      11426  
     11295      11296      11307      11306      11416      11417      11428      11427  
     11296      11297      11308      11307      11417      11418      11429      11428  
     11298      11299      11310      11309      11419      11420      11431      11430  
     11299      11300      11311      11310      11420      11421      11432      11431  
     11300      11301      11312      11311      11421      11422      11433      11432  
     11301      11302      11313      11312      11422      11423      11434      11433  
     11302      11303      11314      11313      11423      11424      11435      11434  
     11303      11304      11315      11314      11424      11425      11436      11435  
     11304      11305      11316      11315      11425      11426      11437      11436  
     11305      11306      11317      11316      11426      11427      11438      11437  
     11306      11307      11318      11317      11427      11428      11439      11438  
     11307      11308      11319      11318      11428      11429      11440      11439  
     11309      11310      11321      11320      11430      11431      11442      11441  
     11310      11311      11322      11321      11431      11432      11443      11442  
     11311      11312      11323      11322      11432      11433      11444      11443  
     11312      11313      11324      11323      11433      11434      11445      11444  
     11313      11314      11325      11324      11434      11435      11446      11445  
     11314      11315      11326      11325      11435      11436      11447      11446  
     11315      11316      11327      11326      11436      11437      11448      11447  
     11316      11317      11328      11327      11437      11438      11449      11448  
     11317      11318      11329      11328      11438      11439      11450      11449  
     11318      11319      11330      11329      11439      11440      11451      11450  
     11320      11321      11332      11331      11441      11442      11453      11452  
     11321      11322      11333      11332      11442      11443      11454      11453  
     11322      11323      11334      11333      11443      11444      11455      11454  
     11323      11324      11335      11334      11444      11445      11456      11455  
     11324      11325      11336      11335      11445      11446      11457      11456  
     11325      11326      11337      11336      11446      11447      11458      11457  
     11326      11327      11338      11337      11447      11448      11459      11458  
     11327      11328      11339      11338      11448      11449      11460      11459  
     11328      11329      11340      11339      11449      11450      11461      11460  
     11329      11330      11341      11340      11450      11451      11462      11461  
     11331      11332      11343      11342      11452      11453      11464      11463  
     11332      11333      11344      11343      11453      11454      11465      11464  
     11333      11334      11345      11344      11454      11455      11466      11465  
     11334      11335      11346      11345      11455      11456      11467      11466  
     11335      11336      11347      11346      11456      11457      11468      11467  
     11336      11337      11348      11347      11457      11458      11469      11468  
     11337      11338      11349      11348      11458      11459      11470      11469  
     11338      11339      11350      11349      11459      11460      11471      11470  
     11339      11340      11351      11350      11460      11461      11472      11471  
     11340      11341      11352      11351      11461      11462      11473      11472  
     11342      11343      11354      11353      11463      11464      11475      11474  
     11343      11344      11355      11354      11464      11465      11476      11475  
     11344      11345      11356      11355      11465      11466      11477      11476  
     11345      11346      11357      11356      11466      11467      11478      11477  
     11346      11347      11358      11357      11467      11468      11479      11478  
     11347      11348      11359      11358      11468      11469      11480      11479  
     11348      11349      11360      11359      11469      11470      11481      11480  
     11349      11350      11361      11360      11470      11471      11482      11481  
     11350      11351      11362      11361      11471      11472      11483      11482  
     11351      11352      11363      11362      11472      11473      11484      11483  
     11353      11354      11365      11364      11474      11475      11486      11485  
     11354      11355      11366      11365      11475      11476      11487      11486  
     11355      11356      11367      11366      11476      11477      11488      11487  
     11356      11357      11368      11367      11477      11478      11489      11488  
     11357      11358      11369      11368      11478      11479      11490      11489  
     11358      11359      11370      11369      11479      11480      11491      11490  
     11359      11360      11371      11370      11480      11481      11492      11491  
     11360      11361      11372      11371      11481      11482      11493      11492  
     11361      11362      11373      11372      11482      11483      11494      11493  
     11362      11363      11374      11373      11483      11484      11495      11494  
     11375      11376      11387      11386      11496      11497      11508      11507  
     11376      11377      11388      11387      11497      11498      11509      11508  
     11377      11378      11389      11388      11498      11499      11510      11509  
     11378      11379      11390      11389      11499      11500      11511      11510  
     11379      11380      11391      11390      11500      11501      11512      11511  
     11380      11381      11392      11391      11501      11502      11513      11512  
     11381      11382      11393      11392      11502      11503      11514      11513  
     11382      11383      11394      11393      11503      11504      11515      11514  
     11383      11384      11395      11394      11504      11505      11516      11515  
     11384      11385      11396      11395      11505      11506      11517      11516  
     11386      11387      11398      11397      11507      11508      11519      11518  
     11387      11388      11399      11398      11508      11509      11520      11519  
     11388      11389      11400      11399      11509      11510      11521      11520  
     11389      11390      11401      11400      11510      11511      11522      11521  
     11390      11391      11402      11401      11511      11512      11523      11522  
     11391      11392      11403      11402      11512      11513      11524      11523  
     11392      11393      11404      11403      11513      11514      11525      11524  
     11393      11394      11405      11404      11514      11515      11526      11525  
     11394      11395      11406      11405      11515      11516      11527      11526  
     11395      11396      11407      11406      11516      11517      11528      11527  
     11397      11398      11409      11408      11518      11519      11530      11529  
     11398      11399      11410      11409      11519      11520      11531      11530  
     11399      11400      11411      11410      11520      11521      11532      11531  
     11400      11401      11412      11411      11521      11522      11533      11532  
     11401      11402      11413      11412      11522      11523      11534      11533  
     11402      11403      11414      11413      11523      11524      11535      11534  
     11403      11404      11415      11414      11524      11525      11536      11535  
     11404      11405      11416      11415      11525      11526      11537      11536  
     11405      11406      11417      11416      11526      11527      11538      11537  
     11406      11407      11418      11417      11527      11528      11539      11538  
     11408      11409      11420      11419      11529      11530      11541      11540  
     11409      11410      11421      11420      11530      11531      11542      11541  
     11410      11411      11422      11421      11531      11532      11543      11542  
     11411      11412      11423      11422      11532      11533      11544      11543  
     11412      11413      11424      11423      11533      11534      11545      11544  
     11413      11414      11425      11424      11534      11535      11546      11545  
     11414      11415      11426      11425      11535      11536      11547      11546  
     11415      11416      11427      11426      11536      11537      11548      11547  
     11416      11417      11428      11427      11537      11538      11549      11548  
     11417      11418      11429      11428      11538      11539      11550      11549  
     11419      11420      11431      11430      11540      11541      11552      11551  
     11420      11421      11432      11431      11541      11542      11553      11552  
     11421      11422      11433      11432      11542      11543      11554      11553  
     11422      11423      11434      11433      11543      11544      11555      11554  
     11423      11424      11435      11434      11544      11545      11556      11555  
     11424      11425      11436      11435      11545      11546      11557      11556  
     11425      11426      11437      11436      11546      11547      11558      11557  
     11426      11427      11438      11437      11547      11548      11559      11558  
     11427      11428      11439      11438      11548      11549      11560      11559  
     11428      11429      11440      11439      11549      11550      11561      11560  
     11430      11431      11442      11441      11551      11552      11563      11562  
     11431      11432      11443      11442      11552      11553      11564      11563  
     11432      11433      11444      11443      11553      11554      11565      11564  
     11433      11434      11445      11444      11554      11555      11566      11565  
     11434      11435      11446      11445      11555      11556      11567      11566  
     11435      11436      11447      11446      11556      11557      11568      11567  
     11436      11437      11448      11447      11557      11558      11569      11568  
     11437      11438      11449      11448      11558      11559      11570      11569  
     11438      11439      11450      11449      11559      11560      11571      11570  
     11439      11440      11451      11450      11560      11561      11572      11571  
     11441      11442      11453      11452      11562      11563      11574      11573  
     11442      11443      11454      11453      11563      11564      11575      11574  
     11443      11444      11455      11454      11564      11565      11576      11575  
     11444      11445      11456      11455      11565      11566      11577      11576  
     11445      11446      11457      11456      11566      11567      11578      11577  
     11446      11447      11458      11457      11567      11568      11579      11578  
     11447      11448      11459      11458      11568      11569      11580      11579  
     11448      11449      11460      11459      11569      11570      11581      11580  
     11449      11450      11461      11460      11570      11571      11582      11581  
     11450      11451      11462      11461      11571      11572      11583      11582  
     11452      11453      11464      11463      11573      11574      11585      11584  
     11453      11454      11465      11464      11574      11575      11586      11585  
     11454      11455      11466      11465      11575      11576      11587      11586  
     11455      11456      11467      11466      11576      11577      11588      11587  
     11456      11457      11468      11467      11577      11578      11589      11588  
     11457      11458      11469      11468      11578      11579      11590      11589  
     11458      11459      11470      11469      11579      11580      11591      11590  
     11459      11460      11471      11470      11580      11581      11592      11591  
     11460      11461      11472      11471      11581      11582      11593      11592  
     11461      11462      11473      11472      11582      11583      11594      11593  
     11463      11464      11475      11474      11584      11585      11596      11595  
     11464      11465      11476      11475      11585      11586      11597      11596  
     11465      11466      11477      11476      11586      11587      11598      11597  
     11466      11467      11478      11477      11587      11588      11599      11598  
     11467      11468      11479      11478      11588      11589      11600      11599  
     11468      11469      11480      11479      11589      11590      11601      11600  
     11469      11470      11481      11480      11590      11591      11602      11601  
     11470      11471      11482      11481      11591      11592      11603      11602  
     11471      11472      11483      11482      11592      11593      11604      11603  
     11472      11473      11484      11483      11593      11594      11605      11604  
     11474      11475      11486      11485      11595      11596      11607      11606  
     11475      11476      11487      11486      11596      11597      11608      11607  
     11476      11477      11488      11487      11597      11598      11609      11608  
     11477      11478      11489      11488      11598      11599      11610      11609  
     11478      11479      11490      11489      11599      11600      11611      11610  
     11479      11480      11491      11490      11600      11601      11612      11611  
     11480      11481      11492      11491      11601      11602      11613      11612  
     11481      11482      11493      11492      11602      11603      11614      11613  
     11482      11483      11494      11493      11603      11604      11615      11614  
     11483      11484      11495      11494      11604      11605      11616      11615  
     11496      11497      11508      11507      11617      11618      11629      11628  
     11497      11498      11509      11508      11618      11619      11630      11629  
     11498      11499      11510      11509      11619      11620      11631      11630  
     11499      11500      11511      11510      11620      11621      11632      11631  
     11500      11501      11512      11511      11621      11622      11633      11632  
     11501      11502      11513      11512      11622      11623      11634      11633  
     11502      11503      11514      11513      11623      11624      11635      11634  
     11503      11504      11515      11514      11624      11625      11636      11635  
     11504      11505      11516      11515      11625      11626      11637      11636  
     11505      11506      11517      11516      11626      11627      11638      11637  
     11507      11508      11519      11518      11628      11629      11640      11639  
     11508      11509      11520      11519      11629      11630      11641      11640  
     11509      11510      11521      11520      11630      11631      11642      11641  
     11510      11511      11522      11521      11631      11632      11643      11642  
     11511      11512      11523      11522      11632      11633      11644      11643  
     11512      11513      11524      11523      11633      11634      11645      11644  
     11513      11514      11525      11524      11634      11635      11646      11645  
     11514      11515      11526      11525      11635      11636      11647      11646  
     11515      11516      11527      11526      11636      11637      11648      11647  
     11516      11517      11528      11527      11637      11638      11649      11648  
     11518      11519      11530      11529      11639      11640      11651      11650  
     11519      11520      11531      11530      11640      11641      11652      11651  
     11520      11521      11532      11531      11641      11642      11653      11652  
     11521      11522      11533      11532      11642      11643      11654      11653  
     11522      11523      11534      11533      11643      11644      11655      11654  
     11523      11524      11535      11534      11644      11645      11656      11655  
     11524      11525      11536      11535      11645      11646      11657      11656  
     11525      11526      11537      11536      11646      11647      11658      11657  
     11526      11527      11538      11537      11647      11648      11659      11658  
     11527      11528      11539      11538      11648      11649      11660      11659  
     11529      11530      11541      11540      11650      11651      11662      11661  
     11530      11531      11542      11541      11651      11652      11663      11662  
     11531      11532      11543      11542      11652      11653      11664      11663  
     11532      11533      11544      11543      11653      11654      11665      11664  
     11533      11534      11545      11544      11654      11655      11666      11665  
     11534      11535      11546      11545      11655      11656      11667      11666  
     11535      11536      11547      11546      11656      11657      11668      11667  
     11536      11537      11548      11547      11657      11658      11669      11668  
     11537      11538      11549      11548      11658      11659      11670      11669  
     11538      11539      11550      11549      11659      11660      11671      11670  
     11540      11541      11552      11551      11661      11662      11673      11672  
     11541      11542      11553      11552      11662      11663      11674      11673  
     11542      11543      11554      11553      11663      11664      11675      11674  
     11543      11544      11555      11554      11664      11665      11676      11675  
     11544      11545      11556      11555      11665      11666      11677      11676  
     11545      11546      11557      11556      11666      11667      11678      11677  
     11546      11547      11558      11557      11667      11668      11679      11678  
     11547      11548      11559      11558      11668      11669      11680      11679  
     11548      11549      11560      11559      11669      11670      11681      11680  
     11549      11550      11561      11560      11670      11671      11682      11681  
     11551      11552      11563      11562      11672      11673      11684      11683  
     11552      11553      11564      11563      11673      11674      11685      11684  
     11553      11554      11565      11564      11674      11675      11686      11685  
     11554      11555      11566      11565      11675      11676      11687      11686  
     11555      11556      11567      11566      11676      11677      11688      11687  
     11556      11557      11568      11567      11677      11678      11689      11688  
     11557      11558      11569      11568      11678      11679      11690      11689  
     11558      11559      11570      11569      11679      11680      11691      11690  
     11559      11560      11571      11570      11680      11681      11692      11691  
     11560      11561      11572      11571      11681      11682      11693      11692  
     11562      11563      11574      11573      11683      11684      11695      11694  
     11563      11564      11575      11574      11684      11685      11696      11695  
     11564      11565      11576      11575      11685      11686      11697      11696  
     11565      11566      11577      11576      11686      11687      11698      11697  
     11566      11567      11578      11577      11687      11688      11699      11698  
     11567      11568      11579      11578      11688      11689      11700      11699  
     11568      11569      11580      11579      11689      11690      11701      11700  
     11569      11570      11581      11580      11690      11691      11702      11701  
     11570      11571      11582      11581      11691      11692      11703      11702  
     11571      11572      11583      11582      11692      11693      11704      11703  
     11573      11574      11585      11584      11694      11695      11706      11705  
     11574      11575      11586      11585      11695      11696      11707      11706  
     11575      11576      11587      11586      11696      11697      11708      11707  
     11576      11577      11588      11587      11697      11698      11709      11708  
     11577      11578      11589      11588      11698      11699      11710      11709  
     11578      11579      11590      11589      11699      11700      11711      11710  
     11579      11580      11591      11590      11700      11701      11712      11711  
     11580      11581      11592      11591      11701      11702      11713      11712  
     11581      11582      11593      11592      11702      11703      11714      11713  
     11582      11583      11594      11593      11703      11704      11715      11714  
     11584      11585      11596      11595      11705      11706      11717      11716  
     11585      11586      11597      11596      11706      11707      11718      11717  
     11586      11587      11598      11597      11707      11708      11719      11718  
     11587      11588      11599      11598      11708      11709      11720      11719  
     11588      11589      11600      11599      11709      11710      11721      11720  
     11589      11590      11601      11600      11710      11711      11722      11721  
     11590      11591      11602      11601      11711      11712      11723      11722  
     11591      11592      11603      11602      11712      11713      11724      11723  
     11592      11593      11604      11603      11713      11714      11725      11724  
     11593      11594      11605      11604      11714      11715      11726      11725  
     11595      11596      11607      11606      11716      11717      11728      11727  
     11596      11597      11608      11607      11717      11718      11729      11728  
     11597      11598      11609      11608      11718      11719      11730      11729  
     11598      11599      11610      11609      11719      11720      11731      11730  
     11599      11600      11611      11610      11720      11721      11732      11731  
     11600      11601      11612      11611      11721      11722      11733      11732  
     11601      11602      11613      11612      11722      11723      11734      11733  
     11602      11603      11614      11613      11723      11724      11735      11734  
     11603      11604      11615      11614      11724      11725      11736      11735  
     11604      11605      11616      11615      11725      11726      11737      11736  
     11617      11618      11629      11628      11738      11739      11750      11749  
     11618      11619      11630      11629      11739      11740      11751      11750  
     11619      11620      11631      11630      11740      11741      11752      11751  
     11620      11621      11632      11631      11741      11742      11753      11752  
     11621      11622      11633      11632      11742      11743      11754      11753  
     11622      11623      11634      11633      11743      11744      11755      11754  
     11623      11624      11635      11634      11744      11745      11756      11755  
     11624      11625      11636      11635      11745      11746      11757      11756  
     11625      11626      11637      11636      11746      11747      11758      11757  
     11626      11627      11638      11637      11747      11748      11759      11758  
     11628      11629      11640      11639      11749      11750      11761      11760  
     11629      11630      11641      11640      11750      11751      11762      11761  
     11630      11631      11642      11641      11751      11752      11763      11762  
     11631      11632      11643      11642      11752      11753      11764      11763  
     11632      11633      11644      11643      11753      11754      11765      11764  
     11633      11634      11645      11644      11754      11755      11766      11765  
     11634      11635      11646      11645      11755      11756      11767      11766  
     11635      11636      11647      11646      11756      11757      11768      11767  
     11636      11637      11648      11647      11757      11758      11769      11768  
     11637      11638      11649      11648      11758      11759      11770      11769  
     11639      11640      11651      11650      11760      11761      11772      11771  
     11640      11641      11652      11651      11761      11762      11773      11772  
     11641      11642      11653      11652      11762      11763      11774      11773  
     11642      11643      11654      11653      11763      11764      11775      11774  
     11643      11644      11655      11654      11764      11765      11776      11775  
     11644      11645      11656      11655      11765      11766      11777      11776  
     11645      11646      11657      11656      11766      11767      11778      11777  
     11646      11647      11658      11657      11767      11768      11779      11778  
     11647      11648      11659      11658      11768      11769      11780      11779  
     11648      11649      11660      11659      11769      11770      11781      11780  
     11650      11651      11662      11661      11771      11772      11783      11782  
     11651      11652      11663      11662      11772      11773      11784      11783  
     11652      11653      11664      11663      11773      11774      11785      11784  
     11653      11654      11665      11664      11774      11775      11786      11785  
     11654      11655      11666      11665      11775      11776      11787      11786  
     11655      11656      11667      11666      11776      11777      11788      11787  
     11656      11657      11668      11667      11777      11778      11789      11788  
     11657      11658      11669      11668      11778      11779      11790      11789  
     11658      11659      11670      11669      11779      11780      11791      11790  
     11659      11660      11671      11670      11780      11781      11792      11791  
     11661      11662      11673      11672      11782      11783      11794      11793  
     11662      11663      11674      11673      11783      11784      11795      11794  
     11663      11664      11675      11674      11784      11785      11796      11795  
     11664      11665      11676      11675      11785      11786      11797      11796  
     11665      11666      11677      11676      11786      11787      11798      11797  
     11666      11667      11678      11677      11787      11788      11799      11798  
     11667      11668      11679      11678      11788      11789      11800      11799  
     11668      11669      11680      11679      11789      11790      11801      11800  
     11669      11670      11681      11680      11790      11791      11802      11801  
     11670      11671      11682      11681      11791      11792      11803      11802  
     11672      11673      11684      11683      11793      11794      11805      11804  
     11673      11674      11685      11684      11794      11795      11806      11805  
     11674      11675      11686      11685      11795      11796      11807      11806  
     11675      11676      11687      11686      11796      11797      11808      11807  
     11676      11677      11688      11687      11797      11798      11809      11808  
     11677      11678      11689      11688      11798      11799      11810      11809  
     11678      11679      11690      11689      11799      11800      11811      11810  
     11679      11680      11691      11690      11800      11801      11812      11811  
     11680      11681      11692      11691      11801      11802      11813      11812  
     11681      11682      11693      11692      11802      11803      11814      11813  
     11683      11684      11695      11694      11804      11805      11816      11815  
     11684      11685      11696      11695      11805      11806      11817      11816  
     11685      11686      11697      11696      11806      11807      11818      11817  
     11686      11687      11698      11697      11807      11808      11819      11818  
     11687      11688      11699      11698      11808      11809      11820      11819  
     11688      11689      11700      11699      11809      11810      11821      11820  
     11689      11690      11701      11700      11810      11811      11822      11821  
     11690      11691      11702      11701      11811      11812      11823      11822  
     11691      11692      11703      11702      11812      11813      11824      11823  
     11692      11693      11704      11703      11813      11814      11825      11824  
     11694      11695      11706      11705      11815      11816      11827      11826  
     11695      11696      11707      11706      11816      11817      11828      11827  
     11696      11697      11708      11707      11817      11818      11829      11828  
     11697      11698      11709      11708      11818      11819      11830      11829  
     11698      11699      11710      11709      11819      11820      11831      11830  
     11699      11700      11711      11710      11820      11821      11832      11831  
     11700      11701      11712      11711      11821      11822      11833      11832  
     11701      11702      11713      11712      11822      11823      11834      11833  
     11702      11703      11714      11713      11823      11824      11835      11834  
     11703      11704      11715      11714      11824      11825      11836      11835  
     11705      11706      11717      11716      11826      11827      11838      11837  
     11706      11707      11718      11717      11827      11828      11839      11838  
     11707      11708      11719      11718      11828      11829      11840      11839  
     11708      11709      11720      11719      11829      11830      11841      11840  
     11709      11710      11721      11720      11830      11831      11842      11841  
     11710      11711      11722      11721      11831      11832      11843      11842  
     11711      11712      11723      11722      11832      11833      11844      11843  
     11712      11713      11724      11723      11833      11834      11845      11844  
     11713      11714      11725      11724      11834      11835      11846      11845  
     11714      11715      11726      11725      11835      11836      11847      11846  
     11716      11717      11728      11727      11837      11838      11849      11848  
     11717      11718      11729      11728      11838      11839      11850      11849  
     11718      11719      11730      11729      11839      11840      11851      11850  
     11719      11720      11731      11730      11840      11841      11852      11851  
     11720      11721      11732      11731      11841      11842      11853      11852  
     11721      11722      11733      11732      11842      11843      11854      11853  
     11722      11723      11734      11733      11843      11844      11855      11854  
     11723      11724      11735      11734      11844      11845      11856      11855  
     11724      11725      11736      11735      11845      11846      11857      11856  
     11725      11726      11737      11736      11846      11847      11858      11857  
     11738      11739      11750      11749      11859      11860      11871      11870  
     11739      11740      11751      11750      11860      11861      11872      11871  
     11740      11741      11752      11751      11861      11862      11873      11872  
     11741      11742      11753      11752      11862      11863      11874      11873  
     11742      11743      11754      11753      11863      11864      11875      11874  
     11743      11744      11755      11754      11864      11865      11876      11875  
     11744      11745      11756      11755      11865      11866      11877      11876  
     11745      11746      11757      11756      11866      11867      11878      11877  
     11746      11747      11758      11757      11867      11868      11879      11878  
     11747      11748      11759      11758      11868      11869      11880      11879  
     11749      11750      11761      11760      11870      11871      11882      11881  
     11750      11751      11762      11761      11871      11872      11883      11882  
     11751      11752      11763      11762      11872      11873      11884      11883  
     11752      11753      11764      11763      11873      11874      11885      11884  
     11753      11754      11765      11764      11874      11875      11886      11885  
     11754      11755      11766      11765      11875      11876      11887      11886  
     11755      11756      11767      11766      11876      11877      11888      11887  
     11756      11757      11768      11767      11877      11878      11889      11888  
     11757      11758      11769      11768      11878      11879      11890      11889  
     11758      11759      11770      11769      11879      11880      11891      11890  
     11760      11761      11772      11771      11881      11882      11893      11892  
     11761      11762      11773      11772      11882      11883      11894      11893  
     11762      11763      11774      11773      11883      11884      11895      11894  
     11763      11764      11775      11774      11884      11885      11896      11895  
     11764      11765      11776      11775      11885      11886      11897      11896  
     11765      11766      11777      11776      11886      11887      11898      11897  
     11766      11767      11778      11777      11887      11888      11899      11898  
     11767      11768      11779      11778      11888      11889      11900      11899  
     11768      11769      11780      11779      11889      11890      11901      11900  
     11769      11770      11781      11780      11890      11891      11902      11901  
     11771      11772      11783      11782      11892      11893      11904      11903  
     11772      11773      11784      11783      11893      11894      11905      11904  
     11773      11774      11785      11784      11894      11895      11906      11905  
     11774      11775      11786      11785      11895      11896      11907      11906  
     11775      11776      11787      11786      11896      11897      11908      11907  
     11776      11777      11788      11787      11897      11898      11909      11908  
     11777      11778      11789      11788      11898      11899      11910      11909  
     11778      11779      11790      11789      11899      11900      11911      11910  
     11779      11780      11791      11790      11900      11901      11912      11911  
     11780      11781      11792      11791      11901      11902      11913      11912  
     11782      11783      11794      11793      11903      11904      11915      11914  
     11783      11784      11795      11794      11904      11905      11916      11915  
     11784      11785      11796      11795      11905      11906      11917      11916  
     11785      11786      11797      11796      11906      11907      11918      11917  
     11786      11787      11798      11797      11907      11908      11919      11918  
     11787      11788      11799      11798      11908      11909      11920      11919  
     11788      11789      11800      11799      11909      11910      11921      11920  
     11789      11790      11801      11800      11910      11911      11922      11921  
     11790      11791      11802      11801      11911      11912      11923      11922  
     11791      11792      11803      11802      11912      11913      11924      11923  
     11793      11794      11805      11804      11914      11915      11926      11925  
     11794      11795      11806      11805      11915      11916      11927      11926  
     11795      11796      11807      11806      11916      11917      11928      11927  
     11796      11797      11808      11807      11917      11918      11929      11928  
     11797      11798      11809      11808      11918      11919      11930      11929  
     11798      11799      11810      11809      11919      11920      11931      11930  
     11799      11800      11811      11810      11920      11921      11932      11931  
     11800      11801      11812      11811      11921      11922      11933      11932  
     11801      11802      11813      11812      11922      11923      11934      11933  
     11802      11803      11814      11813      11923      11924      11935      11934  
     11804      11805      11816      11815      11925      11926      11937      11936  
     11805      11806      11817      11816      11926      11927      11938      11937  
     11806      11807      11818      11817      11927      11928      11939      11938  
     11807      11808      11819      11818      11928      11929      11940      11939  
     11808      11809      11820      11819      11929      11930      11941      11940  
     11809      11810      11821      11820      11930      11931      11942      11941  
     11810      11811      11822      11821      11931      11932      11943      11942  
     11811      11812      11823      11822      11932      11933      11944      11943  
     11812      11813      11824      11823      11933      11934      11945      11944  
     11813      11814      11825      11824      11934      11935      11946      11945  
     11815      11816      11827      11826      11936      11937      11948      11947  
     11816      11817      11828      11827      11937      11938      11949      11948  
     11817      11818      11829      11828      11938      11939      11950      11949  
     11818      11819      11830      11829      11939      11940      11951      11950  
     11819      11820      11831      11830      11940      11941      11952      11951  
     11820      11821      11832      11831      11941      11942      11953      11952  
     11821      11822      11833      11832      11942      11943      11954      11953  
     11822      11823      11834      11833      11943      11944      11955      11954  
     11823      11824      11835      11834      11944      11945      11956      11955  
     11824      11825      11836      11835      11945      11946      11957      11956  
     11826      11827      11838      11837      11947      11948      11959      11958  
     11827      11828      11839      11838      11948      11949      11960      11959  
     11828      11829      11840      11839      11949      11950      11961      11960  
     11829      11830      11841      11840      11950      11951      11962      11961  
     11830      11831      11842      11841      11951      11952      11963      11962  
     11831      11832      11843      11842      11952      11953      11964      11963  
     11832      11833      11844      11843      11953      11954      11965      11964  
     11833      11834      11845      11844      11954      11955      11966      11965  
     11834      11835      11846      11845      11955      11956      11967      11966  
     11835      11836      11847      11846      11956      11957      11968      11967  
     11837      11838      11849      11848      11958      11959      11970      11969  
     11838      11839      11850      11849      11959      11960      11971      11970  
     11839      11840      11851      11850      11960      11961      11972      11971  
     11840      11841      11852      11851      11961      11962      11973      11972  
     11841      11842      11853      11852      11962      11963      11974      11973  
     11842      11843      11854      11853      11963      11964      11975      11974  
     11843      11844      11855      11854      11964      11965      11976      11975  
     11844      11845      11856      11855      11965      11966      11977      11976  
     11845      11846      11857      11856      11966      11967      11978      11977  
     11846      11847      11858      11857      11967      11968      11979      11978  
     11859      11860      11871      11870      11980      11981      11992      11991  
     11860      11861      11872      11871      11981      11982      11993      11992  
     11861      11862      11873      11872      11982      11983      11994      11993  
     11862      11863      11874      11873      11983      11984      11995      11994  
     11863      11864      11875      11874      11984      11985      11996      11995  
     11864      11865      11876      11875      11985      11986      11997      11996  
     11865      11866      11877      11876      11986      11987      11998      11997  
     11866      11867      11878      11877      11987      11988      11999      11998  
     11867      11868      11879      11878      11988      11989      12000      11999  
     11868      11869      11880      11879      11989      11990      12001      12000  
     11870      11871      11882      11881      11991      11992      12003      12002  
     11871      11872      11883      11882      11992      11993      12004      12003  
     11872      11873      11884      11883      11993      11994      12005      12004  
     11873      11874      11885      11884      11994      11995      12006      12005  
     11874      11875      11886      11885      11995      11996      12007      12006  
     11875      11876      11887      11886      11996      11997      12008      12007  
     11876      11877      11888      11887      11997      11998      12009      12008  
     11877      11878      11889      11888      11998      11999      12010      12009  
     11878      11879      11890      11889      11999      12000      12011      12010  
     11879      11880      11891      11890      12000      12001      12012      12011  
     11881      11882      11893      11892      12002      12003      12014      12013  
     11882      11883      11894      11893      12003      12004      12015      12014  
     11883      11884      11895      11894      12004      12005      12016      12015  
     11884      11885      11896      11895      12005      12006      12017      12016  
     11885      11886      11897      11896      12006      12007      12018      12017  
     11886      11887      11898      11897      12007      12008      12019      12018  
     11887      11888      11899      11898      12008      12009      12020      12019  
     11888      11889      11900      11899      12009      12010      12021      12020  
     11889      11890      11901      11900      12010      12011      12022      12021  
     11890      11891      11902      11901      12011      12012      12023      12022  
     11892      11893      11904      11903      12013      12014      12025      12024  
     11893      11894      11905      11904      12014      12015      12026      12025  
     11894      11895      11906      11905      12015      12016      12027      12026  
     11895      11896      11907      11906      12016      12017      12028      12027  
     11896      11897      11908      11907      12017      12018      12029      12028  
     11897      11898      11909      11908      12018      12019      12030      12029  
     11898      11899      11910      11909      12019      12020      12031      12030  
     11899      11900      11911      11910      12020      12021      12032      12031  
     11900      11901      11912      11911      12021      12022      12033      12032  
     11901      11902      11913      11912      12022      12023      12034      12033  
     11903      11904      11915      11914      12024      12025      12036      12035  
     11904      11905      11916      11915      12025      12026      12037      12036  
     11905      11906      11917      11916      12026      12027      12038      12037  
     11906      11907      11918      11917      12027      12028      12039      12038  
     11907      11908      11919      11918      12028      12029      12040      12039  
     11908      11909      11920      11919      12029      12030      12041      12040  
     11909      11910      11921      11920      12030      12031      12042      12041  
     11910      11911      11922      11921      12031      12032      12043      12042  
     11911      11912      11923      11922      12032      12033      12044      12043  
     11912      11913      11924      11923      12033      12034      12045      12044  
     11914      11915      11926      11925      12035      12036      12047      12046  
     11915      11916      11927      11926      12036      12037      12048      12047  
     11916      11917      11928      11927      12037      12038      12049      12048  
     11917      11918      11929      11928      12038      12039      12050      12049  
     11918      11919      11930      11929      12039      12040      12051      12050  
     11919      11920      11931      11930      12040      12041      12052      12051  
     11920      11921      11932      11931      12041      12042      12053      12052  
     11921      11922      11933      11932      12042      12043      12054      12053  
     11922      11923      11934      11933      12043      12044      12055      12054  
     11923      11924      11935      11934      12044      12045      12056      12055  
     11925      11926      11937      11936      12046      12047      12058      12057  
     11926      11927      11938      11937      12047      12048      12059      12058  
     11927      11928      11939      11938      12048      12049      12060      12059  
     11928      11929      11940      11939      12049      12050      12061      12060  
     11929      11930      11941      11940      12050      12051      12062      12061  
     11930      11931      11942      11941      12051      12052      12063      12062  
     11931      11932      11943      11942      12052      12053      12064      12063  
     11932      11933      11944      11943      12053      12054      12065      12064  
     11933      11934      11945      11944      12054      12055      12066      12065  
     11934      11935      11946      11945      12055      12056      12067      12066  
     11936      11937      11948      11947      12057      12058      12069      12068  
     11937      11938      11949      11948      12058      12059      12070      12069  
     11938      11939      11950      11949      12059      12060      12071      12070  
     11939      11940      11951      11950      12060      12061      12072      12071  
     11940      11941      11952      11951      12061      12062      12073      12072  
     11941      11942      11953      11952      12062      12063      12074      12073  
     11942      11943      11954      11953      12063      12064      12075      12074  
     11943      11944      11955      11954      12064      12065      12076      12075  
     11944      11945      11956      11955      12065      12066      12077      12076  
     11945      11946      11957      11956      12066      12067      12078      12077  
     11947      11948      11959      11958      12068      12069      12080      12079  
     11948      11949      11960      11959      12069      12070      12081      12080  
     11949      11950      11961      11960      12070      12071      12082      12081  
     11950      11951      11962      11961      12071      12072      12083      12082  
     11951      11952      11963      11962      12072      12073      12084      12083  
     11952      11953      11964      11963      12073      12074      12085      12084  
     11953      11954      11965      11964      12074      12075      12086      12085  
     11954      11955      11966      11965      12075      12076      12087      12086  
     11955      11956      11967      11966      12076      12077      12088      12087  
     11956      11957      11968      11967      12077      12078      12089      12088  
     11958      11959      11970      11969      12079      12080      12091      12090  
     11959      11960      11971      11970      12080      12081      12092      12091  
     11960      11961      11972      11971      12081      12082      12093      12092  
     11961      11962      11973      11972      12082      12083      12094      12093  
     11962      11963      11974      11973      12083      12084      12095      12094  
     11963      11964      11975      11974      12084      12085      12096      12095  
     11964      11965      11976      11975      12085      12086      12097      12096  
     11965      11966      11977      11976      12086      12087      12098      12097  
     11966      11967      11978      11977      12087      12088      12099      12098  
     11967      11968      11979      11978      12088      12089      12100      12099  
     11980      11981      11992      11991      12101      12102      12113      12112  
     11981      11982      11993      11992      12102      12103      12114      12113  
     11982      11983      11994      11993      12103      12104      12115      12114  
     11983      11984      11995      11994      12104      12105      12116      12115  
     11984      11985      11996      11995      12105      12106      12117      12116  
     11985      11986      11997      11996      12106      12107      12118      12117  
     11986      11987      11998      11997      12107      12108      12119      12118  
     11987      11988      11999      11998      12108      12109      12120      12119  
     11988      11989      12000      11999      12109      12110      12121      12120  
     11989      11990      12001      12000      12110      12111      12122      12121  
     11991      11992      12003      12002      12112      12113      12124      12123  
     11992      11993      12004      12003      12113      12114      12125      12124  
     11993      11994      12005      12004      12114      12115      12126      12125  
     11994      11995      12006      12005      12115      12116      12127      12126  
     11995      11996      12007      12006      12116      12117      12128      12127  
     11996      11997      12008      12007      12117      12118      12129      12128  
     11997      11998      12009      12008      12118      12119      12130      12129  
     11998      11999      12010      12009      12119      12120      12131      12130  
     11999      12000      12011      12010      12120      12121      12132      12131  
     12000      12001      12012      12011      12121      12122      12133      12132  
     12002      12003      12014      12013      12123      12124      12135      12134  
     12003      12004      12015      12014      12124      12125      12136      12135  
     12004      12005      12016      12015      12125      12126      12137      12136  
     12005      12006      12017      12016      12126      12127      12138      12137  
     12006      12007      12018      12017      12127      12128      12139      12138  
     12007      12008      12019      12018      12128      12129      12140      12139  
     12008      12009      12020      12019      12129      12130      12141      12140  
     12009      12010      12021      12020      12130      12131      12142      12141  
     12010      12011      12022      12021      12131      12132      12143      12142  
     12011      12012      12023      12022      12132      12133      12144      12143  
     12013      12014      12025      12024      12134      12135      12146      12145  
     12014      12015      12026      12025      12135      12136      12147      12146  
     12015      12016      12027      12026      12136      12137      12148      12147  
     12016      12017      12028      12027      12137      12138      12149      12148  
     12017      12018      12029      12028      12138      12139      12150      12149  
     12018      12019      12030      12029      12139      12140      12151      12150  
     12019      12020      12031      12030      12140      12141      12152      12151  
     12020      12021      12032      12031      12141      12142      12153      12152  
     12021      12022      12033      12032      12142      12143      12154      12153  
     12022      12023      12034      12033      12143      12144      12155      12154  
     12024      12025      12036      12035      12145      12146      12157      12156  
     12025      12026      12037      12036      12146      12147      12158      12157  
     12026      12027      12038      12037      12147      12148      12159      12158  
     12027      12028      12039      12038      12148      12149      12160      12159  
     12028      12029      12040      12039      12149      12150      12161      12160  
     12029      12030      12041      12040      12150      12151      12162      12161  
     12030      12031      12042      12041      12151      12152      12163      12162  
     12031      12032      12043      12042      12152      12153      12164      12163  
     12032      12033      12044      12043      12153      12154      12165      12164  
     12033      12034      12045      12044      12154      12155      12166      12165  
     12035      12036      12047      12046      12156      12157      12168      12167  
     12036      12037      12048      12047      12157      12158      12169      12168  
     12037      12038      12049      12048      12158      12159      12170      12169  
     12038      12039      12050      12049      12159      12160      12171      12170  
     12039      12040      12051      12050      12160      12161      12172      12171  
     12040      12041      12052      12051      12161      12162      12173      12172  
     12041      12042      12053      12052      12162      12163      12174      12173  
     12042      12043      12054      12053      12163      12164      12175      12174  
     12043      12044      12055      12054      12164      12165      12176      12175  
     12044      12045      12056      12055      12165      12166      12177      12176  
     12046      12047      12058      12057      12167      12168      12179      12178  
     12047      12048      12059      12058      12168      12169      12180      12179  
     12048      12049      12060      12059      12169      12170      12181      12180  
     12049      12050      12061      12060      12170      12171      12182      12181  
     12050      12051      12062      12061      12171      12172      12183      12182  
     12051      12052      12063      12062      12172      12173      12184      12183  
     12052      12053      12064      12063      12173      12174      12185      12184  
     12053      12054      12065      12064      12174      12175      12186      12185  
     12054      12055      12066      12065      12175      12176      12187      12186  
     12055      12056      12067      12066      12176      12177      12188      12187  
     12057      12058      12069      12068      12178      12179      12190      12189  
     12058      12059      12070      12069      12179      12180      12191      12190  
     12059      12060      12071      12070      12180      12181      12192      12191  
     12060      12061      12072      12071      12181      12182      12193      12192  
     12061      12062      12073      12072      12182      12183      12194      12193  
     12062      12063      12074      12073      12183      12184      12195      12194  
     12063      12064      12075      12074      12184      12185      12196      12195  
     12064      12065      12076      12075      12185      12186      12197      12196  
     12065      12066      12077      12076      12186      12187      12198      12197  
     12066      12067      12078      12077      12187      12188      12199      12198  
     12068      12069      12080      12079      12189      12190      12201      12200  
     12069      12070      12081      12080      12190      12191      12202      12201  
     12070      12071      12082      12081      12191      12192      12203      12202  
     12071      12072      12083      12082      12192      12193      12204      12203  
     12072      12073      12084      12083      12193      12194      12205      12204  
     12073      12074      12085      12084      12194      12195      12206      12205  
     12074      12075      12086      12085      12195      12196      12207      12206  
     12075      12076      12087      12086      12196      12197      12208      12207  
     12076      12077      12088      12087      12197      12198      12209      12208  
     12077      12078      12089      12088      12198      12199      12210      12209  
     12079      12080      12091      12090      12200      12201      12212      12211  
     12080      12081      12092      12091      12201      12202      12213      12212  
     12081      12082      12093      12092      12202      12203      12214      12213  
     12082      12083      12094      12093      12203      12204      12215      12214  
     12083      12084      12095      12094      12204      12205      12216      12215  
     12084      12085      12096      12095      12205      12206      12217      12216  
     12085      12086      12097      12096      12206      12207      12218      12217  
     12086      12087      12098      12097      12207      12208      12219      12218  
     12087      12088      12099      12098      12208      12209      12220      12219  
     12088      12089      12100      12099      12209      12210      12221      12220  
