TITLE="results for TO code"
VARIABLES = "x", "y", "z", "density", "sigmaxx", "sigmayy", "sigmazz", "sigmaxy", "sigmaxz", "sigmayz"
ZONE T="load step 1", NODES= 12221, ELEMENTS= 10000, DATAPACKING=POINT, ZONETYPE=FEBRICK
               0.00000000                0.00000000                0.00000000                1.00000000               -0.00000000                0.00000000                1.83466289                0.00000000                0.53498297                1.10012659
               1.00000000                0.00000000                0.00000000                1.00000000                0.00000000                0.00000000                1.26007300               -0.00000000                0.02993163                0.74792476
               2.00000000                0.00000000                0.00000000                1.00000000               -0.00000000               -0.00000000                0.66883091                0.00000000               -0.16152955                0.37975804
               3.00000000                0.00000000                0.00000000                1.00000000               -0.00000000               -0.00000000                0.14498105               -0.00000000               -0.14557520                0.08645893
               4.00000000                0.00000000                0.00000000                1.00000000                0.00000000                0.00000000               -0.01396037               -0.00000000               -0.03214046               -0.00751039
               5.00000000                0.00000000                0.00000000                1.00000000               -0.00000000                0.00000000               -0.00586425                0.00000000                0.00172450               -0.00513335
               6.00000000                0.00000000                0.00000000                1.00000000               -0.00000000                0.00000000               -0.01410383               -0.00000000               -0.00439038               -0.00156524
               7.00000000                0.00000000                0.00000000                1.00000000               -0.00000000                0.00000000               -0.08663844               -0.00000000               -0.05324286               -0.09107162
               8.00000000                0.00000000                0.00000000                1.00000000                0.00000000               -0.00000000               -0.76294542                0.00000000               -0.05053907               -0.47063153
               9.00000000                0.00000000                0.00000000                1.00000000               -0.00000000                0.00000000               -1.56395367               -0.00000000                0.24233892               -0.86818222
              10.00000000                0.00000000                0.00000000                1.00000000                0.00000000               -0.00000000               -2.25076052                0.00000000                0.86672014               -1.20737660
               0.00000000                1.00000000                0.00000000                1.00000000               -0.00000000               -0.00000000                1.48678210                0.00000000                0.73923508                0.58801369
               1.00000000                1.00000000                0.00000000                1.00000000               -0.00000000               -0.00000000                0.93256644                0.00000000                0.26601820                0.36812284
               2.00000000                1.00000000                0.00000000                1.00000000               -0.00000000                0.00000000                0.40493776               -0.00000000                0.05480183                0.12097098
               3.00000000                1.00000000                0.00000000                1.00000000                0.00000000                0.00000000                0.04605876                0.00000000                0.00937338               -0.00665422
               4.00000000                1.00000000                0.00000000                1.00000000               -0.00000000               -0.00000000               -0.00113295                0.00000000                0.00452834               -0.01455008
               5.00000000                1.00000000                0.00000000                1.00000000                0.00000000                0.00000000               -0.00089874               -0.00000000                0.00709386               -0.00373384
               6.00000000                1.00000000                0.00000000                1.00000000                0.00000000               -0.00000000               -0.00743468               -0.00000000                0.02324421                0.00378032
               7.00000000                1.00000000                0.00000000                1.00000000               -0.00000000               -0.00000000               -0.00851063                0.00000000                0.06667118               -0.01847856
               8.00000000                1.00000000                0.00000000                1.00000000               -0.00000000                0.00000000               -0.37698815               -0.00000000                0.15340639               -0.15721991
               9.00000000                1.00000000                0.00000000                1.00000000               -0.00000000               -0.00000000               -1.08495084                0.00000000                0.45815729               -0.38963884
              10.00000000                1.00000000                0.00000000                1.00000000               -0.00000000                0.00000000               -1.86327016                0.00000000                1.04573036               -0.56913519
               0.00000000                2.00000000                0.00000000                1.00000000               -0.00000000               -0.00000000                1.44200053                0.00000000                0.81513211                0.31044627
               1.00000000                2.00000000                0.00000000                1.00000000                0.00000000                0.00000000                0.78913143                0.00000000                0.32700294                0.17007061
               2.00000000                2.00000000                0.00000000                1.00000000               -0.00000000               -0.00000000                0.17997413                0.00000000                0.11416616                0.01259254
               3.00000000                2.00000000                0.00000000                1.00000000               -0.00000000               -0.00000000               -0.01656030               -0.00000000                0.04936155               -0.01081622
               4.00000000                2.00000000                0.00000000                1.00000000               -0.00000000               -0.00000000                0.00355767                0.00000000                0.01973697               -0.00890312
               5.00000000                2.00000000                0.00000000                1.00000000               -0.00000000               -0.00000000               -0.00055118               -0.00000000                0.01272482               -0.00384443
               6.00000000                2.00000000                0.00000000                1.00000000                0.00000000                0.00000000               -0.00146326               -0.00000000                0.02530333               -0.00302652
               7.00000000                2.00000000                0.00000000                1.00000000                0.00000000                0.00000000               -0.00004357                0.00000000                0.06407964               -0.01920000
               8.00000000                2.00000000                0.00000000                1.00000000               -0.00000000               -0.00000000               -0.06685960               -0.00000000                0.15574990               -0.02685784
               9.00000000                2.00000000                0.00000000                1.00000000                0.00000000                0.00000000               -0.69578446                0.00000000                0.43283456               -0.13476649
              10.00000000                2.00000000                0.00000000                1.00000000               -0.00000000               -0.00000000               -1.76179911                0.00000000                1.03994302               -0.20789998
               0.00000000                3.00000000                0.00000000                1.00000000                0.00000000                0.00000000                1.38462141                0.00000000                0.80996066                0.13493908
               1.00000000                3.00000000                0.00000000                1.00000000               -0.00000000                0.00000000                0.65481571               -0.00000000                0.33483602                0.05488801
               2.00000000                3.00000000                0.00000000                1.00000000                0.00000000               -0.00000000                0.03973631               -0.00000000                0.15726961               -0.03596653
               3.00000000                3.00000000                0.00000000                1.00000000               -0.00000000               -0.00000000                0.00329237                0.00000000                0.06257560               -0.00957991
               4.00000000                3.00000000                0.00000000                1.00000000               -0.00000000                0.00000000                0.00118081                0.00000000                0.02538918               -0.00449390
               5.00000000                3.00000000                0.00000000                1.00000000               -0.00000000                0.00000000               -0.00000305               -0.00000000                0.01509858               -0.00309592
               6.00000000                3.00000000                0.00000000                1.00000000               -0.00000000                0.00000000               -0.00064324                0.00000000                0.02205582               -0.00531428
               7.00000000                3.00000000                0.00000000                1.00000000                0.00000000                0.00000000               -0.00894658               -0.00000000                0.04908073               -0.01156217
               8.00000000                3.00000000                0.00000000                1.00000000               -0.00000000                0.00000000                0.03153387                0.00000000                0.11955003               -0.02288954
               9.00000000                3.00000000                0.00000000                1.00000000               -0.00000000               -0.00000000               -0.41150629               -0.00000000                0.32649818               -0.04302622
              10.00000000                3.00000000                0.00000000                1.00000000                0.00000000                0.00000000               -1.57197512                0.00000000                0.88581927               -0.00651250
               0.00000000                4.00000000                0.00000000                1.00000000               -0.00000000               -0.00000000                1.31884918               -0.00000000                0.77673875                0.01643180
               1.00000000                4.00000000                0.00000000                1.00000000               -0.00000000               -0.00000000                0.51072339                0.00000000                0.32568002               -0.02295107
               2.00000000                4.00000000                0.00000000                1.00000000               -0.00000000                0.00000000               -0.07260810                0.00000000                0.17836726               -0.05004259
               3.00000000                4.00000000                0.00000000                1.00000000                0.00000000               -0.00000000                0.01272472               -0.00000000                0.06981748               -0.00554955
               4.00000000                4.00000000                0.00000000                1.00000000                0.00000000               -0.00000000                0.00091745                0.00000000                0.02677332               -0.00206028
               5.00000000                4.00000000                0.00000000                1.00000000               -0.00000000                0.00000000                0.00024104                0.00000000                0.01478974               -0.00212527
               6.00000000                4.00000000                0.00000000                1.00000000                0.00000000               -0.00000000               -0.00093417               -0.00000000                0.01815620               -0.00414589
               7.00000000                4.00000000                0.00000000                1.00000000               -0.00000000               -0.00000000               -0.00415458               -0.00000000                0.04008921               -0.00914947
               8.00000000                4.00000000                0.00000000                1.00000000                0.00000000                0.00000000                0.01383883                0.00000000                0.09793774               -0.01626199
               9.00000000                4.00000000                0.00000000                1.00000000               -0.00000000               -0.00000000               -0.30547166                0.00000000                0.27359738                0.01023505
              10.00000000                4.00000000                0.00000000                1.00000000               -0.00000000               -0.00000000               -1.38554962                0.00000000                0.75302674                0.08371381
               0.00000000                5.00000000                0.00000000                1.00000000                0.00000000                0.00000000                1.24028158               -0.00000000                0.72247675               -0.06900532
               1.00000000                5.00000000                0.00000000                1.00000000                0.00000000                0.00000000                0.34270041                0.00000000                0.29380483               -0.06618385
               2.00000000                5.00000000                0.00000000                1.00000000                0.00000000               -0.00000000               -0.11731424               -0.00000000                0.16603752               -0.03869561
               3.00000000                5.00000000                0.00000000                1.00000000               -0.00000000                0.00000000                0.01587739                0.00000000                0.06684471               -0.00195781
               4.00000000                5.00000000                0.00000000                1.00000000               -0.00000000               -0.00000000                0.00063451                0.00000000                0.02589090               -0.00024992
               5.00000000                5.00000000                0.00000000                1.00000000                0.00000000                0.00000000                0.00035365                0.00000000                0.01354572               -0.00121745
               6.00000000                5.00000000                0.00000000                1.00000000               -0.00000000               -0.00000000               -0.00054887               -0.00000000                0.01500036               -0.00325779
               7.00000000                5.00000000                0.00000000                1.00000000                0.00000000                0.00000000               -0.00352178                0.00000000                0.03130500               -0.00777960
               8.00000000                5.00000000                0.00000000                1.00000000               -0.00000000               -0.00000000                0.00943320                0.00000000                0.07751903               -0.01366766
               9.00000000                5.00000000                0.00000000                1.00000000               -0.00000000               -0.00000000               -0.20804174                0.00000000                0.22232311                0.04554567
              10.00000000                5.00000000                0.00000000                1.00000000               -0.00000000                0.00000000               -1.19803305                0.00000000                0.64553696                0.15022973
               0.00000000                6.00000000                0.00000000                1.00000000               -0.00000000               -0.00000000                1.13109267                0.00000000                0.64596041               -0.12476508
               1.00000000                6.00000000                0.00000000                1.00000000                0.00000000               -0.00000000                0.20360405                0.00000000                0.25614116               -0.08360805
               2.00000000                6.00000000                0.00000000                1.00000000               -0.00000000               -0.00000000               -0.11063837                0.00000000                0.14488539               -0.02851279
               3.00000000                6.00000000                0.00000000                1.00000000               -0.00000000                0.00000000                0.01375466                0.00000000                0.06092464               -0.00065059
               4.00000000                6.00000000                0.00000000                1.00000000                0.00000000                0.00000000                0.00077263                0.00000000                0.02401287                0.00063877
               5.00000000                6.00000000                0.00000000                1.00000000                0.00000000               -0.00000000                0.00039147               -0.00000000                0.01209636               -0.00056555
               6.00000000                6.00000000                0.00000000                1.00000000                0.00000000                0.00000000               -0.00041285                0.00000000                0.01209007               -0.00244437
               7.00000000                6.00000000                0.00000000                1.00000000               -0.00000000               -0.00000000               -0.00219759               -0.00000000                0.02319552               -0.00587713
               8.00000000                6.00000000                0.00000000                1.00000000               -0.00000000                0.00000000                0.00400494                0.00000000                0.05251219               -0.00944103
               9.00000000                6.00000000                0.00000000                1.00000000               -0.00000000                0.00000000               -0.11546035                0.00000000                0.14383740                0.05704085
              10.00000000                6.00000000                0.00000000                1.00000000                0.00000000                0.00000000               -0.88301927               -0.00000000                0.51714622                0.20468758
               0.00000000                7.00000000                0.00000000                1.00000000                0.00000000               -0.00000000                0.99855512               -0.00000000                0.56567171               -0.15692631
               1.00000000                7.00000000                0.00000000                1.00000000               -0.00000000               -0.00000000                0.10477637               -0.00000000                0.23067939               -0.08853484
               2.00000000                7.00000000                0.00000000                1.00000000               -0.00000000                0.00000000               -0.11629629                0.00000000                0.13988380               -0.02145171
               3.00000000                7.00000000                0.00000000                1.00000000                0.00000000               -0.00000000                0.01309225                0.00000000                0.05865465                0.00079123
               4.00000000                7.00000000                0.00000000                1.00000000               -0.00000000                0.00000000                0.00068647               -0.00000000                0.02231295                0.00163593
               5.00000000                7.00000000                0.00000000                1.00000000                0.00000000               -0.00000000                0.00040153               -0.00000000                0.01048082               -0.00000511
               6.00000000                7.00000000                0.00000000                1.00000000               -0.00000000               -0.00000000               -0.00028690                0.00000000                0.00963538               -0.00190596
               7.00000000                7.00000000                0.00000000                1.00000000                0.00000000                0.00000000               -0.00123704                0.00000000                0.01771362               -0.00351391
               8.00000000                7.00000000                0.00000000                1.00000000               -0.00000000               -0.00000000               -0.00033585                0.00000000                0.03655059                0.00081320
               9.00000000                7.00000000                0.00000000                1.00000000                0.00000000                0.00000000               -0.04413736               -0.00000000                0.08521056                0.06149768
              10.00000000                7.00000000                0.00000000                1.00000000               -0.00000000                0.00000000               -0.52658735               -0.00000000                0.35324959                0.17769680
               0.00000000                8.00000000                0.00000000                1.00000000               -0.00000000                0.00000000                0.85948118                0.00000000                0.49486454               -0.18941193
               1.00000000                8.00000000                0.00000000                1.00000000                0.00000000               -0.00000000                0.02653017                0.00000000                0.21539977               -0.07879752
               2.00000000                8.00000000                0.00000000                1.00000000               -0.00000000               -0.00000000               -0.15166810               -0.00000000                0.15043421               -0.00039626
               3.00000000                8.00000000                0.00000000                1.00000000               -0.00000000                0.00000000                0.01100329                0.00000000                0.06120017                0.01047809
               4.00000000                8.00000000                0.00000000                1.00000000                0.00000000                0.00000000                0.00006635                0.00000000                0.02026673                0.00473442
               5.00000000                8.00000000                0.00000000                1.00000000               -0.00000000                0.00000000                0.00052688               -0.00000000                0.00870972                0.00025823
               6.00000000                8.00000000                0.00000000                1.00000000                0.00000000               -0.00000000               -0.00015663                0.00000000                0.00769384               -0.00195733
               7.00000000                8.00000000                0.00000000                1.00000000               -0.00000000                0.00000000               -0.00091603               -0.00000000                0.01449751               -0.00345973
               8.00000000                8.00000000                0.00000000                1.00000000                0.00000000                0.00000000               -0.00146160                0.00000000                0.03747473                0.00702088
               9.00000000                8.00000000                0.00000000                1.00000000                0.00000000                0.00000000               -0.00721088               -0.00000000                0.08109268                0.08177605
              10.00000000                8.00000000                0.00000000                1.00000000               -0.00000000                0.00000000               -0.40126035               -0.00000000                0.27040450                0.14588833
               0.00000000                9.00000000                0.00000000                1.00000000                0.00000000               -0.00000000                0.69300895               -0.00000000                0.39215214               -0.26705635
               1.00000000                9.00000000                0.00000000                1.00000000               -0.00000000               -0.00000000               -0.03637042                0.00000000                0.19211251               -0.04279142
               2.00000000                9.00000000                0.00000000                1.00000000               -0.00000000                0.00000000               -0.28470253               -0.00000000                0.17087766                0.08440369
               3.00000000                9.00000000                0.00000000                1.00000000                0.00000000               -0.00000000               -0.02462163                0.00000000                0.06934239                0.05040888
               4.00000000                9.00000000                0.00000000                1.00000000               -0.00000000               -0.00000000                0.00351970                0.00000000                0.01894927                0.00971283
               5.00000000                9.00000000                0.00000000                1.00000000                0.00000000                0.00000000                0.00029274               -0.00000000                0.00961876               -0.00083891
               6.00000000                9.00000000                0.00000000                1.00000000               -0.00000000                0.00000000               -0.00005331               -0.00000000                0.00684646               -0.00183870
               7.00000000                9.00000000                0.00000000                1.00000000                0.00000000               -0.00000000               -0.00037762               -0.00000000                0.01003561               -0.00560903
               8.00000000                9.00000000                0.00000000                1.00000000                0.00000000               -0.00000000               -0.00407612                0.00000000                0.03553046               -0.00771119
               9.00000000                9.00000000                0.00000000                1.00000000               -0.00000000               -0.00000000                0.08073040               -0.00000000                0.11880631                0.08910951
              10.00000000                9.00000000                0.00000000                1.00000000               -0.00000000                0.00000000               -0.45568251               -0.00000000                0.26536499                0.20308484
               0.00000000               10.00000000                0.00000000                1.00000000                0.00000000                0.00000000                0.65210114               -0.00000000                0.10536693               -0.44844808
               1.00000000               10.00000000                0.00000000                1.00000000                0.00000000                0.00000000               -0.07736953               -0.00000000               -0.01478325                0.01386470
               2.00000000               10.00000000                0.00000000                1.00000000                0.00000000               -0.00000000               -0.50667439                0.00000000                0.10125418                0.33725581
               3.00000000               10.00000000                0.00000000                1.00000000               -0.00000000                0.00000000               -0.13840702               -0.00000000                0.12885923                0.16006067
               4.00000000               10.00000000                0.00000000                1.00000000                0.00000000                0.00000000               -0.00008270                0.00000000                0.05200117                0.02104419
               5.00000000               10.00000000                0.00000000                1.00000000               -0.00000000               -0.00000000               -0.00093750               -0.00000000                0.01774697                0.00256152
               6.00000000               10.00000000                0.00000000                1.00000000                0.00000000                0.00000000                0.00082635                0.00000000                0.00938472               -0.00168110
               7.00000000               10.00000000                0.00000000                1.00000000               -0.00000000                0.00000000                0.00261412                0.00000000                0.01161195               -0.00794527
               8.00000000               10.00000000                0.00000000                1.00000000               -0.00000000                0.00000000                0.01337178               -0.00000000                0.01526116               -0.02890175
               9.00000000               10.00000000                0.00000000                1.00000000               -0.00000000                0.00000000                0.10536231               -0.00000000                0.01131318                0.01894693
              10.00000000               10.00000000                0.00000000                1.00000000                0.00000000               -0.00000000               -0.57378454                0.00000000                0.07748030                0.38656722
               0.00534983                0.01100127                1.01834663                1.00000000               -0.50505135               -0.51211290                1.78122054               -0.14794972               -0.05334454                0.50188673
               1.00029932                0.00747925                1.01260073                1.00000000               -0.34825626               -0.37980192                1.26454602               -0.12409770               -0.27683850                0.24957499
               1.99838470                0.00379758                1.00668831                0.88292638               -0.08775341               -0.25878706                0.72591416               -0.11440153               -0.39778623                0.02781469
               2.99854425                0.00086459                1.00144981                0.46534838                0.06469455               -0.09311314                0.23407405               -0.03868563               -0.24931087               -0.09234179
               3.99967860               -0.00007510                0.99986040                0.37941666                0.07364985               -0.00703969               -0.04189956               -0.00912734                0.17510119               -0.08920928
               5.00001724               -0.00005133                0.99994136                0.38197893                0.01387504                0.00139951               -0.12902543                0.00834194                0.38939029               -0.07739411
               5.99995610               -0.00001565                0.99985896                0.43884682               -0.02748368                0.00534556               -0.25637120               -0.01533455                0.32623404               -0.06896755
               6.99946757               -0.00091072                0.99913362                0.61282308               -0.02307434                0.07259306               -0.54140223               -0.11461911               -0.06724966               -0.12147967
               7.99949461               -0.00470632                0.99237055                1.00000000                0.14779089                0.31341162               -0.94759346               -0.18460984               -0.35163266               -0.04407217
               9.00242339               -0.00868182                0.98436046                1.00000000                0.45862960                0.47854338               -1.53348234               -0.15255416               -0.15996083               -0.19359083
              10.00866720               -0.01207377                0.97749239                1.00000000                0.62438122                0.63824141               -2.15412327               -0.16018416                0.14991681               -0.51822087
               0.00739235                1.00588014                1.01486782                1.00000000               -0.47321687               -0.39484016                1.57805679               -0.07981628                0.18922566                0.40861104
               1.00266018                1.00368123                1.00932566                1.00000000               -0.34221662               -0.28892708                1.05381630               -0.08498569               -0.00792172                0.16374795
               2.00054802                1.00120971                1.00404938                0.39549151               -0.12832241               -0.18358275                0.56785814               -0.04954067               -0.04441321               -0.06767479
               3.00009373                0.99993346                1.00046059                0.00010000               -0.02513675               -0.04863757                0.18871330                0.02970785                0.14951445               -0.13501905
               4.00004528                0.99985450                0.99998867                0.00010000               -0.00113976               -0.00069637                0.01160706                0.02739890                0.31440285               -0.13809200
               5.00007094                0.99996266                0.99999101                0.00010000                0.00935793                0.00064446               -0.05393509                0.01466536                0.36824012               -0.05575494
               6.00023244                1.00003780                0.99992565                0.00010000                0.02978866               -0.00073064               -0.16878961                0.00747450                0.43177959                0.03897669
               7.00066671                0.99981521                0.99991489                0.01130471                0.06508109                0.03593581               -0.39692278               -0.02183886                0.33309461                0.00738735
               8.00153406                0.99842780                0.99623012                0.82577845                0.19574306                0.22188685               -0.77001600               -0.08243565                0.05908746                0.09125391
               9.00458157                0.99610361                0.98915049                1.00000000                0.44616199                0.36670787               -1.33384742               -0.11070982                0.04553356               -0.02595331
              10.01045730                0.99430865                0.98136730                1.00000000                0.58757307                0.49973831               -1.89280953               -0.09288491                0.26136943               -0.37661776
               0.00815132                2.00310446                1.01442001                1.00000000               -0.48812917               -0.22653730                1.48278261               -0.10501287                0.21553314                0.34474866
               1.00327003                2.00170071                1.00789131                1.00000000               -0.35048297               -0.15661742                0.88775917               -0.11451796                0.03319276                0.11138493
               2.00114166                2.00012593                1.00179974                0.05679078               -0.13882069               -0.07846876                0.30063041               -0.03920952                0.14809215               -0.10160498
               3.00049362                1.99989184                0.99983440                0.00010000               -0.04721460               -0.00146285                0.02658150                0.01585328                0.55484838               -0.17795918
               4.00019737                1.99991097                1.00003558                0.00010000               -0.01831837                0.00502809               -0.01437265                0.01391631                0.64455925               -0.11093713
               5.00012725                1.99996156                0.99999449                0.00010000                0.00278318                0.00031896               -0.07607015                0.00694066                0.62255393               -0.07411112
               6.00025303                1.99996973                0.99998537                0.00010000                0.02567741               -0.00454730               -0.14309788               -0.00827198                0.68656786               -0.02826358
               7.00064080                1.99980800                0.99999956                0.00010000                0.06522329                0.00345819               -0.37532746               -0.02071089                0.80039084                0.02382974
               8.00155750                1.99973142                0.99933140                0.15271799                0.18437746                0.06716519               -0.62730359               -0.07471142                0.43481831                0.10780291
               9.00432835                1.99865234                0.99304216                1.00000000                0.44209656                0.17330631               -1.08249934               -0.15635062                0.07020296                0.05765795
              10.01039943                1.99792100                0.98238201                1.00000000                0.60710846                0.28131135               -1.70339560               -0.15308904                0.08169586               -0.21905844
               0.00809961                3.00134939                1.01384621                1.00000000               -0.47512464               -0.14700723                1.41204553               -0.09924776                0.20561197                0.18771366
               1.00334836                3.00054888                1.00654816                1.00000000               -0.32634553               -0.09651084                0.74128178               -0.08611426                0.06382225                0.00879355
               2.00157270                2.99964033                1.00039736                0.00010000               -0.13613021               -0.03131756                0.06224253               -0.00013341                0.33071864               -0.10855591
               3.00062576                2.99990420                1.00003292                0.00010000               -0.06594022                0.00263334               -0.27475317                0.02596428                0.79723638               -0.19214404
               4.00025389                2.99995506                1.00001181                0.00010000               -0.02373851                0.00342142               -0.03931717                0.00676017                0.81973650               -0.07339967
               5.00015099                2.99996904                0.99999997                0.00010000               -0.00166668                0.00085958               -0.08261195                0.00062227                0.82224451               -0.06474312
               6.00022056                2.99994686                0.99999357                0.00010000                0.01699107               -0.00055968               -0.13862263               -0.00780670                0.83655611               -0.03771731
               7.00049081                2.99988438                0.99991053                0.00010000                0.04874711                0.00502527               -0.15229053               -0.02078285                0.89181620                0.00478577
               8.00119550                2.99977110                1.00031534                0.03760028                0.13870873                0.00529793               -0.61672716               -0.04463811                0.85321185                0.04565104
               9.00326498                2.99956974                0.99588494                1.00000000                0.38313462                0.07250077               -0.72343541               -0.07143007                0.11951017                0.02452245
              10.00885819                2.99993488                0.98428025                1.00000000                0.55932109                0.14580690               -1.54698027               -0.10694442               -0.01934127                0.01097642
               0.00776739                4.00016432                1.01318849                1.00000000               -0.45105872               -0.10197220                1.33173406               -0.08312483                0.16504307                0.07444516
               1.00325680                3.99977049                1.00510723                0.89663543               -0.29918574               -0.06053593                0.60888838               -0.05375279                0.09163069               -0.08022398
               2.00178367                3.99949957                0.99927392                0.00010000               -0.12793127               -0.00136454               -0.13007397                0.01308472                0.49761683               -0.10346750
               3.00069817                3.99994450                1.00012725                0.00010000               -0.07579697                0.00381105               -0.08116305                0.02612570                0.90724081               -0.07767718
               4.00026773                3.99997940                1.00000917                0.00010000               -0.02751387                0.00212199               -0.09138051                0.00196300                0.93523343               -0.06993098
               5.00014790                3.99997875                1.00000241                0.00010000               -0.00430856                0.00093923               -0.08629415               -0.00181923                0.97506021               -0.04566139
               6.00018156                3.99995854                0.99999066                0.00010000                0.01264973                0.00102825               -0.09586547               -0.00703982                0.98561385               -0.01968400
               7.00040089                3.99990851                0.99995845                0.00010000                0.03989077                0.00189129               -0.10031939               -0.01494591                1.01104954                0.00860030
               8.00097938                3.99983738                1.00013839                0.02444424                0.11675408                0.00461094               -0.03773289               -0.01132324                0.81455187                0.09364386
               9.00273597                4.00010235                0.99694528                1.00000000                0.32754450                0.04428595               -0.51931066               -0.00209964                0.19950414                0.01963717
              10.00753027                4.00083714                0.98614450                1.00000000                0.47942936                0.07837111               -1.37803126               -0.04666239                0.00485972                0.12274389
               0.00722477                4.99930995                1.01240282                1.00000000               -0.42867192               -0.07059844                1.23656178               -0.06256770                0.09518227               -0.02337705
               1.00293805                4.99933816                1.00342700                0.73610101               -0.27821961               -0.03032849                0.47588739               -0.01961457                0.14845638               -0.12952549
               2.00166038                4.99961304                0.99882686                0.00010000               -0.11348006                0.01076490               -0.34078221                0.01537209                0.66023281               -0.07173221
               3.00066845                4.99998042                1.00015877                0.00010000               -0.07007331                0.00244948               -0.19544254                0.01477642                1.06851466               -0.11670784
               4.00025891                4.99999750                1.00000635                0.00010000               -0.02664949                0.00134953               -0.12622950               -0.00101005                1.07380144               -0.06060351
               5.00013546                4.99998783                1.00000354                0.00010000               -0.00544527                0.00077986               -0.08648335               -0.00285062                1.10635558               -0.03030209
               6.00015000                4.99996742                0.99999451                0.00010000                0.00887964                0.00085076               -0.05627018               -0.00631413                1.11055401               -0.00822025
               7.00031305                4.99992220                0.99996478                0.00010000                0.03125934                0.00163617                0.00417240               -0.01365178                1.08022440                0.02522408
               8.00077519                4.99986332                1.00009433                0.03019139                0.09550905                0.00341048                0.40234143                0.00394986                0.79249144                0.14482784
               9.00222323                5.00045546                0.99791958                0.93793666                0.28400896                0.02340290               -0.36497083                0.01706871                0.26407546                0.08388741
              10.00645537                5.00150230                0.98801967                1.00000000                0.42321386                0.06048689               -1.26141577               -0.01325620                0.03676933                0.27170601
               0.00645960                5.99875235                1.01131093                1.00000000               -0.38981926               -0.04396050                1.13071973               -0.03724549                0.06103448               -0.11024634
               1.00256141                5.99916392                1.00203604                0.66147803               -0.25053751               -0.01117550                0.31517378                0.01656343                0.22944035               -0.12738976
               2.00144885                5.99971487                0.99889362                0.08026638               -0.09760826                0.00862195               -0.57685243                0.02840187                0.78044009               -0.05622163
               3.00060925                5.99999349                1.00013755                0.00010000               -0.06043626                0.00137452               -0.80852283                0.01048075                1.21052490               -0.10036884
               4.00024013                6.00000639                1.00000773                0.00010000               -0.02441414                0.00094292               -0.14762377               -0.00174646                1.20143675               -0.03395161
               5.00012096                5.99999434                1.00000391                0.00010000               -0.00596140                0.00060617               -0.09070408               -0.00307402                1.21743666               -0.01291454
               6.00012090                5.99997556                0.99999587                0.00010000                0.00554958                0.00067592               -0.01627882               -0.00533828                1.20892619                0.00189575
               7.00023196                5.99994123                0.99997802                0.00010000                0.02021106                0.00213284                0.09313131               -0.01029402                1.13684562                0.03132093
               8.00052512                5.99990559                1.00004005                0.04760890                0.06032094                0.00724043                0.80215414                0.01097477                0.76928524                0.16576469
               9.00143837                6.00057041                0.99884540                0.76817678                0.23231701                0.00797600               -0.24228292                0.03850804                0.37966890                0.13212308
              10.00517146                6.00204688                0.99116981                1.00000000                0.37330882                0.01373354               -1.22430751                0.00150305                0.18890175                0.43674351
               0.00565672                6.99843074                1.00998555                1.00000000               -0.33499232               -0.03232343                1.01387367               -0.00715647                0.06441533               -0.17394636
               1.00230679                6.99911465                1.00104776                0.65834930               -0.21289395                0.00240527                0.15805945                0.04736660                0.28906532               -0.10725882
               2.00139884                6.99978548                0.99883704                0.18383535               -0.08601237                0.01405826               -0.76995616                0.04743744                0.85026780               -0.04021094
               3.00058655                7.00000791                1.00013092                0.00010000               -0.05878543                0.00556434               -1.23488730                0.01168159                1.26470157                0.05204182
               4.00022313                7.00001636                1.00000686                0.00010000               -0.02408691                0.00204783               -0.18042443               -0.00227124                1.28080555                0.00866733
               5.00010481                6.99999995                1.00000402                0.00010000               -0.00633878                0.00041189               -0.10113408               -0.00346427                1.29982765                0.01075909
               6.00009635                6.99998094                0.99999713                0.00010000                0.00361640                0.00024352                0.01609961               -0.00395251                1.28822555                0.00757350
               7.00017714                6.99996486                0.99998763                0.00010000                0.01345761                0.00120870                0.16896135               -0.00298943                1.17911538                0.02331333
               8.00036551                7.00000813                0.99999664                0.08080685                0.03374847                0.00823096                1.16180617                0.02498707                0.74288799                0.14324573
               9.00085211                7.00061498                0.99955863                0.69856842                0.15834950                0.01236760               -0.08243477                0.05706943                0.51948118                0.15676137
              10.00353250                7.00177697                0.99473413                1.00000000                0.26803903               -0.02939962               -1.17518814               -0.00717174                0.39162170                0.38698033
               0.00494865                7.99810588                1.00859481                1.00000000               -0.27946477               -0.05506502                0.88620674                0.02385463                0.06865020               -0.24000559
               1.00215400                7.99921202                1.00026530                0.72365619               -0.17221517                0.02287171                0.04022374                0.07522439                0.31438704               -0.08149563
               2.00150434                7.99999604                0.99848332                0.31372804               -0.07709980                0.05292770               -0.88389032                0.06013474                0.88487392               -0.02214498
               3.00061200                8.00010478                1.00011003                0.00010000               -0.06508374                0.02480883               -1.17440694                0.00790921                1.31657107                0.15003768
               4.00020267                8.00004734                1.00000066                0.00010000               -0.02624522                0.00403845               -0.22493647               -0.00679177                1.29752693                0.08328448
               5.00008710                8.00000258                1.00000527                0.00010000               -0.00628644               -0.00041690               -0.11976981               -0.00377691                1.35546068                0.03704141
               6.00007694                7.99998043                0.99999843                0.00010000                0.00289390                0.00003363                0.04149091               -0.00325344                1.34878353                0.00670254
               7.00014498                7.99996540                0.99999084                0.00010000                0.01489044               -0.00104756                0.22612651                0.00065010                1.21584692                0.00458706
               8.00037475                8.00007021                0.99998538                0.14698819                0.03329758               -0.00426220                1.41481311                0.04210782                0.73185706                0.04949301
               9.00081093                8.00081776                0.99992789                0.75584392                0.11646488                0.01380592                0.11984680                0.08623160                0.55845657                0.18621138
              10.00270404                8.00145888                0.99598740                1.00000000                0.18931182                0.01269402               -0.98310609                0.02016998                0.43205788                0.19756151
               0.00392152                8.99732944                1.00693009                1.00000000               -0.20003963               -0.12951807                0.75208774                0.02951612                0.06261006               -0.26323697
               1.00192113                8.99957209                0.99963630                0.88775876               -0.11063724                0.04633111               -0.04934940                0.06063851                0.24870058               -0.04369418
               2.00170878                9.00084404                0.99715297                0.52137408               -0.06138506                0.16882604               -0.85643293                0.02201014                0.84694358               -0.01503380
               3.00069342                9.00050409                0.99975378                0.00010000               -0.07596420                0.07479129               -1.11056978               -0.00351590                1.27618455                0.19529059
               4.00018949                9.00009713                1.00003520                0.00010000               -0.02986181                0.00815488               -0.26676706               -0.00975668                1.27968998                0.16889270
               5.00009619                8.99999161                1.00000293                0.00010000               -0.00605141                0.00115164               -0.14243818               -0.00125714                1.39766167                0.06423294
               6.00006846                8.99998161                0.99999947                0.00010000                0.00020843                0.00013812                0.05875632               -0.00153962                1.39764628                0.00370727
               7.00010036                8.99994391                0.99999622                0.00010000                0.01434200               -0.00224277                0.27952744               -0.00437903                1.23219465               -0.04038906
               8.00035530                8.99992289                0.99995924                0.31152956                0.05438535               -0.01796132                1.48472058                0.03625249                0.77287386               -0.02860713
               9.00118806                9.00089110                1.00080730                1.00000000                0.11491726               -0.03141456                0.25113105                0.07050827                0.50827657                0.14556259
              10.00265365                9.00203085                0.99544317                1.00000000                0.14655868                0.12033944               -0.69152476                0.01751323                0.23860812                0.09759410
               0.00105367                9.99551552                1.00652101                1.00000000               -0.12015018               -0.18139174                0.65360350                0.17552757               -0.16179241               -0.29238206
               0.99985217               10.00013865                0.99922630                1.00000000               -0.00205638                0.05665612               -0.13293007                0.18595619               -0.03426097               -0.00430163
               2.00101254               10.00337256                0.99493326                0.84044701                0.07182124                0.25285212               -0.89033265                0.00347450                0.64155205                0.07797578
               3.00128859               10.00160061                0.99861593                0.37166400               -0.02462650                0.10965179               -1.25229249               -0.09858897                1.25685730                0.31012263
               4.00052001               10.00021044                0.99999917                0.35039586               -0.05555613                0.01133136               -0.32359764               -0.04569768                1.37703419                0.27603041
               5.00017747               10.00002562                0.99999063                0.36425350               -0.02130822                0.00340043               -0.18010340               -0.00323443                1.48224912                0.10695571
               6.00009385                9.99998319                1.00000826                0.39931924               -0.00306751                0.00015761                0.06167723               -0.00271514                1.47138807                0.00430279
               7.00011612                9.99992055                1.00002614                0.46948887                0.00293822               -0.00233624                0.31121694               -0.01203399                1.26843674               -0.10393527
               8.00015261                9.99971098                1.00013372                0.74193359               -0.00014939               -0.02119056                1.58457219               -0.00682320                0.68677274               -0.10782555
               9.00011313               10.00018947                1.00105362                1.00000000                0.03110957               -0.07016258                0.29530432                0.10024135                0.30342778                0.03175988
              10.00077480               10.00386567                0.99426215                1.00000000                0.06616712                0.18348237               -0.55469562                0.17973559               -0.08260372                0.13716206
               0.01042491                0.01699535                2.03562441                1.00000000               -0.43033571               -0.48965059                1.72799154               -0.10097996               -0.25349939                0.23619130
               1.00612155                0.01154163                2.02529092                1.00000000               -0.36148560               -0.35572563                1.26362035               -0.10421375               -0.24656577                0.01258395
               2.00319519                0.00583416                2.01451828                0.95512045               -0.21399272               -0.22990849                0.76582598               -0.09233928               -0.26700100               -0.09689207
               3.00184170                0.00013161                2.00468148                0.49668513                0.09076410               -0.12165777                0.29632896                0.12718553               -0.06904294               -0.11707815
               4.00501048               -0.00204073                1.99916201                0.40682487                0.29737725               -0.08962865               -0.01173013                0.08577540                0.45992203               -0.05391454
               5.00778924               -0.00164719                1.99741949                0.41313126                0.11609729                0.04789627               -0.22510620               -0.00974210                0.78407395               -0.01173799
               6.00733242               -0.00151273                1.99487258                0.48791038               -0.08229089                0.21658623               -0.49898505                0.02068094                0.60547494                0.00998416
               7.00614342               -0.00399215                1.98917196                0.70505902                0.02040382                0.32739478               -0.82452024                0.06700769                0.30804171                0.02743392
               8.00774050               -0.00860059                1.98104813                1.00000000                0.27677559                0.34648089               -1.13220280               -0.05242096                0.08545006                0.00089306
               9.01167893               -0.01345187                1.96933035                1.00000000                0.44969871                0.42511150               -1.52443674               -0.06622608               -0.08836552               -0.08769453
              10.01673447               -0.01811422                1.95691753                1.00000000                0.50555387                0.56922553               -1.99611577               -0.06030494               -0.17635610               -0.11450997
               0.01486883                1.01209884                2.03156114                1.00000000               -0.42088175               -0.45393850                1.65691487               -0.06429006               -0.04115893                0.34645725
               1.01066001                1.00798437                2.02107633                1.00000000               -0.34460069               -0.32682125                1.16884292               -0.07006016                0.02361220                0.06535045
               2.00797681                1.00353507                2.01135716                0.62617866               -0.18045064               -0.21071209                0.69515471               -0.06228885                0.14208379               -0.18863743
               3.00705100                0.99891503                2.00377427                0.00010000               -0.06095903               -0.16315650                0.24969410                0.22736722                0.41394233               -0.22922890
               4.00675763                0.99706298                2.00023214                0.00010000                0.01884117               -0.01005731                0.01941319                0.38186775                0.71154957               -0.19896138
               5.00742782                0.99883177                1.99892130                0.00010000                0.09770394                0.00780065               -0.14136557                0.41510980                0.81722245               -0.11285483
               6.00871171                1.00065313                1.99662421                0.00010000                0.14648037                0.04397741               -0.37200702                0.34219430                0.75397419                0.03073799
               7.01035743                0.99928180                1.99206154                0.20616885                0.16172202                0.22365519               -0.70264085                0.23647246                0.58793803               -0.02198457
               8.01194615                0.99486422                1.98459968                1.00000000                0.27080322                0.33357134               -1.04538085               -0.02846402                0.33170740               -0.03010046
               9.01577349                0.99079924                1.97332305                1.00000000                0.44238119                0.39352933               -1.48139077               -0.03058347                0.16537680               -0.06007399
              10.02079378                0.98757803                1.96214381                1.00000000                0.50202836                0.54100526               -1.89697468               -0.01113425                0.12082138               -0.22284756
               0.01736804                2.00791658                2.02965565                1.00000000               -0.40839257               -0.35565288                1.53205932               -0.09916107                0.02098582                0.39620704
               1.01328412                2.00500521                2.01775518                1.00000000               -0.31746423               -0.25122118                0.99485821               -0.11156891                0.07451856                0.07231317
               2.01101876                2.00161991                2.00601261                0.22096402               -0.02114935               -0.15901839                0.44759098               -0.14919661                0.39160615               -0.30842636
               3.01286113                1.99686848                2.00053163                0.00010000                0.08561668               -0.15253817               -0.00472802                0.27087457                0.91910094               -0.49436350
               4.01273109                1.99775812                1.99971255                0.00010000               -0.01799222                0.07477146               -0.04577780                0.56551963                1.25470980               -0.20875292
               5.01250129                1.99850882                1.99847860                0.00010000                0.04975936               -0.00672776               -0.16789291                0.53220027                1.27437001               -0.18394878
               6.01372628                1.99936681                1.99713804                0.00010000                0.20802462               -0.07063827               -0.34818091                0.50404901                1.18791025               -0.09768739
               7.01666178                2.00048095                1.99249345                0.00010000                0.09637470                0.04275136               -0.42969194                0.29305749                1.02160166                0.17853079
               8.01565378                1.99807084                1.98745393                0.43760928                0.08458370                0.26209083               -0.89612949                0.15407210                0.80280644               -0.13985113
               9.01835345                1.99441871                1.97835001                1.00000000                0.36502176                0.28940395               -1.34992104               -0.13565777                0.43503676                0.15065872
              10.02295421                1.99270588                1.96593209                1.00000000                0.46007559                0.44395014               -1.67972071               -0.06984447                0.19287558               -0.25169553
               0.01870835                3.00498579                2.02824091                1.00000000               -0.39830573               -0.24921394                1.43313033               -0.09781692                0.04505066                0.32012073
               1.01472530                3.00295995                2.01482564                1.00000000               -0.27893736               -0.17442663                0.82521071               -0.10840075                0.09123290                0.03851759
               2.01312961                3.00035470                2.00124485                0.07564307                0.08024932               -0.10593798                0.15364366               -0.15910596                0.43460837               -0.28426828
               3.01633028                2.99586427                1.99450494                0.00010000                0.16490390                0.07260630               -0.37328660                0.13760665                1.40434029               -0.15438226
               4.01642768                2.99855841                1.99921366                0.00010000                0.00664241                0.04243617               -0.14402100                0.44656790                1.86103696               -0.19935156
               5.01646313                2.99869722                1.99834776                0.00010000                0.01964367                0.02871922               -0.19185197                0.38501934                1.63787363               -0.13904976
               6.01682056                2.99924036                1.99722755                0.00010000                0.05257111                0.01192811               -0.26521137                0.37347811                1.69196423               -0.06768428
               7.01751455                3.00013683                1.99695419                0.00010000                0.21346382               -0.01815981               -0.42999544                0.21385771                1.32028199                0.14759212
               8.02108983                3.00010604                1.98766546                0.29929919                0.04553702                0.20115230               -0.54800562                0.00504643                1.08077644                0.38209374
               9.01842529                2.99658732                1.98553129                1.00000000                0.08663586                0.19696922               -1.05977050               -0.20092450                0.75887062                0.19414411
              10.02282255                2.99645703                1.96906039                1.00000000                0.43972580                0.30047881               -1.51202251               -0.07580156               -0.02857084               -0.15015807
               0.01946338                4.00293230                2.02663468                1.00000000               -0.37161905               -0.17878813                1.33561937               -0.08421704                0.08415741                0.21729079
               1.01574719                4.00151667                2.01217777                1.00000000               -0.22655270               -0.12396338                0.67158974               -0.08056782                0.12930003               -0.00125965
               2.01493232                3.99950116                1.99739852                0.05723135                0.08311870               -0.07045228               -0.11223632                0.00736065                0.92811543               -0.29524204
               3.01740956                3.99832061                1.99837674                0.00010000                0.19485911                0.08956374               -0.24659456                0.14831055                1.84993911                0.05564867
               4.01882951                3.99860684                1.99817239                0.00010000                0.10550799                0.01154847               -0.22220061                0.29830905                1.93216995               -0.15859998
               5.01951972                3.99908321                1.99827412                0.00010000                0.04633638                0.03476193               -0.20024236                0.33371738                1.99818159               -0.09411735
               6.01975623                3.99960538                1.99808269                0.00010000                0.02767701                0.02950095               -0.20257270                0.32319149                2.00685511               -0.01639403
               7.02007326                4.00011776                1.99799361                0.00010000               -0.02260124                0.01740432               -0.18298863                0.32393111                2.03005107                0.06137648
               8.01930421                4.00209388                1.99924534                0.29182058               -0.10446467                0.14444296               -0.01445132               -0.24772328                1.36791668                0.86761774
               9.01798397                3.99835810                1.98961379                1.00000000                0.11972727                0.15951571               -0.77826173               -0.22237743                0.43624916                0.08824208
              10.02169875                3.99871546                1.97243937                1.00000000                0.37147865                0.19758916               -1.35977145               -0.07863102               -0.00101396               -0.06561162
               0.01985527                5.00141002                2.02473124                1.00000000               -0.33101828               -0.13599819                1.23075277               -0.07757981                0.12624610                0.12400667
               1.01654509                5.00048068                2.00951775                1.00000000               -0.16911911               -0.08426141                0.52560628               -0.06027174                0.14345852               -0.07111551
               2.01647289                4.99894566                1.99318436                0.09725935                0.18228599               -0.03178837               -0.39521473               -0.01250835                1.09567898               -0.35450989
               3.02019081                4.99765554                1.99609115                0.00010000                0.25791899               -0.01500659               -0.41866191                0.27652736                2.16771720               -0.65894786
               4.02163127                4.99878938                1.99747541                0.00010000                0.09740698                0.03568025               -0.29785623                0.35348858                2.23503758               -0.06556811
               5.02213895                4.99939245                1.99827033                0.00010000                0.03092841                0.03290126               -0.20489583                0.29409356                2.29249883               -0.05710735
               6.02224983                4.99983038                1.99887460                0.00010000               -0.03171390                0.02149596               -0.11452157                0.27703195                2.31569022                0.00786945
               7.02150467                5.00048491                2.00008345                0.00010000               -0.21774030                0.02429066                0.06682175                0.28919939                2.56687439                0.12393485
               8.01789503                5.00299490                2.00804683                0.30294241               -0.20742479                0.06595501                0.45438862               -0.17465763                1.50877784                0.75441717
               9.01735617                4.99977764                1.99270058                1.00000000                0.13200921                0.13226599               -0.54858893               -0.20532131                0.17606004                0.09387674
              10.02053521                5.00040882                1.97477168                1.00000000                0.31790411                0.16524781               -1.25749086               -0.06535886               -0.02012065               -0.10057281
               0.01977046                6.00021234                2.02261439                1.00000000               -0.27643445               -0.10864182                1.12044728               -0.07265859                0.10687136                0.03584238
               1.01700612                5.99983145                2.00630348                0.92498970               -0.11315830               -0.04275605                0.35470384               -0.04811075                0.10643467               -0.12840306
               2.01750730                5.99886539                1.98846295                0.17433372                0.30451354                0.03302100               -0.68059114               -0.01808300                0.75172163               -0.32417252
               3.02309639                5.99802047                1.98382954                0.00010000                0.33275355                0.17064032               -0.97289823                0.21942292                2.30222829               -0.90147737
               4.02416237                5.99932045                1.99704752                0.00010000                0.06321000                0.06955156               -0.42745628                0.29162540                2.93153650               -0.01652756
               5.02436059                5.99974123                1.99818592                0.00010000                0.00210237                0.04106869               -0.21319653                0.22910943                2.52466294               -0.02991542
               6.02420441                6.00003530                1.99967442                0.00010000               -0.08339267                0.01592630               -0.03127500                0.21967014                2.57359869                0.02376682
               7.02269273                6.00060357                2.00186263                0.00010000               -0.38430410               -0.00157304                0.29801583                0.27279093                3.02994853                0.11448755
               8.01651833                6.00341298                2.01604308                0.32793092               -0.31145572               -0.00376578                0.86690578               -0.11042093                1.61910111                0.70729426
               9.01646362                6.00100342                1.99515434                1.00000000                0.13054405                0.11375488               -0.33971815               -0.15483021               -0.11434055                0.16440734
              10.01912921                6.00202041                1.97551385                1.00000000                0.26655933                0.12566003               -1.22095824               -0.05098940               -0.13873557               -0.10276919
               0.01916388                6.99923719                2.02027747                1.00000000               -0.22340612               -0.09784938                1.00737195               -0.04808440                0.06599401               -0.05363108
               1.01692982                6.99962556                2.00316119                0.90821436               -0.06208423               -0.00249449                0.17255667               -0.01189965                0.06477669               -0.10828585
               2.01792220                6.99960608                1.98460088                0.27725248                0.35971917                0.11878875               -0.92889919                0.08941195                0.53127354               -0.17877062
               3.02412420                7.00106835                1.97530225                0.00010000                0.39104106                0.26787089               -1.35256711                0.11460098                2.36664707               -0.26503685
               4.02574302                7.00018041                1.99639151                0.00010000                0.09410415                0.11584545               -0.58174334                0.05192068                3.39145932                0.00720307
               5.02600629                7.00021383                1.99797732                0.00010000                0.00189391                0.05003428               -0.23943886                0.13596769                2.72178899               -0.01192093
               6.02578090                7.00014891                2.00032199                0.00010000               -0.12117448                0.00482097                0.03809733                0.15126543                2.79123765                0.02663843
               7.02358280                7.00045345                2.00337923                0.00010000               -0.52470667               -0.02602121                0.50074499                0.22039630                3.43673529                0.08414994
               8.01528676                7.00291958                2.02323612                0.37084735               -0.39653293               -0.11928607                1.24559843               -0.01094806                1.75490585                0.55541508
               9.01565214                7.00205273                1.99835130                1.00000000                0.10973354                0.07360661               -0.11743165               -0.06470321               -0.37774435                0.27129545
              10.01748143                7.00292202                1.97649624                1.00000000                0.18292955                0.06108843               -1.18152314               -0.04342486               -0.29691466                0.11399817
               0.01803202                7.99825535                2.01772413                1.00000000               -0.16327907               -0.12140634                0.89285274               -0.01358411                0.05733185               -0.13333385
               1.01639923                7.99978156                2.00080447                0.97949790               -0.00896384                0.02697754                0.02101430                0.04035593                0.04626306               -0.05589931
               2.01785275                8.00124116                1.98232219                0.41373711                0.42074218                0.18216542               -1.05230912                0.12477618                0.67595285                0.07573207
               3.02481408                8.00337789                1.97651186                0.00010000                0.41012778                0.21657824               -1.33587554               -0.05432705                2.31244111                0.31989290
               4.02605530                8.00163736                1.99550127                0.00010000                0.11486832                0.15994676               -0.74377121               -0.15171695                3.36799627                0.04723695
               5.02711144                8.00074192                1.99760460                0.00010000                0.04673985                0.05427373               -0.28074862                0.02385171                2.90114244                0.01216105
               6.02699010                8.00013171                2.00082982                0.00010000               -0.13907276               -0.00422960                0.09348705                0.07599818                2.97400487                0.02314779
               7.02432999                8.00008315                2.00452253                0.01662585               -0.61450051               -0.06482669                0.66459532                0.09984360                3.72300889                0.03992569
               8.01470009                8.00102726                2.02829626                0.44909557               -0.45814347               -0.18200282                1.53315650                0.08760184                1.91278629                0.23291836
               9.01516712                8.00247555                2.00239694                1.00000000                0.09110287               -0.01336064                0.12314988                0.06221878               -0.45509064                0.23794996
              10.01652215                8.00324218                1.98033788                1.00000000                0.13550282                0.03775533               -0.99634972               -0.02238751               -0.31763724                0.40253240
               0.01583979                8.99680906                2.01504175                1.00000000               -0.10886624               -0.16424176                0.79154241                0.00168231                0.05484113               -0.14963928
               1.01475113                9.00016511                1.99901301                1.00000000                0.04907975                0.04761971               -0.10480231                0.04718142                0.09470720               -0.02502988
               2.01682138                9.00324939                1.98287134                0.63285126                0.39451711                0.23788950               -1.05195350                0.04117351                0.68821665                0.21489480
               3.02264147                9.00539991                1.97778860                0.00010000                0.42616361                0.25501340               -1.28815958               -0.23064450                2.12183216                0.31219924
               4.02534466                9.00337934                1.99466466                0.00010000                0.26737474                0.19776494               -0.91718410               -0.19949634                3.35044744                0.10411279
               5.02798896                9.00129930                1.99715124                0.00010000                0.13074867                0.07109015               -0.32319503               -0.03952902                3.06884764                0.02929819
               6.02795963                9.00006432                2.00117513                0.00010000               -0.16524212               -0.00316261                0.13411629                0.01298801                3.14779848                0.01731168
               7.02468412                8.99915692                2.00559055                0.04662916               -0.66566161               -0.11108436                0.80670326                0.00642501                3.80497743               -0.00745915
               8.01464640                8.99927952                2.02969441                0.61050623               -0.50012629               -0.17663660                1.61442987                0.03182430                1.91681530                0.00706321
               9.01468160                9.00178552                2.00502262                1.00000000                0.04270119               -0.11664953                0.31176170                0.05853002               -0.33854367                0.06759506
              10.01550042                9.00367712                1.98616950                1.00000000                0.08188254                0.09315501               -0.73412917               -0.04040382               -0.09558778                0.37876618
               0.01135357                9.99497051                2.01307207                1.00000000               -0.04510293               -0.18385460                0.62491014                0.12772111               -0.03134972               -0.11465839
               1.01090254               10.00073395                1.99734140                1.00000000                0.10439253                0.05688361               -0.25141609                0.16656284                0.03681010                0.00228128
               2.01344142               10.00599895                1.98219335                0.88939177                0.45843466                0.27495660               -1.06298369                0.04921376                0.46674618                0.18746261
               3.02007123               10.00847816                1.97495415                0.37658328                0.63622863                0.30782455               -1.34210331               -0.27733877                1.94301028                0.16705701
               4.02616599               10.00559266                1.99352805                0.35224940                0.47823314                0.22133116               -1.02022748               -0.23358881                3.54260672                0.08661107
               5.02963589               10.00216372                1.99639793                0.37210805                0.16131284                0.08644166               -0.35604158               -0.11151683                3.24222657                0.04875150
               6.02939225               10.00006846                2.00123354                0.42589866               -0.21963057                0.00041470                0.15357855               -0.07185136                3.31877214                0.02946366
               7.02524328                9.99786146                2.00622434                0.53329330               -0.83421362               -0.12954574                0.89193730               -0.07278065                3.95090607               -0.00396999
               8.01270797                9.99749453                2.03169144                0.86324705               -0.66515808               -0.17849927                1.69099219               -0.07978743                1.83449998                0.01475700
               9.01194012               10.00014256                2.00590609                1.00000000               -0.03885551               -0.16429605                0.49030716                0.10638991               -0.40803454               -0.03064969
              10.01193086               10.00510528                1.98890609                1.00000000               -0.00092563                0.14281578               -0.48690290                0.13931643               -0.01532950                0.20707558
               0.02094682                0.02385164                3.05290646                1.00000000               -0.44726942               -0.50736015                1.73164545               -0.10995570               -0.21581374                0.25298667
               1.01647413                0.01616012                3.03787314                1.00000000               -0.36463494               -0.36361414                1.25957036               -0.09725608               -0.26053615               -0.00659288
               2.01365412                0.00818198                3.02200483                0.92653409               -0.19772326               -0.22393432                0.77339544               -0.08736996               -0.23344336               -0.12525973
               3.01251966                0.00033746                3.00737639                0.50366723                0.12424508               -0.08387254                0.30255839                0.12401192                0.18214451               -0.12809063
               4.01613903               -0.00329366                2.99962579                0.43648455                0.37342467               -0.13816071                0.09093339                0.11766357                0.78018943               -0.00985396
               5.01998816               -0.00328971                2.99543923                0.44922515                0.20870528               -0.00638337               -0.17977171                0.00223775                0.96720270                0.00617936
               6.02031313               -0.00331923                2.98987926                0.51480011               -0.02676531                0.17063293               -0.50120134                0.04327939                0.87750516                0.04158448
               7.01945285               -0.00614122                2.98264321                0.70635337                0.03660408                0.21952434               -0.72230233                0.07609896                0.53937970                0.03380068
               8.02104521               -0.01179155                2.96972649                1.00000000                0.26669121                0.32115467               -1.13247859               -0.02784549                0.10261718                0.15776410
               9.02478667               -0.01842111                2.95387173                1.00000000                0.44602519                0.43035815               -1.53158456               -0.09541768               -0.08164573                0.00226964
              10.02996572               -0.02481652                2.93757008                1.00000000                0.51790416                0.56536585               -1.92826907               -0.11289064               -0.10612547               -0.13889708
               0.02753879                1.01877804                3.04800612                1.00000000               -0.42023930               -0.47514067                1.63277373               -0.05414899               -0.01224547                0.34431855
               1.02333640                1.01252397                3.03270252                1.00000000               -0.34235189               -0.33812279                1.15178773               -0.04530439                0.02289963                0.00203287
               2.02069175                1.00594264                3.01795247                0.58691635               -0.19193984               -0.20561345                0.66988744               -0.02410146                0.16519014               -0.28752824
               3.01949760                0.99949873                3.00545447                0.00010000               -0.07812557               -0.05317794                0.21547846                0.10190646                0.62820456               -0.32056156
               4.01912924                0.99532473                3.00037693                0.00010000                0.02628595                0.00240272                0.04948821                0.41766510                1.08327737               -0.16254728
               5.02002332                0.99664646                2.99716370                0.00010000                0.15212184                0.00729120               -0.16884679                0.56316795                1.12664311               -0.14473323
               6.02217168                0.99838710                2.99248551                0.00010000                0.22133395                0.03659401               -0.43341369                0.45454107                1.01418873               -0.09051042
               7.02445000                0.99605403                2.98586208                0.22242177                0.23675125                0.23135934               -0.66626835                0.21684955                0.78687205                0.12295459
               8.02690670                0.99141999                2.97532250                1.00000000                0.29474897                0.28300873               -0.94232431                0.02701485                0.38291218                0.17298132
               9.03034498                0.98588247                2.95952268                1.00000000                0.41627554                0.39391895               -1.37435840               -0.04093024                0.09138338                0.04802503
              10.03523222                0.98083714                2.94342780                1.00000000                0.48872360                0.53935098               -1.83592295               -0.04817906                0.06085258               -0.17132948
               0.03237198                2.01434883                3.04506119                1.00000000               -0.39685303               -0.40026320                1.52572592               -0.08049797                0.03773220                0.44558071
               1.02840344                2.00939766                3.02778848                1.00000000               -0.30873185               -0.28136633                1.00107510               -0.07232193                0.06420760                0.01415508
               2.02619734                2.00406971                3.01075156                0.21464963               -0.16138747               -0.16867899                0.48319851               -0.01149770                0.37917598               -0.44856999
               3.02517570                1.99927390                2.99973984                0.00010000                0.05736303               -0.02636421                0.00644305                0.19654190                1.06741345               -0.52072701
               4.02734460                1.99675439                2.99912002                0.00010000                0.15067288                0.10917268               -0.08939853                0.60423919                1.56575797               -0.25103238
               5.02818915                1.99685612                2.99663663                0.00010000                0.13258929                0.03730331               -0.20952250                0.77647494                1.46723648               -0.22358042
               6.02999638                1.99741265                2.99302175                0.00010000                0.12838954               -0.03692865               -0.37706580                0.74557941                1.52866976               -0.12108264
               7.03075694                1.99848597                2.99140573                0.00010000                0.08803404                0.06410160               -0.24611686                0.42322563                1.14084070                0.01565172
               8.03175707                1.99386862                2.98140881                0.42621221                0.18969886                0.21007855               -0.68926105               -0.08507397                0.57503380                0.26762738
               9.03455092                1.98945727                2.96604373                1.00000000                0.36678634                0.31531873               -1.22822910               -0.05978203                0.22779170                0.20492087
              10.03909279                1.98597050                2.94878759                1.00000000                0.45418710                0.47936418               -1.69075848               -0.04885871                0.11898107               -0.20314492
               0.03583117                3.01077278                3.04250882                1.00000000               -0.36620917               -0.31645099                1.40933140               -0.08799347                0.05464717                0.41633954
               1.03216908                3.00689665                3.02305237                1.00000000               -0.26228037               -0.21722379                0.82694295               -0.07641016                0.07427228                0.00500502
               2.03058556                3.00256906                3.00347024                0.07875063               -0.07126613               -0.12072412                0.24903847                0.00122352                0.49906093               -0.41975579
               3.03074376                2.99897145                2.99256719                0.00010000                0.15231220                0.00986840               -0.13969116                0.33432615                1.59553775               -0.09966046
               4.03363181                2.99750819                2.99713139                0.00010000                0.20754060                0.08956246               -0.21877579                0.50451172                2.15412465               -0.23697261
               5.03489457                2.99739253                2.99616293                0.00010000                0.09108038                0.06588555               -0.23431894                0.60762059                1.90175300               -0.17279455
               6.03545341                2.99764852                2.99468934                0.00010000                0.07819851                0.02854822               -0.28341290                0.52731591                1.79336879               -0.05893466
               7.03645854                2.99733606                2.99131063                0.00010000               -0.06097438               -0.02395972               -0.42472053                0.35276799                1.74935615               -0.05451088
               8.03423393                2.99562157                2.98935523                0.30636648                0.02944593                0.14698704               -0.15726653               -0.00933709                1.00228773                0.49793867
               9.03704746                2.99218885                2.97468953                1.00000000                0.34973220                0.26203157               -1.07573978               -0.07405675                0.31380167                0.26017949
              10.04122857                2.99042443                2.95403980                1.00000000                0.41811142                0.39215555               -1.50319035               -0.03814094               -0.00846334               -0.18371609
               0.03836436                4.00801981                3.03990088                1.00000000               -0.32854015               -0.24812049                1.30002293               -0.07938772                0.07176343                0.34176634
               1.03507896                4.00505318                3.01853903                1.00000000               -0.21086767               -0.15532523                0.64548644               -0.05897802                0.09555185               -0.01879108
               2.03414701                4.00165523                2.99702919                0.02890322                0.09220632               -0.05553206                0.00426743                0.04165361                1.05896223               -0.36406924
               3.03692309                3.99947127                2.99519536                0.00010000                0.24333723                0.11886069               -0.29656791                0.29391985                2.14854083                0.07848595
               4.03901375                3.99854564                2.99556516                0.00010000                0.16390703                0.11514083               -0.27496812                0.39256165                2.27054367               -0.15447239
               5.04020123                3.99817383                2.99599756                0.00010000                0.07927074                0.07706758               -0.24473331                0.45648236                2.26967206               -0.11745373
               6.04059917                3.99798361                2.99593920                0.00010000               -0.01809833                0.04422773               -0.22025326                0.45151136                2.26374615               -0.04231916
               7.03983926                3.99800678                2.99629868                0.00010000               -0.19408163                0.05979139               -0.16881885                0.24222596                2.38158896                0.21411251
               8.03671754                3.99680836                2.99984936                0.30556118               -0.07861687                0.12661804               -0.05618179                0.03954046                1.37218829                0.54976863
               9.03826692                3.99469790                2.98138005                1.00000000                0.25706378                0.23017951               -0.84155399               -0.05113140                0.22409922                0.15580106
              10.04185881                3.99381362                2.95894907                1.00000000                0.35918877                0.29959696               -1.33978081               -0.05431934                0.00993617               -0.17397580
               0.04017667                5.00581037                3.03701787                1.00000000               -0.28225666               -0.20484249                1.19316069               -0.05929702                0.07333154                0.24645680
               1.03735410                5.00379014                3.01393913                0.95002723               -0.15880559               -0.10503836                0.46909624               -0.02946822                0.10726412               -0.05874777
               2.03700055                5.00145842                2.99092256                0.01080310                0.11888190                0.00798363               -0.19349603                0.11843631                1.28230585               -0.31276294
               3.03973174                5.00134866                2.99178554                0.00010000                0.28899616                0.16407883               -0.35585691               -0.02506304                2.51930109               -0.47870236
               4.04278048                4.99981100                2.99404922                0.00010000                0.24272554                0.11070455               -0.35045533                0.15429732                2.60008256               -0.14158320
               5.04458625                4.99893388                2.99590562                0.00010000                0.09351082                0.07576113               -0.25475278                0.32540848                2.61910009               -0.07819986
               6.04465069                4.99853308                2.99770408                0.00010000               -0.10539709                0.05099427               -0.12196235                0.34575038                2.69057503                0.00494857
               7.04247831                4.99853189                3.00130122                0.00010000               -0.31585407                0.04642121                0.06311730                0.21219265                2.93120864                0.21534227
               8.03833361                4.99815393                3.00918210                0.31584211               -0.17293649                0.10269085                0.03814307                0.05792209                1.64072680                0.45031458
               9.03901958                4.99679244                2.98694780                1.00000000                0.17885712                0.17549667               -0.59741706               -0.01618443                0.11471316                0.11814889
              10.04191075                4.99641637                2.96286985                1.00000000                0.28911782                0.22266619               -1.16000425               -0.04666095                0.00321453               -0.16300735
               0.04121887                6.00392296                3.03371987                1.00000000               -0.23773212               -0.17809958                1.07848279               -0.04542919                0.05716237                0.14893363
               1.03884155                6.00295242                3.00913012                0.81443772               -0.11308254               -0.06711039                0.31424319               -0.00916164                0.11856345               -0.08292627
               2.03895722                6.00181490                2.98528179                0.01403560               -0.03861548                0.04462064               -0.34111568                0.13415577                1.09884289               -0.24493427
               3.03806924                6.00275284                2.98067958                0.00010000                0.27786325                0.03380985               -0.07755537               -0.23290243                2.76202232               -0.67085323
               4.04451448                6.00075974                2.99145860                0.00010000                0.49590424                0.09478356               -0.52354766               -0.02335081                3.24130512               -0.18877167
               5.04798732                5.99968905                2.99573998                0.00010000                0.17008414                0.07044838               -0.27342793                0.21338107                2.97434881               -0.06525962
               6.04791617                5.99900350                2.99937037                0.00010000               -0.17625284                0.04126182               -0.02907881                0.25573274                3.07608359                0.01422011
               7.04446227                5.99893520                3.00593834                0.00989896               -0.41503690                0.02280343                0.28189725                0.16890440                3.39760457                0.19386163
               8.03961543                5.99886218                3.01737816                0.33319124               -0.23907354                0.03546640                0.13040679                0.07152835                1.86755717                0.38156602
               9.03968080                5.99820783                2.99205103                0.93920713                0.10311528                0.10029273               -0.34630095                0.02111442                0.04137264                0.11476562
              10.04167773                5.99826694                2.96675064                1.00000000                0.19969383                0.14082684               -0.90530946               -0.02441029                0.02275755               -0.10900484
               0.04120917                7.00224838                3.03013299                1.00000000               -0.19302417               -0.16240184                0.96321343               -0.04425731                0.03723983                0.06786651
               1.03927892                7.00244794                3.00449890                0.74879492               -0.06629610               -0.03551006                0.15186505               -0.01289475                0.12774918               -0.05677169
               2.03988324                7.00235083                2.98025905                0.03766576               -0.15750354                0.07126567               -0.53163772               -0.00321421                1.04679756               -0.11417148
               3.03612885                7.00202486                2.97307958                0.00010000                0.27470039                0.06317233                0.01510050               -0.25158226                2.98238737               -0.26262971
               4.04537725                7.00170667                2.98837200                0.00010000                0.72406269                0.09796003               -0.72342299                0.01366768                3.69865406               -0.22034154
               5.05061011                7.00034284                2.99521524                0.00010000                0.25709733                0.06914172               -0.31189968                0.12228573                3.32148359               -0.07136149
               6.05051920                6.99935831                3.00075908                0.00010000               -0.23061982                0.02933757                0.05239526                0.16840269                3.42595870                0.01283739
               7.04599771                6.99898796                3.01000253                0.02347196               -0.50138264               -0.01913030                0.48644565                0.10906909                3.82046602                0.15091730
               8.04049155                6.99886325                3.02490861                0.35742540               -0.29803030               -0.02959460                0.22596145                0.04754872                2.08334513                0.29580488
               9.04003710                6.99879829                2.99720999                0.89817304                0.04063962                0.03488046               -0.14142821                0.01781754               -0.01415958                0.11205704
              10.04130434                6.99923290                2.97110366                1.00000000                0.12672329                0.07846622               -0.66115923               -0.01695478                0.06327973               -0.01872312
               0.03993460                8.00067492                3.02645187                1.00000000               -0.14534025               -0.16298296                0.85764571               -0.04993746                0.05018630                0.01360375
               1.03848120                8.00224222                3.00068559                0.75455982               -0.03092951                0.00433144               -0.02380336               -0.03639749                0.19188931               -0.00186224
               2.03931601                8.00324021                2.97743714                0.09015490               -0.23997266                0.14599757               -0.74208765               -0.07058268                1.29577160                0.05280698
               3.03368175                8.00401629                2.97339252                0.00010000                0.35769188                0.31404636               -0.52700256               -0.26566909                3.05290933                0.03790548
               4.04646985                8.00271894                2.98512524                0.00010000                0.95498257                0.12229664               -0.92626191               -0.02429228                3.78901665               -0.22951997
               5.05278140                8.00107189                2.99439030                0.00010000                0.30846297                0.07207009               -0.35585631                0.06119391                3.66095877               -0.06338592
               6.05263911                7.99959025                3.00186817                0.00010000               -0.28213447                0.02829029                0.12062100                0.07733166                3.73685778                0.01255624
               7.04713871                7.99855259                3.01328275                0.03871973               -0.59415211               -0.04475188                0.67520807                0.01814741                4.13552131                0.10644218
               8.04075607                7.99827029                3.03064851                0.39098431               -0.37356054               -0.10971417                0.36662060               -0.04395791                2.26149446                0.07369527
               9.03966750                7.99890544                3.00239089                0.89232814               -0.01433259               -0.00322227                0.01077632               -0.02645162               -0.00852619                0.08315307
              10.04046942                7.99983626                2.97606040                0.97898136                0.08019175                0.09025298               -0.55846763               -0.04972850                0.08124891                0.05193286
               0.03707583                8.99898872                3.02276094                1.00000000               -0.10901473               -0.17566006                0.75821229               -0.04774443                0.09191115               -0.00813671
               1.03598568                9.00253456                2.99754025                0.81264410               -0.01891563                0.06426418               -0.20214318               -0.03660220                0.29685239                0.02390642
               2.03669752                9.00527078                2.97611390                0.17665994               -0.23244664                0.26187926               -1.03394266               -0.04050391                1.48020765                0.11318309
               3.03133675                9.00830578                2.97399059                0.00010000                0.55691461                0.32971833               -1.46952341               -0.29929106                2.97129346                0.02813569
               4.04783581                9.00415261                2.98169151                0.00010000                1.18129615                0.07484753               -1.07488453               -0.15315121                3.87312893               -0.16360051
               5.05496267                9.00178425                2.99353903                0.00010000                0.33746562                0.07176843               -0.39450433                0.01533091                3.99938325               -0.04069250
               6.05458512                8.99992412                3.00268179                0.00010000               -0.36410267                0.04326888                0.17955031                0.01562226                4.03035891                0.02041339
               7.04768062                8.99809292                3.01613029                0.04252192               -0.76627916                0.00104865                0.82171536               -0.08587583                4.23670514                0.07111941
               8.03925954                8.99666897                3.03224784                0.41759744               -0.48692615               -0.11291148                0.58380010               -0.14771380                2.34838410               -0.12263051
               9.03794210                8.99873385                3.00704254                0.95185256               -0.04057058               -0.05479493                0.21889047               -0.02803547                0.13069971                0.03840570
              10.03844813                9.00103796                2.98076059                0.96881237                0.05060304                0.13488771               -0.56638073               -0.06964860                0.06465937                0.03932271
               0.03188802                9.99716172                3.01901921                1.00000000               -0.04209249               -0.18269947                0.58171012                0.11779658                0.11386156               -0.00640540
               1.03146709               10.00352750                2.99419798                0.92876448                0.04233482                0.09929351               -0.39494424                0.11394491                0.34403093                0.05011816
               2.03273471               10.00847780                2.97367358                0.62090637               -0.13264974                0.32070197               -1.25016985               -0.04212252                1.52763292                0.15715973
               3.02881410               10.01061066                2.97177386                0.36502668                0.85968251                0.23048707               -1.61367741               -0.46536084                3.09000721                0.13386779
               4.04992836               10.00421589                2.97959462                0.35077291                1.42512030                0.00632790               -1.17354132               -0.19591460                4.07702185               -0.17295074
               5.05731650               10.00250725                2.99286979                0.37082725                0.33572595                0.07230074               -0.38974514                0.04737006                4.21440779               -0.02655367
               6.05664288               10.00045563                3.00307983                0.41822940               -0.43200810                0.05315057                0.23106362                0.00909183                4.23654069                0.03674853
               7.04867634                9.99857357                3.01786489                0.51057130               -0.97410098                0.04806496                0.92691383               -0.12260616                4.40689151                0.15241418
               8.03716086                9.99601206                3.03395356                0.70060540               -0.69692723               -0.06569126                0.73756957               -0.24806865                2.46436302               -0.20796671
               9.03473780                9.99780954                3.01085977                1.00000000               -0.13463266               -0.09243012                0.48809215                0.00566804                0.23750673                0.02491797
              10.03446821               10.00253402                2.98452410                0.99049429               -0.02695868                0.14960553               -0.41090710                0.07445566                0.06764372               -0.01065197
               0.03617528                0.03185577                4.07025732                1.00000000               -0.43628200               -0.50252826                1.72014439               -0.10489338               -0.23491079                0.27516766
               1.03181246                0.02175100                4.05048233                1.00000000               -0.35761014               -0.36413109                1.26281939               -0.08518542               -0.26273972               -0.01372463
               2.02902307                0.01143368                4.02998619                0.92101189               -0.19744185               -0.23959015                0.81372268               -0.06630881               -0.23471384               -0.15389357
               3.02786362                0.00141364                4.01073265                0.51661399                0.17641734               -0.12732835                0.37254715                0.17401189                0.30297834               -0.13861444
               4.03255142               -0.00374009                4.00098068                0.47437072                0.45081034               -0.19420988                0.16286375                0.09694366                1.00651142               -0.00822525
               5.03687983               -0.00497254                3.99382406                0.49659894                0.25635634               -0.02877501               -0.14884804               -0.01044515                1.06938627                0.00471098
               6.03767855               -0.00589355                3.98484855                0.55025974                0.01019800                0.15939800               -0.50652351                0.02278979                0.95940287                0.03292179
               7.03708379               -0.00975387                3.97472591                0.72745981                0.04428882                0.27322429               -0.80719537                0.08022008                0.61677073                0.01118922
               8.03856432               -0.01663733                3.95839856                1.00000000                0.25593213                0.32788525               -1.13700645               -0.00977836                0.13128005                0.20191792
               9.04220243               -0.02470838                3.93869866                1.00000000                0.43254686                0.42961121               -1.51054904               -0.06917176               -0.07635999                0.02095990
              10.04721526               -0.03260762                3.91835215                1.00000000                0.50128320                0.55415429               -1.90090958               -0.09139342               -0.12084475               -0.14965233
               0.04523111                1.02683048                4.06421661                1.00000000               -0.40594600               -0.47651369                1.59856492               -0.04743738               -0.00604174                0.38214605
               1.04117165                1.01810969                4.04411208                1.00000000               -0.33512199               -0.34062712                1.13575617               -0.03636322                0.04355239               -0.01240952
               2.03852867                1.00903777                4.02475491                0.57480927               -0.19905118               -0.21514628                0.69415266               -0.01707448                0.21456400               -0.35798397
               3.03719062                1.00014035                4.00808384                0.00010000               -0.09073605               -0.10362100                0.29741337                0.16286764                0.82701906               -0.41221804
               4.03671395                0.99431781                4.00122191                0.00010000                0.03307392               -0.01384436                0.12203588                0.45986964                1.35231947               -0.22726096
               5.03785210                0.99473971                3.99554436                0.00010000                0.17915812                0.00052621               -0.14728594                0.62235428                1.32543416               -0.16048668
               6.04029711                0.99570043                3.98795593                0.00010000                0.27028880                0.03174413               -0.46251044                0.50453490                1.16966491               -0.05356619
               7.04325788                0.99297838                3.97873618                0.23857386                0.28233426                0.25496539               -0.72635437                0.24744162                0.95651393                0.27267840
               8.04594380                0.98664152                3.96575319                1.00000000                0.31189882                0.30139959               -0.98217356                0.02807394                0.45353072                0.23895368
               9.04949586                0.97958774                3.94583588                1.00000000                0.41283871                0.40293279               -1.36831460               -0.01897590                0.09024661                0.06209456
              10.05420057                0.97293393                3.92542535                1.00000000                0.47047137                0.53193027               -1.77246650               -0.03383860                0.05205935               -0.17954038
               0.05266812                2.02232549                4.06017017                1.00000000               -0.37902137               -0.41787967                1.48842371               -0.06454893                0.04034200                0.49448922
               1.04887790                2.01493846                4.03777669                1.00000000               -0.30085970               -0.29000947                0.99369191               -0.05585319                0.07099450               -0.01683004
               2.04665092                2.00713075                4.01567658                0.23382793               -0.15184803               -0.16779090                0.50654977               -0.02649529                0.43802876               -0.57214592
               3.04584094                1.99934122                4.00066049                0.00010000                0.02492691               -0.08624070                0.13156237                0.31207644                1.42423222               -0.78018965
               4.04714946                1.99598302                3.99792458                0.00010000                0.10516738                0.15280040               -0.08187982                0.74486284                1.91737439               -0.38087209
               5.04794429                1.99503798                3.99428815                0.00010000                0.11905605                0.05703409               -0.22138455                0.89232253                1.78055278               -0.27651257
               6.04953058                1.99474133                3.98959673                0.00010000                0.15736201               -0.02781082               -0.36329131                0.87752923                1.85260670               -0.10915183
               7.05109153                1.99534544                3.98757111                0.00010000                0.14929308                0.05876383               -0.44346825                0.46136189                1.45835907                0.13478860
               8.05251644                1.98939066                3.97366871                0.43589017                0.22194893                0.24913703               -0.80884241               -0.00911341                0.59579232                0.43415834
               9.05553051                1.98335028                3.95378543                1.00000000                0.36648345                0.34334300               -1.22574828               -0.04193871                0.22096157                0.22952429
              10.05984611                1.97803099                3.93211692                1.00000000                0.43156034                0.48436529               -1.64161756               -0.04432059                0.11541257               -0.19389877
               0.05871420                3.01847289                4.05642754                1.00000000               -0.34648695               -0.35334572                1.37108174               -0.06862730                0.04793409                0.48695252
               1.05524933                3.01230950                4.03136449                1.00000000               -0.25590957               -0.23421829                0.83101409               -0.05694624                0.06194966               -0.02304875
               2.05359600                3.00568196                4.00622562                0.09531473               -0.03347203               -0.11816535                0.29426771               -0.05448210                0.58271762               -0.55103061
               3.05457989                2.99841554                3.99171111                0.00010000                0.11592172                0.06653817               -0.08263015                0.38476620                2.02084061               -0.39996839
               4.05591444                2.99737381                3.99483814                0.00010000                0.11801764                0.13082722               -0.19401670                0.68767814                2.57834913               -0.28401949
               5.05694024                2.99588039                3.99366138                0.00010000                0.08128996                0.09767286               -0.25028706                0.71826154                2.27290625               -0.20552832
               6.05754024                2.99514421                3.99155929                0.00010000                0.04477757                0.05014598               -0.31168062                0.67363588                2.16205887               -0.06815229
               7.05783579                2.99415365                3.98845978                0.00010000                0.01082244               -0.04680119               -0.34811215                0.45917003                2.05600065               -0.00987205
               8.05775669                2.99162426                3.98452013                0.30552951                0.10904820                0.19358587               -0.52083501                0.07255546                1.30370387                0.74349654
               9.06001675                2.98645460                3.96401650                1.00000000                0.30980271                0.29327811               -1.05924612               -0.05836500                0.23351792                0.29924121
              10.06395274                2.98262123                3.93899659                1.00000000                0.39359871                0.41874494               -1.48789953               -0.03767079               -0.01215376               -0.19003240
               0.06362235                4.01525858                4.05263514                1.00000000               -0.30924366               -0.29763616                1.25358181               -0.06218910                0.05686193                0.43526709
               1.06052991                4.01025409                4.02508750                1.00000000               -0.20835532               -0.17974309                0.66182033               -0.04773920                0.07204587               -0.02854972
               2.05945524                4.00476744                3.99748387                0.03644645                0.06572485               -0.06220791                0.07475869                0.05472405                1.18563964               -0.48485142
               3.06184441                4.00067198                3.99244538                0.00010000                0.19914656                0.20908652               -0.25940180                0.33512018                2.50840370               -0.01814465
               4.06343817                3.99859956                3.99267303                0.00010000                0.13473563                0.13452305               -0.26798102                0.49589269                2.74831939               -0.21846487
               5.06453912                3.99699144                3.99337945                0.00010000                0.06459330                0.11028224               -0.26176439                0.55352698                2.72191881               -0.15539189
               6.06473004                3.99574425                3.99367763                0.00010000               -0.03721188                0.06769856               -0.23821812                0.52717376                2.70948589               -0.01018060
               7.06379488                3.99440942                3.99461724                0.00010000               -0.15317154                0.04992232               -0.21245240                0.41665754                2.87178852                0.26448564
               8.06166661                3.99326238                3.99812171                0.30703345               -0.02143217                0.14240609               -0.24358285                0.10563586                1.63037808                0.77202199
               9.06336624                3.98921584                3.97278271                1.00000000                0.25464090                0.25075160               -0.85853587               -0.04552791                0.10813892                0.20484783
              10.06675942                3.98640589                3.94564376                1.00000000                0.33931862                0.33629352               -1.31503075               -0.04086224                0.00177057               -0.21242665
               0.06747938                5.01252017                4.04859445                1.00000000               -0.26937062               -0.25913433                1.14048418               -0.05700909                0.07021772                0.35946713
               1.06478568                5.00871464                4.01889967                0.94483297               -0.16033926               -0.13204705                0.50271128               -0.03984066                0.09133829               -0.05185388
               2.06427260                5.00443780                3.98931444                0.01501454                0.13322469               -0.00686157               -0.12955458                0.11810397                1.54603556               -0.43601833
               3.06745017                5.00259727                3.98897401                0.00010000                0.26201179                0.13186921               -0.24196463                0.29710486                3.09253405               -0.36866375
               4.06951283                5.00006428                3.99046630                0.00010000                0.17079588                0.13113373               -0.31983044                0.29893304                3.16353209               -0.28201849
               5.07086609                4.99808604                3.99317528                0.00010000                0.05764523                0.10674896               -0.26647179                0.39152918                3.18960481               -0.13483733
               6.07066574                4.99649819                3.99643535                0.00010000               -0.11076360                0.07602234               -0.15159061                0.39318770                3.26778399                0.03677729
               7.06865082                4.99515210                4.00134579                0.00693600               -0.28013799                0.06850377               -0.05411280                0.34081744                3.49184621                0.27830890
               8.06506298                4.99447238                4.00880969                0.31915089               -0.13440644                0.10277103               -0.07068490                0.12038531                1.88668085                0.58947928
               9.06596269                4.99146963                3.98075224                1.00000000                0.18462143                0.19103492               -0.63033717               -0.02864628                0.07197830                0.15250779
              10.06875541                4.98934710                3.95157160                1.00000000                0.27927195                0.26003089               -1.12321938               -0.04096657                0.00712221               -0.22280860
               0.07009322                6.01007589                4.04418405                1.00000000               -0.22777542               -0.23288216                1.03179434               -0.06139977                0.07019442                0.28278387
               1.06781547                6.00761315                4.01258834                0.80386445               -0.10792653               -0.08899907                0.34340376               -0.04363071                0.11829261               -0.08088609
               2.06793469                6.00463021                3.98164064                0.01744748                0.21722810                0.03647535               -0.34031299                0.08505401                1.72571806               -0.41512106
               3.07216003                6.00330937                3.98227844                0.00010000                0.29966892                0.02527725               -0.02706077                0.24004309                3.71523859               -0.53547045
               4.07392807                6.00122224                3.98657657                0.00010000                0.18878831                0.10213319               -0.37373465                0.19423315                3.77013616               -0.36960324
               5.07593579                5.99912642                3.99271736                0.00010000                0.07998311                0.10251249               -0.28262414                0.26126269                3.72054204               -0.14105315
               6.07552773                5.99726470                3.99909285                0.00010000               -0.16493804                0.07048332               -0.06478693                0.27500567                3.78671115                0.04122608
               7.07263703                5.99577949                4.00750057                0.01734004               -0.38854732                0.04876467                0.09500192                0.26224341                4.05384170                0.24273612
               8.06775678                5.99531780                4.01865122                0.33665679               -0.23592186                0.05464722                0.11262364                0.09701365                2.11979397                0.51792228
               9.06791860                5.99303654                3.98822832                0.94067071                0.12141816                0.12421948               -0.40430679               -0.02500437                0.03598790                0.13282796
              10.07018515                5.99160651                3.95740766                1.00000000                0.22665508                0.19453466               -0.94092522               -0.03278948                0.02439812               -0.18765426
               0.07117686                7.00786252                4.03954174                1.00000000               -0.18181238               -0.20882068                0.92448718               -0.06903211                0.04989660                0.22849899
               1.06935874                7.00693466                4.00619849                0.72855988               -0.04497000               -0.04550972                0.15879214               -0.06294669                0.12282323               -0.07006752
               2.07027746                7.00516731                3.97396812                0.04298162                0.31501329                0.09061195               -0.61200294               -0.03526433                1.88185629               -0.34427744
               3.07565901                7.00310282                3.97560426                0.00010000                0.36514884               -0.00421875               -0.04771216                0.14818838                4.24321513               -0.57662131
               4.07758044                7.00210694                3.98192305                0.00010000                0.21949361                0.12526016               -0.47809273                0.19716321                4.31924503               -0.38439471
               5.08004888                7.00013629                3.99173932                0.00010000                0.09661688                0.10119946               -0.31121720                0.17264013                4.24666864               -0.13937489
               6.07951278                6.99790785                4.00136990                0.00010000               -0.21031470                0.05977121                0.01578461                0.16490910                4.28139739                0.03377500
               7.07584259                6.99612739                4.01310814                0.02774011               -0.48832888                0.01523697                0.24724053                0.16402593                4.57014392                0.20529363
               8.06974620                6.99556533                4.02775535                0.35807596               -0.33343459               -0.00779285                0.29790149                0.04458397                2.34536887                0.43023836
               9.06917389                6.99395402                3.99552274                0.90039336                0.06067431                0.06347630               -0.19358167               -0.03307108                0.00693689                0.13853479
              10.07095969                6.99323780                3.96327305                1.00000000                0.17857947                0.15087029               -0.79239749               -0.04047463                0.02395010               -0.13049244
               0.07056831                8.00589948                4.03487705                1.00000000               -0.13165583               -0.18917722                0.81816660               -0.07252579                0.05411796                0.19965933
               1.06925175                8.00670296                4.00032841                0.72056892                0.02464685                0.00980942               -0.05668730               -0.07402801                0.15951924               -0.01911411
               2.07106124                8.00644245                3.96748044                0.09926324                0.44662057                0.20546487               -0.97767962               -0.18901193                1.85121076               -0.19127069
               3.07818416                8.00322499                3.96597181                0.00010000                0.48883084                0.22392358               -0.76376436               -0.09421449                4.58407992               -1.08282324
               4.08083786                8.00372744                3.97697603                0.00010000                0.27017613                0.17655054               -0.65043838                0.18018884                4.89075342               -0.28776922
               5.08358768                8.00115041                3.99048748                0.00010000                0.09984720                0.09348349               -0.34185441                0.08350775                4.73585331               -0.11485169
               6.08283481                7.99846012                4.00324224                0.00010000               -0.26638042                0.06765357                0.08818165                0.06982938                4.73403414                0.03048342
               7.07826008                7.99608423                4.01802669                0.03500640               -0.60064847               -0.00651136                0.40853726                0.03557066                5.01619751                0.15560230
               8.07082184                7.99516194                4.03562867                0.38162960               -0.43376841               -0.10217314                0.53378752               -0.04112680                2.57321417                0.26048182
               9.06958471                7.99430607                4.00261246                0.89442776               -0.00068686                0.00653693                0.00339147               -0.04645452                0.02554526                0.13387184
              10.07080810                7.99462391                3.96916853                0.97200637                0.12233920                0.13810441               -0.67995622               -0.04832495                0.01779704               -0.08773590
               0.06811939                9.00407898                4.03020600                1.00000000               -0.07841808               -0.17868120                0.70985422               -0.05956568                0.09232278                0.15193169
               1.06733521                9.00713085                3.99497015                0.76595722                0.09279030                0.08589440               -0.29370746               -0.04626696                0.24631189                0.00710861
               2.06997519                9.00927660                3.96219249                0.17702780                0.45772601                0.37901704               -1.37682411               -0.20963053                1.40184597               -0.07026323
               3.07648973                9.00758129                3.94839814                0.00010000                0.66418028                0.61819915               -1.96262410               -0.29362405                4.67045228               -0.89186263
               4.08325880                9.00563795                3.97316697                0.00010000                0.52483115                0.12999918               -0.79277402                0.00986510                5.76029681               -0.18356875
               5.08698635                9.00200596                3.98926115                0.00010000                0.13583727                0.09103516               -0.36482719                0.02370633                5.12804151               -0.06560156
               6.08597555                8.99926092                4.00476613                0.00010000               -0.35670850                0.07736129                0.15433242                0.01421844                5.13342152                0.03148142
               7.07985218                8.99599716                4.02202486                0.02937740               -0.76368575                0.06781582                0.53932887               -0.07458748                5.35754024                0.07688629
               8.07070183                8.99352187                4.04137041                0.39494136               -0.55346732               -0.26190982                0.93359434               -0.18669450                2.85391483                0.10440947
               9.06878283                8.99408476                4.00940043                0.94250762               -0.06721645               -0.06498023                0.22274687               -0.04934853                0.14175147                0.09438497
              10.06935750                8.99599988                3.97484189                0.95762264                0.05746669                0.13706608               -0.56450511               -0.05113842                0.01227192               -0.07743248
               0.06327326               10.00232585                4.02470627                1.00000000               -0.01444729               -0.17531254                0.53352240                0.12488637                0.19363419                0.12206211
               1.06312879               10.00842085                3.98944251                0.91263835                0.15724671                0.12899996               -0.51691210                0.16420483                0.37567919                0.01451422
               2.06641819               10.01402279                3.95718995                0.61905873                0.64107730                0.47461890               -1.60339315                0.00270629                1.50259032               -0.01179687
               3.07595033               10.01558897                3.94268060                0.35941694                1.00961510                0.80076859               -2.23296687               -0.43870790                4.90748044               -0.28558548
               4.08661050               10.00632742                3.97005722                0.35132752                0.72442522                0.06894739               -0.89199472               -0.29572347                6.11977863               -0.14335349
               5.09043884               10.00297111                3.98860303                0.37266682                0.12587349                0.09651568               -0.36208129                0.02924490                5.45184682               -0.03024458
               6.08912797               10.00000735                4.00585482                0.41960201               -0.39657266                0.07464262                0.21728909                0.03871378                5.43623270                0.03758698
               7.08250738                9.99744055                4.02476262                0.50793621               -1.00638057                0.14433828                0.65357405               -0.23865993                5.72388119                0.07278058
               8.06900035                9.98992375                4.04644284                0.69662441               -0.81938324               -0.35981202                1.22755870               -0.39185186                3.11756920               -0.04051939
               9.06611972                9.99300646                4.01566793                1.00000000               -0.15226388               -0.10782944                0.46232288                0.10576279                0.28381627                0.06734399
              10.06595508                9.99736523                3.98068795                0.98450020               -0.01646422                0.13653489               -0.36530491                0.09563457                0.07895174               -0.08008690
               0.05579859                0.04143641                5.08730935                1.00000000               -0.43081293               -0.49283037                1.68641668               -0.09818717               -0.26302240                0.31310309
               1.05149046                0.02862612                5.06312952                1.00000000               -0.35445326               -0.36446911                1.26370808               -0.07561895               -0.29056702               -0.01417013
               2.04870953                0.01556667                5.03827928                0.92680686               -0.19528584               -0.24740980                0.83960816               -0.05799078               -0.25331936               -0.18039027
               3.04758475                0.00286279                5.01482733                0.53125185                0.22341597               -0.15362669                0.43759494                0.22325993                0.39500366               -0.16619135
               4.05317785               -0.00394062                5.00288307                0.51196671                0.49616324               -0.22237638                0.20861689                0.07878133                1.12724957               -0.01696788
               5.05750801               -0.00663610                4.99246227                0.54391657                0.27107457               -0.03912664               -0.12916915               -0.01775071                1.07837237                0.00446085
               6.05859934               -0.00887557                4.97974879                0.58584855                0.03651227                0.14431622               -0.50628336                0.01228900                0.95619778                0.02957669
               7.05823826               -0.01393797                4.96649930                0.75116565                0.05493617                0.26003594               -0.82389543                0.07513154                0.63761371                0.02670443
               8.05969806               -0.02246246                4.94698636                1.00000000                0.25338128                0.33913833               -1.14855571                0.00103594                0.13117058                0.23842718
               9.06330588               -0.03227635                4.92366075                1.00000000                0.42718894                0.43139485               -1.50133761               -0.05748721               -0.10130828                0.02712153
              10.06824184               -0.04195596                4.89955189                1.00000000                0.49359583                0.54375267               -1.86161872               -0.08269718               -0.14729250               -0.17467468
               0.06762702                1.03650811                5.07997742                1.00000000               -0.39578713               -0.47043647                1.55304444               -0.04430872               -0.00509009                0.43276169
               1.06366915                1.02498143                5.05541765                1.00000000               -0.33078686               -0.34087360                1.12592876               -0.02945373                0.05341312               -0.01535054
               2.06101128                1.01309257                5.03183552                0.58910454               -0.20490779               -0.22052922                0.71852363               -0.01451583                0.25802569               -0.41189657
               3.05957099                1.00132653                5.01140274                0.00010000               -0.11480873               -0.14099843                0.34886500                0.22853203                0.99750197               -0.46815923
               4.05871510                0.99383561                5.00281765                0.00010000                0.01134930               -0.02693303                0.17996945                0.52663468                1.54140375               -0.29711642
               5.05979798                0.99297264                4.99421798                0.02545237                0.18290290               -0.00775282               -0.12402915                0.66760145                1.40646690               -0.18791634
               6.06237316                0.99256760                4.98323530                0.00959839                0.29925217                0.02509112               -0.46961215                0.54279846                1.24470710               -0.03299945
               7.06578302                0.98866239                4.97133499                0.25829875                0.32522250                0.26980551               -0.74445030                0.29876069                1.04973872                0.33428672
               8.06887761                0.98092892                4.95567903                1.00000000                0.33473681                0.31236601               -1.01824286                0.05678684                0.50827106                0.28917834
               9.07247776                0.97203759                4.93215638                1.00000000                0.41084280                0.40717486               -1.36463789               -0.01156446                0.08691127                0.07110462
              10.07709447                0.96348157                4.90797847                1.00000000                0.46167138                0.52386241               -1.72524300               -0.03079083                0.04669049               -0.20728528
               0.07796579                2.03202768                5.07482967                1.00000000               -0.36488585               -0.42306263                1.44281534               -0.05745781                0.04196398                0.55834393
               1.07431693                2.02180865                5.04766232                1.00000000               -0.29458390               -0.29282821                0.98354689               -0.04653780                0.07443188               -0.02855307
               2.07207411                2.01115608                5.02088256                0.25123329               -0.14522928               -0.16757085                0.53607639               -0.04419012                0.50496058               -0.66822064
               3.07141234                2.00004283                5.00237108                0.00010000               -0.00048385               -0.10696693                0.19108175                0.36708455                1.60657465               -0.90466285
               4.07206443                1.99552072                4.99748242                0.00010000                0.03578584                0.16218659               -0.00258856                0.88497179                2.20392897               -0.50443903
               5.07212806                1.99320885                4.99220894                0.00010000                0.08505606                0.06090095               -0.15983608                0.99695529                2.04818957               -0.33215022
               6.07376555                1.99162626                4.98575592                0.00010000                0.18620430               -0.01815081               -0.43217563                0.98861637                2.14476860               -0.07562754
               7.07585214                1.99145814                4.98253636                0.00010000                0.18465211                0.07150533               -0.52824308                0.54966483                1.64145359                0.21589143
               8.07745859                1.98378486                4.96523197                0.42719604                0.23348983                0.25547886               -0.85946594                0.01413374                0.63234759                0.54797212
               9.08052194                1.97586714                4.94152877                1.00000000                0.36397375                0.35694006               -1.22212628               -0.02499832                0.22244868                0.24937648
              10.08473807                1.96852129                4.91595524                1.00000000                0.42161281                0.48076842               -1.59731784               -0.03804284                0.12025944               -0.21995537
               0.08691594                3.02804686                5.06993046                1.00000000               -0.33059497               -0.37347225                1.32935636               -0.06064447                0.04150664                0.55912029
               1.08360999                3.01912486                5.03967265                1.00000000               -0.25113218               -0.24308167                0.82879348               -0.04757410                0.05299642               -0.03931908
               2.08189330                3.00974115                5.00935559                0.10166247               -0.05309716               -0.11433498                0.32918012               -0.07549311                0.63807986               -0.65965623
               3.08254805                2.99918719                4.99091459                0.00010000                0.06776121                0.09013243               -0.05449819                0.39139275                2.24155452               -0.49572015
               4.08324852                2.99707935                4.99325105                0.00010000                0.05417485                0.15137332               -0.13498288                0.79925536                2.97958235               -0.38124307
               5.08363154                2.99419066                4.99115719                0.00010000                0.03238372                0.11716245               -0.23720850                0.83160903                2.66033221               -0.25011865
               6.08389619                2.99220458                4.98845573                0.00010000                0.04930850                0.06388422               -0.32182844                0.78436963                2.52511428               -0.04372135
               7.08461771                2.99009250                4.98434838                0.00010000                0.04275459               -0.05238336               -0.43976068                0.54063624                2.41143505                0.02437697
               8.08475129                2.98603850                4.97893853                0.29584829                0.13118197                0.20871912               -0.60743353                0.13924649                1.36856764                0.88157093
               9.08724135                2.97917639                4.95350460                1.00000000                0.31370131                0.30959846               -1.04603372               -0.02779244                0.19011836                0.33222838
              10.09102531                2.97309694                4.92428181                1.00000000                0.37839594                0.42343893               -1.45374615               -0.03624305               -0.01249993               -0.20509125
               0.09459689                4.02455824                5.06497252                1.00000000               -0.29257390               -0.32980297                1.21513221               -0.05839112                0.04593767                0.52584015
               1.09167115                4.01694701                5.03177544                1.00000000               -0.20474851               -0.19363195                0.66960374               -0.04189835                0.05839955               -0.03755947
               2.09050192                4.00886938                4.99852437                0.03277426                0.01154272               -0.05799367                0.12401712                0.04260464                1.28422940               -0.58839818
               3.09190200                4.00184547                4.99000732                0.00010000                0.12720769                0.24775704               -0.21320377                0.37806510                2.86951817               -0.04139338
               4.09304607                3.99854818                4.99020554                0.00010000                0.08665014                0.15938716               -0.23257943                0.61539761                3.25657808               -0.27423730
               5.09363501                3.99555210                4.99076228                0.00010000                0.02525154                0.13542832               -0.25633840                0.65667546                3.20823674               -0.18177052
               6.09355110                3.99290394                4.99117484                0.00010000               -0.04020278                0.08244114               -0.26453156                0.63990202                3.19072187                0.00255540
               7.09283095                3.99041047                4.99204963                0.00010000               -0.11957383                0.05611160               -0.28970673                0.51892373                3.32445014                0.34713310
               8.09115963                3.98795924                4.99497770                0.29858556                0.00383497                0.16877513               -0.35441670                0.17790655                1.77287914                0.86154454
               9.09290765                3.98205911                4.96420933                1.00000000                0.25062471                0.26102911               -0.85436485               -0.02566447                0.05092103                0.24962284
              10.09617212                3.97699007                4.93264846                1.00000000                0.32644698                0.35496766               -1.28682921               -0.03744557                0.00009908               -0.22650435
               0.10097057                5.02145080                5.05982755                1.00000000               -0.25096950               -0.29634478                1.10457952               -0.05899298                0.06129277                0.47172792
               1.09846088                5.01525222                5.02399336                0.93220247               -0.15618238               -0.14555671                0.51067550               -0.03949273                0.08610454               -0.05339127
               2.09784693                5.00858128                4.98833147                0.00660646                0.09848353               -0.00052961               -0.07555519                0.10848362                1.79925987               -0.53514361
               3.10043055                5.00414233                4.98694624                0.00010000                0.20014629                0.17838527               -0.19806988                0.36109414                3.54110439               -0.29061370
               4.10184985                5.00026709                4.98765261                0.00010000                0.09893742                0.16813691               -0.26953305                0.45945515                3.67966981               -0.27743610
               5.10240930                4.99689922                4.99057618                0.00010000               -0.00069979                0.13759227               -0.25484963                0.49165969                3.77305140               -0.16033908
               6.10183586                4.99385340                4.99467227                0.00010000               -0.12342042                0.09947655               -0.19509323                0.48157915                3.86057317                0.05577165
               7.09994089                4.99121473                5.00021896                0.00261210               -0.25875379                0.08085514               -0.14536166                0.43551882                4.03082621                0.35304034
               8.09666078                4.98941400                5.00776841                0.31134224               -0.11218285                0.11578621               -0.13487439                0.16530893                2.10059677                0.66752664
               9.09769723                4.98439698                4.97434106                1.00000000                0.18768514                0.20173917               -0.64527577               -0.02406232                0.03555524                0.20256283
              10.10041448                4.98019629                4.94040546                1.00000000                0.27172509                0.29111652               -1.11133377               -0.03832352                0.00281561               -0.24872649
               0.10581418                6.01863134                5.05435576                1.00000000               -0.20633671               -0.26627211                0.99503783               -0.06339527                0.06611145                0.41442332
               1.10375081                6.01403588                5.01599819                0.79018505               -0.10163485               -0.09728531                0.33935434               -0.04622112                0.12551289               -0.08848676
               2.10378148                6.00885879                4.97847553                0.00746895                0.18436320                0.05220982               -0.29708544                0.08224860                2.11741056               -0.54061592
               3.10743808                6.00541318                4.98013837                0.00010000                0.28484000                0.13283636               -0.25912722                0.28299037                4.11001210               -0.47973469
               4.10947828                6.00191092                4.98398391                0.00010000                0.12219056                0.16761150               -0.27380287                0.33339999                4.29557133               -0.35816991
               5.10988189                5.99830394                4.99008750                0.00010000               -0.03055525                0.14430037               -0.24852845                0.33349425                4.38464310               -0.16924429
               6.10886718                5.99489347                4.99807463                0.00010000               -0.19505793                0.10155109               -0.12174066                0.33330555                4.50253769                0.05821762
               7.10598073                5.99202758                5.00783838                0.01218544               -0.37918108                0.06764893                0.00032700                0.32278687                4.67989884                0.31712324
               8.10128356                5.99027496                5.01963064                0.32847010               -0.21683089                0.05382830                0.08008469                0.11949298                2.41689097                0.59035086
               9.10164411                5.98609389                4.98396490                0.94355198                0.12617318                0.13939350               -0.43558830               -0.02508261                0.03931507                0.17469834
              10.10380702                5.98281240                4.94793214                1.00000000                0.21629084                0.23329486               -0.94458237               -0.03473779                0.01344698               -0.24333913
               0.10889360                7.01612536                5.04862273                1.00000000               -0.15845932               -0.23137471                0.87981725               -0.06688073                0.04729125                0.37728348
               1.10730901                7.01330652                5.00767474                0.71276553               -0.03895028               -0.04738012                0.14436044               -0.05912496                0.13046067               -0.09791258
               2.10811460                7.00962548                4.96801899                0.03240416                0.28646093                0.11658211               -0.57302977                0.02039413                2.37091468               -0.53464057
               3.11303823                7.00679906                4.97212534                0.00010000                0.37562478                0.20763858               -0.41735493                0.12117599                4.61097119               -0.71721571
               4.11562709                7.00361932                4.97881014                0.00010000                0.15292038                0.19043564               -0.33280554                0.16385698                4.89199259               -0.43517427
               5.11609663                6.99978523                4.98899089                0.00010000               -0.04243803                0.14745429               -0.25267219                0.18077372                5.02303784               -0.17074472
               6.11477833                6.99588442                5.00107477                0.00010000               -0.25407501                0.09551055               -0.04927296                0.18479394                5.12819070                0.05005469
               7.11101513                6.99256771                5.01494734                0.02017183               -0.48970042                0.03601738                0.15054864                0.18508177                5.29947871                0.27957658
               8.10498432                6.99049057                5.03086664                0.34818631               -0.31784960               -0.02050500                0.30536731                0.04840814                2.72959354                0.51434714
               9.10465814                6.98718485                4.99333836                0.90003918                0.06491965                0.08056476               -0.23001104               -0.03169682                0.04652230                0.16250341
              10.10628272                6.98486219                4.95525571                1.00000000                0.16245730                0.18501537               -0.79471206               -0.03695532                0.00903269               -0.22788296
               0.11011425                8.01400385                5.04281520                1.00000000               -0.10460514               -0.19636150                0.75650947               -0.06653806                0.04507884                0.36147619
               1.10906819                8.01308828                4.99955184                0.70038573                0.02912901                0.01280568               -0.07822024               -0.05984956                0.14453526               -0.07429048
               2.11069683                8.01119043                4.95788354                0.08411169                0.33997800                0.22652645               -0.92069278               -0.01652353                2.30133728               -0.45481384
               3.11586775                8.00956595                4.95811723                0.00010000                0.45362128                0.34803415               -0.67818630               -0.23688552                4.94470721               -1.33773617
               4.11976925                8.00571964                4.97211647                0.00010000                0.26822525                0.18903623               -0.48243644               -0.08806423                5.66971221               -0.44086201
               5.12123226                8.00125303                4.98755321                0.00010000                0.00056638                0.12857172               -0.27197093                0.04558754                5.66878242               -0.13895344
               6.11978058                7.99680368                5.00363181                0.00010000               -0.30780178                0.10283731                0.01955547                0.06032068                5.71709052                0.04281049
               7.11507622                7.99274792                5.02145349                0.02412063               -0.60729992                0.01635062                0.30699555                0.01365953                5.88640435                0.21793035
               8.10763458                7.98986486                5.04132426                0.36914372               -0.42188356               -0.12737832                0.57190448               -0.05323979                3.04774909                0.41510229
               9.10663855                7.98770519                5.00245872                0.89689417                0.00393249                0.01906156               -0.02700048               -0.03523238                0.07215834                0.15770888
              10.10771323                7.98651271                4.96246128                0.96966497                0.10746781                0.15538519               -0.65684631               -0.04285166                0.00697578               -0.22242658
               0.10939399                9.01219813                5.03695802                1.00000000               -0.04685573               -0.17007152                0.62763249               -0.05485095                0.06593365                0.29292448
               1.10892543                9.01356263                4.99166610                0.74026397                0.09562294                0.08923888               -0.32319124               -0.03066577                0.19658733               -0.05631178
               2.11130645                9.01415601                4.94857742                0.14323452                0.24229415                0.35282521               -1.28626310               -0.04756415                1.74462038               -0.29697816
               3.11377132                9.01375974                4.93473811                0.00010000                0.54361417                0.33840312               -0.99304502               -0.42636397                5.19996130               -1.08880105
               4.12217873                9.00740004                4.96583603                0.00010000                0.60765115                0.09243382               -0.67220502               -0.23854091                6.85674048               -0.32371798
               5.12592434                9.00235666                4.98624248                0.00010000                0.11555569                0.09827884               -0.29116616               -0.00676446                6.24057256               -0.07277351
               6.12448985                8.99794117                5.00576844                0.00010000               -0.38485977                0.11131575                0.08090408               -0.00172854                6.23254764                0.03103489
               7.11822714                8.99289472                5.02691687                0.02052491               -0.77637926                0.09028680                0.45808618               -0.12542232                6.43667765                0.11646999
               8.10896226                8.98794300                5.05091972                0.38423442               -0.54607470               -0.24040180                0.90835320               -0.21781442                3.40373312                0.26413402
               9.10730565                8.98756608                5.01149748                0.94537149               -0.05758076               -0.05418820                0.19215783               -0.02213231                0.12472003                0.13941065
              10.10781065                8.98796989                4.96947049                0.95653242                0.05049964                0.13637304               -0.51507229               -0.04491939               -0.00945119               -0.18941557
               0.10628822               10.01060242                5.02968966                1.00000000                0.02087803               -0.15957066                0.45051711                0.11648616                0.24228629                0.24058896
               1.10649700               10.01487305                4.98385974                0.89897624                0.16301069                0.13104226               -0.54628842                0.13938257                0.44061346               -0.05478827
               2.10954843               10.01824694                4.94160572                0.59198545                0.37997184                0.40909330               -1.48061154               -0.10275357                1.98256823               -0.22772270
               3.11409644               10.01633401                4.92711453                0.35660902                0.84265385                0.25742740               -1.20418776               -0.50141935                5.49327760               -0.61085769
               4.12640151               10.00756831                4.96175473                0.35154021                0.82297041                0.01682672               -0.74806430               -0.23349283                7.32289448               -0.26203893
               5.13055584               10.00321860                4.98562817                0.37388081                0.14032209                0.08619396               -0.29472169                0.03623477                6.66816993               -0.03636294
               6.12920795                9.99903000                5.00742562                0.42041460               -0.39949482                0.10888266                0.13463407                0.03856339                6.63869580                0.03665681
               7.12256595                9.99455366                5.03093637                0.50723004               -1.03005088                0.16589404                0.58100907               -0.26477806                6.91997285                0.07222701
               8.10860693                9.98505683                5.05850474                0.69485070               -0.81984676               -0.28861721                1.13214232               -0.43214445                3.80698130                0.21098364
               9.10616901                9.98662143                5.02010622                1.00000000               -0.12998603               -0.09446520                0.41509964                0.09550338                0.32127404                0.13096761
              10.10600721                9.98924017                4.97721800                0.98455492               -0.01617993                0.12702762               -0.32880160                0.08153100                0.09927367               -0.16073159
               0.07927448                0.05278169                6.10398565                1.00000000               -0.42432926               -0.48162902                1.64820126               -0.09159606               -0.30201094                0.35597213
               1.07503118                0.03689136                6.07575649                1.00000000               -0.35077976               -0.36214677                1.25825303               -0.06835315               -0.33274821               -0.01328103
               2.07225888                0.02071339                6.04677836                0.93993944               -0.19356374               -0.25168163                0.85454562               -0.05309646               -0.28415099               -0.19636721
               3.07115991                0.00493900                6.01948455                0.54709627                0.26012967               -0.17055842                0.48218481                0.26676276                0.45114158               -0.19751079
               4.07746147               -0.00394862                6.00515301                0.54779262                0.52108228               -0.22752587                0.23406472                0.05984310                1.17729339               -0.02056160
               5.08158155               -0.00839474                5.99124067                0.58861876                0.26520001               -0.03705408               -0.11762615               -0.01809757                1.04244380                0.00268972
               6.08276547               -0.01227504                5.97472288                0.61929210                0.05084692                0.13083517               -0.49549383                0.00605676                0.91885421                0.02332062
               7.08259849               -0.01889115                5.95824800                0.77282882                0.06304092                0.25182035               -0.82505127                0.07208932                0.62062050                0.02780610
               8.08402629               -0.02925413                5.93542744                1.00000000                0.25061228                0.34336099               -1.15788833                0.01284961                0.10227059                0.26445116
               9.08761074               -0.04115722                5.90867191                1.00000000                0.42304199                0.42990259               -1.49529399               -0.05261797               -0.13783554                0.03000087
              10.09248713               -0.05295428                5.88111978                1.00000000                0.48763946                0.53391496               -1.82993092               -0.07940006               -0.18307588               -0.20576254
               0.09424885                1.04796540                6.09527750                1.00000000               -0.38670449               -0.46211784                1.50880186               -0.04117014               -0.01023916                0.49002796
               1.09038180                1.03326989                6.06663066                1.00000000               -0.32723778               -0.33894824                1.11560503               -0.02431814                0.05528504               -0.01304410
               2.08770409                1.01819657                6.03912538                0.61431209               -0.21116327               -0.22335567                0.73547264               -0.01269920                0.28256893               -0.45288184
               3.08615854                1.00323342                6.01506114                0.00010000               -0.14886574               -0.16014467                0.37659794                0.28961061                1.13456487               -0.51817741
               4.08472678                0.99377612                6.00482129                0.03511585               -0.02973740               -0.02952730                0.20701869                0.59650043                1.68309312               -0.34784960
               5.08556379                0.99123472                5.99306378                0.07814112                0.16737341               -0.00747420               -0.11116532                0.71551077                1.43908548               -0.18233338
               6.08807425                0.98903331                5.97856369                0.04806297                0.31225689                0.01417005               -0.46104662                0.58626969                1.27978519               -0.06083050
               7.09180893                0.98362705                5.96384717                0.27928817                0.36067882                0.27705135               -0.74817032                0.34961199                1.10924247                0.39662140
               8.09528782                0.97417948                5.94538834                1.00000000                0.35628547                0.31723673               -1.03194303                0.08297246                0.53905298                0.32356960
               9.09893464                0.96314181                5.91854313                1.00000000                0.41011881                0.40734038               -1.35649724               -0.00745759                0.08478264                0.07425786
              10.10349020                0.95238486                5.89092049                1.00000000                0.45555612                0.51414164               -1.69121520               -0.03013334                0.04075135               -0.24240109
               0.10784209                2.04353933                6.08902648                1.00000000               -0.35284447               -0.42264763                1.39835549               -0.05213983                0.04028295                0.63120588
               1.10431365                2.03011239                6.05744762                1.00000000               -0.29003641               -0.29299436                0.97348595               -0.03953713                0.07761464               -0.02984518
               2.10204137                2.01624627                6.02639811                0.26653013               -0.14705413               -0.16747737                0.56432032               -0.04823539                0.55826962               -0.75098563
               3.10137257                2.00173611                6.00448213                0.00010000               -0.03255908               -0.11842584                0.22472614                0.42857691                1.77530361               -1.00650414
               4.10139018                1.99546084                5.99787281                0.00010000               -0.03689923                0.16248564                0.10534236                1.01281861                2.46463623               -0.62139135
               5.10063458                1.99145577                5.99109143                0.00010000                0.03541736                0.05449829               -0.00710078                1.09629716                2.17838578               -0.34796318
               6.10209853                1.98800836                5.98095321                0.00010000                0.19049881               -0.00912205               -0.56109939                1.09855939                2.29672810               -0.08244804
               7.10444456                1.98664988                5.97700625                0.00010000                0.20362273                0.07504328               -0.56097667                0.64275072                1.81124314                0.26602568
               8.10617099                1.97709061                5.95647939                0.41816987                0.24058230                0.26652294               -0.88063369                0.05118548                0.66632637                0.62364828
               9.10925620                1.96698959                5.92934291                1.00000000                0.36136826                0.36383969               -1.21304297               -0.01104287                0.23479640                0.26890128
              10.11339835                1.95732855                5.90017056                1.00000000                0.41421471                0.47206627               -1.56367810               -0.03319728                0.12686034               -0.25507583
               0.12005993                3.03951245                6.08301467                1.00000000               -0.31758134               -0.38305253                1.28834144               -0.05558620                0.03662265                0.63798797
               1.11688412                3.02741000                6.04794036                1.00000000               -0.24721336               -0.24650946                0.82352321               -0.04165115                0.04561590               -0.04450767
               2.11511567                3.01484702                6.01280922                0.10704052               -0.06843037               -0.11113366                0.35873335               -0.08392607                0.68550395               -0.75619719
               3.11551551                3.00086490                5.99062115                0.00010000                0.00739098                0.10381750               -0.00313521                0.41799211                2.50004170               -0.60888570
               4.11526349                2.99702584                5.99213848                0.00010000               -0.02866516                0.16262118               -0.08501908                0.89421870                3.33834357               -0.47989738
               5.11494221                2.99232468                5.98891721                0.00010000               -0.02060777                0.12406310               -0.21618354                0.94625030                2.99669453               -0.32391480
               6.11485133                2.98885087                5.98512272                0.00010000                0.03197418                0.07852312               -0.32711394                0.89809109                2.84217546                0.00340845
               7.11558169                2.98512792                5.97966457                0.00010000                0.05602436               -0.05841882               -0.48850689                0.63477686                2.65981797                0.04470408
               8.11597182                2.97950994                5.97237146                0.28678041                0.14470732                0.22863904               -0.67714599                0.20420949                1.48536957                1.01650645
               9.11847584                2.97041860                5.94309582                1.00000000                0.30882590                0.31911268               -1.03493750               -0.01130258                0.19190889                0.36902282
              10.12214834                2.96182619                5.90992166                1.00000000                0.36724963                0.42117979               -1.42208150               -0.03500123               -0.01280093               -0.22732848
               0.13093526                4.03587828                6.07693778                1.00000000               -0.27892101               -0.34704823                1.17738199               -0.05392278                0.03923920                0.61616849
               1.12814605                4.02518220                6.03847957                1.00000000               -0.20136583               -0.19929720                0.66870819               -0.03674759                0.04874330               -0.04069162
               2.12690794                4.01402360                5.99996421                0.03240977               -0.02962276               -0.05316315                0.15972924                0.04097492                1.37635421               -0.68109324
               3.12755360                4.00381246                5.98818131                0.00010000                0.04534170                0.28945243               -0.17736444                0.40626326                3.22488817               -0.04960611
               4.12781478                3.99871326                5.98802144                0.00010000                0.00904798                0.18556762               -0.20605522                0.71686891                3.73201248               -0.31597451
               5.12773455                3.99393703                5.98825268                0.00010000               -0.02788305                0.16146734               -0.24609534                0.76154064                3.67106633               -0.20684971
               6.12725712                3.98957882                5.98838699                0.00010000               -0.06267664                0.09314795               -0.28696054                0.74637790                3.63334439                0.01041315
               7.12648102                3.98548150                5.98882310                0.00010000               -0.11463124                0.06481209               -0.34135555                0.63370378                3.71907279                0.39948717
               8.12496449                3.98166339                5.99103337                0.29057395                0.01164412                0.18300210               -0.41114645                0.24356702                1.93114547                0.99612292
               9.12671390                3.97337184                5.95569541                1.00000000                0.24593287                0.26733585               -0.84757793               -0.01751753                0.02997610                0.29466512
              10.12988315                3.96575214                5.91990717                1.00000000                0.31692451                0.36313519               -1.26296079               -0.03524118               -0.00095555               -0.24216794
               0.14037364                5.03257148                6.07068604                1.00000000               -0.23697865               -0.31545515                1.06545493               -0.05497638                0.05952253                0.57612974
               1.13800385                5.02342406                6.02911318                0.91724323               -0.15343650               -0.15100846                0.51141976               -0.03639121                0.08534458               -0.05871856
               2.13730491                5.01378376                5.98780333                0.00256677                0.04736335                0.00533858               -0.03323427                0.12323377                2.01657832               -0.64070120
               3.13895112                5.00665395                5.98501261                0.00010000                0.10856906                0.23615591               -0.18553743                0.41258647                3.98414817               -0.26631745
               4.13947629                5.00073719                5.98507564                0.00010000                0.01781712                0.20940242               -0.25317767                0.54878298                4.17959124               -0.28171542
               5.13930746                4.99555403                5.98807828                0.00010000               -0.06209321                0.16948946               -0.24957701                0.58900075                4.32210192               -0.16608215
               6.13823442                4.99071383                5.99253348                0.00010000               -0.15681293                0.12238646               -0.22417683                0.57203099                4.40984940                0.07304603
               7.13617120                4.98642416                5.99843856                0.00010000               -0.26408050                0.09560392               -0.19763752                0.53270695                4.54098515                0.40991098
               8.13295281                4.98316998                6.00611220                0.30336842               -0.10672338                0.11815970               -0.18159871                0.21723754                2.32369843                0.77537614
               9.13403673                4.97576532                5.96784673                1.00000000                0.18650482                0.20806825               -0.64948979               -0.01957991                0.01809792                0.25206822
              10.13668291                4.96908889                5.92934492                1.00000000                0.26461769                0.30686648               -1.09807204               -0.03581973               -0.00031762               -0.27412981
               0.14813058                6.02956918                6.06408481                1.00000000               -0.19246334               -0.28113639                0.94920380               -0.05846254                0.06695677                0.52927822
               1.14620595                6.02216203                6.01937543                0.77500046               -0.09939280               -0.10006499                0.33664116               -0.04354824                0.13122277               -0.10766967
               2.14614273                6.01413037                5.97569893                0.00168862                0.13229734                0.06413623               -0.25785982                0.11568993                2.42719301               -0.68735877
               3.14885190                6.00853558                5.97709589                0.00010000                0.18738165                0.20628415               -0.30194421                0.34535506                4.70119562               -0.54978315
               4.14989036                6.00290131                5.98110051                0.00010000                0.03430174                0.22668509               -0.28959812                0.39348475                4.85759192               -0.38380712
               5.14953793                5.99732682                5.98774679                0.00010000               -0.10313767                0.18508279               -0.23693267                0.40313962                5.01690407               -0.17826006
               6.14782761                5.99202655                5.99665803                0.00010000               -0.24294628                0.13189718               -0.15199475                0.39762385                5.15503043                0.07827885
               7.14467900                5.98739358                6.00750711                0.00538491               -0.39297608                0.08398257               -0.05223251                0.39345601                5.30691026                0.37592823
               8.13996808                5.98402658                6.02025291                0.32017703               -0.21378041                0.04943304                0.04771387                0.15669346                2.71243069                0.70044946
               9.14040340                5.97753321                5.97951656                0.94515993                0.12757602                0.14724734               -0.44913854               -0.02292888                0.03153439                0.21930034
              10.14251960                5.97188947                5.93851601                1.00000000                0.21162079                0.25310514               -0.93563541               -0.03323728                0.01360827               -0.29001433
               0.15401868                7.02694875                6.05713809                1.00000000               -0.14469844               -0.23877327                0.82334348               -0.05929885                0.04723909                0.49637819
               1.15257169                7.02142276                6.00908570                0.69722919               -0.03867585               -0.04681223                0.14083061               -0.05070549                0.13334171               -0.13693829
               2.15324516                7.01506648                5.96250753                0.02439224                0.22577941                0.13286880               -0.52663043                0.08683737                2.76011899               -0.74179630
               3.15708728                7.01077963                5.96725717                0.00010000                0.26547879                0.26609584               -0.46616266                0.20989441                5.36565364               -0.84217009
               4.15855474                7.00527089                5.97526694                0.00010000                0.05788638                0.24915008               -0.34906923                0.16909124                5.58035321               -0.53307014
               5.15824501                6.99925568                5.98668588                0.00010000               -0.12172946                0.18964637               -0.23051730                0.19954737                5.76885126               -0.20499974
               6.15612015                6.99335177                6.00038444                0.00010000               -0.31023601                0.12980560               -0.07862496                0.21484270                5.89966768                0.06618568
               7.15204029                6.98810381                6.01611911                0.01258170               -0.50865475                0.05398670                0.09770802                0.22117871                6.05452045                0.34237094
               8.14594705                6.98415864                6.03386270                0.33982048               -0.31625119               -0.03078390                0.28616389                0.07049807                3.10146848                0.64626440
               9.14571527                6.97871027                5.99092252                0.89940936                0.06792909                0.08839604               -0.24926510               -0.02600920                0.04669499                0.19858840
              10.14730563                6.97415100                5.94737881                1.00000000                0.15903690                0.20355652               -0.78056245               -0.03478230                0.01286298               -0.30060969
               0.15799660                8.02479371                6.05000724                1.00000000               -0.09224893               -0.19428744                0.68667974               -0.05663121                0.04032333                0.48132057
               1.15707411                8.02122579                5.99876400                0.68124020                0.02629996                0.01369773               -0.07479628               -0.04650534                0.12864345               -0.13351253
               2.15852260                8.01678775                5.94906659                0.06717589                0.28856343                0.22741905               -0.84138097                0.05910686                2.83992330               -0.70292745
               3.16284538                8.01385749                5.95240808                0.00010000                0.31367675                0.30141711               -0.50581976               -0.13801890                5.96641441               -1.52977628
               4.16479613                8.00788431                5.96732730                0.00010000                0.13013093                0.21272219               -0.42499568               -0.12016216                6.51311005               -0.59101801
               5.16544800                8.00111975                5.98504806                0.00010000               -0.07598998                0.16099207               -0.24228214                0.01793695                6.57583486               -0.19470054
               6.16327633                7.99462266                6.00363335                0.00010000               -0.35761453                0.13680208               -0.00955255                0.05927634                6.62596582                0.05293376
               7.15829571                7.98847331                6.02416660                0.01662042               -0.62523709                0.03699381                0.25052434                0.00912025                6.79333065                0.28356888
               8.15077159                7.98341090                6.04706676                0.36108187               -0.42024224               -0.12672849                0.54767998               -0.04616759                3.49715916                0.58282675
               9.14989086                7.97930113                6.00207245                0.89829296                0.00854525                0.02575993               -0.04907003               -0.02195492                0.06300700                0.19158427
              10.15094250                7.97596060                5.95603160                0.96976332                0.10516353                0.16519273               -0.63201087               -0.03821175                0.00841441               -0.30671223
               0.16002190                9.02306301                6.04275865                1.00000000               -0.03743509               -0.15596803                0.54388481               -0.04751785                0.05294899                0.39437297
               1.15964755                9.02169671                5.98850632                0.71326041                0.08868439                0.08560059               -0.30543529               -0.02486254                0.17210907               -0.11780228
               2.16179559                9.01961486                5.93646723                0.10648089                0.17913939                0.33119987               -1.15813425               -0.02982805                2.46660080               -0.48924953
               3.16323034                9.01680798                5.92853724                0.00010000                0.35468222                0.23807466               -0.35482492               -0.36340169                6.60284852               -1.37557934
               4.16888924                9.00952533                5.95972287                0.00010000                0.43175270                0.06824738               -0.51656248               -0.22869192                7.87884121               -0.42317645
               5.17186540                9.00247553                5.98343783                0.00010000                0.05314389                0.11763662               -0.26088427               -0.03770844                7.31050229               -0.11434017
               6.16995211                8.99608781                6.00638421                0.00010000               -0.42154717                0.14017368                0.05070247               -0.01572452                7.28132090                0.03473523
               7.16343445                8.98884369                6.03118658                0.01634980               -0.78781154                0.11863863                0.39924365               -0.14658612                7.50585466                0.16778462
               8.15419588                8.98162407                6.05953748                0.37708829               -0.53539918               -0.22187559                0.81467851               -0.22098449                3.94069641                0.41346667
               9.15272647                8.97922546                6.01324359                0.94652231               -0.04867169               -0.04464056                0.15826417               -0.01140738                0.10626399                0.17601788
              10.15322245                8.97745485                5.96454044                0.95747860                0.04959815                0.13474894               -0.47967658               -0.03833603               -0.01416113               -0.25818079
               0.15977883               10.02167435                6.03371661                1.00000000                0.02461707               -0.13886524                0.36978961                0.10203706                0.28484934                0.32291353
               1.16002500               10.02293780                5.97851675                0.88453769                0.15179726                0.12410880               -0.51873255                0.12461407                0.50175424               -0.11123644
               2.16281477               10.02341174                5.92757772                0.56747742                0.28209381                0.37968793               -1.35072995               -0.11402254                2.78853048               -0.33286729
               3.16566687               10.01861899                5.91859685                0.35544336                0.58699853                0.18110120               -0.53581743               -0.46447102                7.10565326               -0.81256571
               4.17455474               10.00924926                5.95509593                0.35179559                0.62322367               -0.02760769               -0.55530897               -0.19077447                8.51709992               -0.25687848
               5.17813135               10.00347248                5.98270860                0.37457159                0.10194687                0.09969579               -0.27185746                0.03543924                7.84440487               -0.04631203
               6.17659368                9.99742614                6.00854750                0.42077205               -0.41518135                0.13383230                0.09788202                0.03283669                7.79359197                0.03831783
               7.16982772                9.99084608                6.03638280                0.50748992               -1.03117782                0.20023968                0.50871096               -0.28331023                8.10552592                0.11261544
               8.15597012                9.97897339                6.06908568                0.69323410               -0.79978922               -0.26506820                1.00258632               -0.44446422                4.45807092                0.29308028
               9.15383194                9.97840832                6.02396992                1.00000000               -0.11265619               -0.08171464                0.36138755                0.09465634                0.35623217                0.16574484
              10.15371700                9.97865558                5.97411191                0.98551523               -0.01149360                0.12007312               -0.30180556                0.07418160                0.12412790               -0.21021562
               0.10621670                0.06597217                7.12027337                1.00000000               -0.41739047               -0.47043198                1.61029355               -0.08607823               -0.34453479                0.40004786
               1.10204280                0.04661216                7.08829459                1.00000000               -0.34591265               -0.35827538                1.24694029               -0.06292852               -0.38469053               -0.01041993
               2.09929845                0.02694527                7.05537019                0.95562052               -0.19049395               -0.25300828                0.85962285               -0.04926493               -0.32706682               -0.20338611
               3.09823292                0.00775940                7.02447103                0.56288144                0.28345693               -0.17940027                0.50779229                0.30166203                0.47710293               -0.23256394
               4.10496759               -0.00368841                7.00756436                0.57992994                0.52770508               -0.21527547                0.24182005                0.04127779                1.18169216               -0.01768012
               5.10878702               -0.01022851                6.99010975                0.62779005                0.25007543               -0.02962693               -0.11036291               -0.01509103                0.98298227                0.00336947
               6.10996910               -0.01609077                6.96983891                0.64797067                0.05795418                0.12114262               -0.48205927                0.00405416                0.86168125                0.01525526
               7.10994610               -0.02458019                6.94999828                0.79051812                0.06752338                0.24167556               -0.82293854                0.06948952                0.57830571                0.02932199
               8.11131956               -0.03709522                6.92382859                1.00000000                0.24553669                0.34435920               -1.15780406                0.02238650                0.05987688                0.28209780
               9.11485684               -0.05141877                6.89375487                1.00000000                0.41825104                0.42705245               -1.48656593               -0.05042853               -0.17738237                0.03009670
              10.11968458               -0.06567263                6.86295327                1.00000000                0.48277474                0.52553959               -1.80646290               -0.07836779               -0.21873986               -0.23899237
               0.12471592                1.06126785                7.11015345                1.00000000               -0.37889595               -0.45287649                1.46877230               -0.03822097               -0.01813224                0.54920439
               1.12092696                1.04302941                7.07772975                1.00000000               -0.32418709               -0.33550653                1.10327582               -0.01989338                0.05104653               -0.00769727
               2.11823218                1.02441518                7.04654498                0.64256871               -0.21802920               -0.22463660                0.74463451               -0.00787297                0.29021190               -0.48134348
               3.11656638                1.00596540                7.01893470                0.00010000               -0.19289279               -0.17033374                0.39467970                0.34772236                1.23860041               -0.56565780
               4.11437432                0.99415883                7.00695803                0.07523790               -0.08645442               -0.02679425                0.21397195                0.66450429                1.78854303               -0.33931971
               5.11483729                0.98947522                6.99199468                0.12613987                0.14055759                0.03123315               -0.10496562                0.73950836                1.44843537               -0.07901256
               6.11718547                0.98512065                6.97401437                0.08313685                0.31529672               -0.02454810               -0.44897202                0.60887705                1.29637044               -0.17533602
               7.12114322                0.97783657                6.95637158                0.29868545                0.38886216                0.27707251               -0.74476126                0.39162227                1.14626324                0.44865779
               8.12496272                0.96634837                6.93504017                1.00000000                0.37490156                0.31849636               -1.03274369                0.10720468                0.55811386                0.35047202
               9.12864125                0.95285175                6.90502644                1.00000000                0.40960243                0.40556206               -1.34577715               -0.00478715                0.08343952                0.07533875
              10.13315477                0.93958277                6.87415417                1.00000000                0.45135125                0.50456157               -1.66558308               -0.03012992                0.03662528               -0.28048523
               0.14192915                2.05691464                7.10279678                1.00000000               -0.34315617               -0.41862675                1.35815020               -0.04720648                0.03763895                0.70817953
               1.13849759                2.03990203                7.06713204                1.00000000               -0.28620778               -0.29133246                0.96295046               -0.03306557                0.08144039               -0.02536523
               2.13620500                2.02245253                7.03216896                0.28268781               -0.15269383               -0.16820392                0.58611533               -0.04294465                0.59798044               -0.82314490
               3.13544371                2.00435273                7.00686561                0.00010000               -0.07285708               -0.13275526                0.24932172                0.49882056                1.97198267               -1.09848125
               4.13474786                1.99577570                6.99958927                0.00010000               -0.14141749                0.15869666                0.30791354                1.16942135                2.73505349               -0.69593058
               5.13261537                1.99039615                6.99206692                0.00010000               -0.04812844                0.05379422                0.14270726                1.16932358                2.03935032               -0.35192681
               6.13378529                1.98341826                6.97453394                0.00010000                0.19677337               -0.01408425               -0.63092425                1.16859939                2.23265062               -0.07995854
               7.13655083                1.98096126                6.97131683                0.00010000                0.23315904                0.06665819               -0.57757638                0.76392772                2.03490149                0.29763253
               8.13844847                1.96927470                6.94761929                0.41037762                0.24879316                0.27331370               -0.88518261                0.08979571                0.69748337                0.67911716
               9.14152670                1.95669247                6.91726791                1.00000000                0.35857480                0.36762961               -1.20105751                0.00159829                0.25168116                0.28742984
              10.14561996                1.94441860                6.88468168                1.00000000                0.40932681                0.46154955               -1.53745282               -0.02924495                0.13566784               -0.29329201
               0.15779700                3.05289531                7.09569728                1.00000000               -0.30692443               -0.38522001                1.24969180               -0.05080776                0.03259576                0.71982060
               1.15472775                3.03720276                7.05614312                1.00000000               -0.24372030               -0.24708360                0.81634633               -0.03611051                0.03933591               -0.04419210
               2.15292259                3.02105110                7.01653026                0.11471881               -0.07540659               -0.10995615                0.38278098               -0.08850971                0.73025469               -0.84609036
               3.15321962                3.00331030                6.99085188                0.00010000               -0.06016304                0.10545799                0.04249506                0.45902431                2.73568335               -0.73162737
               4.15171933                2.99733277                6.99155067                0.00010000               -0.13192113                0.17579163               -0.04230826                1.00539471                3.65061170               -0.61146121
               5.15058120                2.99055110                6.98683352                0.00010000               -0.08634891                0.09289394               -0.18432418                1.07908077                3.28598252               -0.47259192
               6.14999235                2.98483897                6.98191345                0.00010000               -0.00079293                0.11415869               -0.32477145                1.02404571                3.10229256                0.10569288
               7.15056534                2.97916973                6.97457824                0.00010000                0.05175352               -0.06675196               -0.51627837                0.74954351                2.85963156                0.04753431
               8.15102742                2.97181464                6.96539561                0.27752220                0.14819916                0.24331237               -0.71082428                0.27481875                1.60496122                1.13189466
               9.15352932                2.96020435                6.93280585                1.00000000                0.30450938                0.32545186               -1.02282214                0.00528946                0.21316238                0.40530963
              10.15711761                2.94881376                6.89584018                1.00000000                0.35882869                0.41524255               -1.39704311               -0.03358323               -0.01320266               -0.25293964
               0.17229810                4.04921024                7.08852016                1.00000000               -0.26785104               -0.35344702                1.13951186               -0.04950030                0.03423293                0.70353369
               1.16961959                4.03496036                7.04514960                1.00000000               -0.19854150               -0.20103821                0.66433747               -0.03170491                0.04127887               -0.04174826
               2.16832727                4.02025341                7.00171895                0.03581888               -0.06385238               -0.05092827                0.18870179                0.04289995                1.44215215               -0.76548160
               3.16834254                4.00646189                6.98646003                0.00010000               -0.03561620                0.32955495               -0.18214565                0.43298528                3.53726525               -0.08236965
               4.16761494                3.99929153                6.98608444                0.00010000               -0.08258811                0.21104703               -0.18302467                0.82244080                4.18549355               -0.36499778
               5.16669078                3.99225403                6.98584037                0.00010000               -0.09836857                0.17661845               -0.23477054                0.86111002                4.09514098               -0.23124750
               6.16564757                3.98570144                6.98543563                0.00010000               -0.10623747                0.11021571               -0.29713060                0.85262054                4.03144164                0.00003652
               7.16456603                3.97962622                6.98522252                0.00010000               -0.13686733                0.07796039               -0.37004189                0.75280242                4.08633827                0.45079317
               8.16291023                3.97414095                6.98675478                0.28236817                0.00336709                0.19436703               -0.43819939                0.31372244                2.09700454                1.12809271
               9.16463337                3.96320151                6.94725777                1.00000000                0.24096272                0.27064239               -0.83921570               -0.00601759                0.02376143                0.33673248
              10.16772948                3.95272345                6.90738924                1.00000000                0.30961100                0.36455502               -1.24194189               -0.03309935               -0.00145437               -0.26110414
               0.18530674                5.04582637                7.08113665                1.00000000               -0.22562604               -0.32226871                1.02486727               -0.05073844                0.05990649                0.66852592
               1.18305048                5.03318200                7.03422175                0.90272437               -0.15138387               -0.15251967                0.50920766               -0.03261364                0.08816396               -0.06758047
               2.18227906                5.02003254                6.98766679                0.00319403               -0.01046385                0.00770053                0.00371483                0.14985042                2.20578342               -0.74175960
               3.18284120                5.00990139                6.98323549                0.00010000                0.00484719                0.28555383               -0.16927664                0.46195156                4.39062002               -0.26140627
               4.18237601                5.00155371                6.98258906                0.00010000               -0.07238539                0.23759736               -0.24288956                0.62731772                4.66130264               -0.29730932
               5.18139349                4.99408347                6.98558464                0.00010000               -0.13517185                0.19385574               -0.24665511                0.67306239                4.83824942               -0.17616594
               6.17967257                4.98704328                6.99018873                0.00010000               -0.21058094                0.14533279               -0.23900624                0.66026807                4.91904738                0.08665715
               7.17718187                4.98072894                6.99626621                0.00010000               -0.29729927                0.11196839               -0.22714811                0.63083644                5.02728537                0.46397823
               8.17372658                4.97570198                7.00413643                0.29550375               -0.11777031                0.11962526               -0.20740526                0.27503779                2.54832324                0.88653640
               9.17482647                4.96561719                6.96135126                1.00000000                0.18425765                0.21013000               -0.64748846               -0.01093987                0.01007271                0.29711022
              10.17741174                4.95610486                6.91844402                1.00000000                0.25852673                0.31273876               -1.08114917               -0.03369422               -0.00164857               -0.29725379
               0.19657208                6.04276486                7.07333984                1.00000000               -0.18109306               -0.28479410                0.90270881               -0.05366837                0.06722949                0.62287773
               1.19476115                6.03190997                7.02273102                0.76112195               -0.09835995               -0.10014112                0.33424294               -0.04007582                0.13718890               -0.13333215
               2.19460488                6.02040742                6.97331834                0.00051044                0.06496289                0.06946779               -0.21844270                0.15647225                2.69793687               -0.82929102
               3.19606040                6.01217297                6.97409948                0.00010000                0.06871722                0.23710341               -0.28305937                0.41933723                5.24431639               -0.63395599
               4.19597922                6.00404348                6.97819195                0.00010000               -0.06989774                0.25887108               -0.28166150                0.46938064                5.44565780               -0.41759754
               5.19466245                5.99613114                6.98534885                0.00010000               -0.18858779                0.21502477               -0.23725600                0.47636404                5.62333046               -0.18972980
               6.19220747                5.98860809                6.99503474                0.00010000               -0.30691963                0.15947709               -0.16721138                0.47001652                5.76868659                0.09640352
               7.18852406                5.98186559                7.00679373                0.00010000               -0.43423709                0.10133484               -0.08168885                0.46853847                5.90832500                0.43443643
               8.18352272                5.97653346                7.02058492                0.31223412               -0.22561791                0.04500097                0.02140359                0.20111106                2.99912118                0.81442293
               9.18401170                5.96740411                6.97498213                0.94748275                0.12787735                0.14917619               -0.45338391               -0.01528841                0.02584043                0.26139850
              10.18608027                5.95897823                6.92921943                1.00000000                0.20685733                0.26147761               -0.92028644               -0.03180544                0.01262949               -0.32446287
               0.20594316                7.04013049                7.06508960                1.00000000               -0.13367567               -0.23775817                0.76947874               -0.05337612                0.04493956                0.58708213
               1.20460640                7.03117917                7.01049135                0.68334305               -0.03988249               -0.04562838                0.14140198               -0.04440120                0.13427039               -0.17945394
               2.20514551                7.02142189                6.95748639                0.01986353                0.14927417                0.13823825               -0.47570388                0.13553106                3.11725406               -0.92856266
               3.20759189                7.01464346                6.96280208                0.00010000                0.13299654                0.27586952               -0.41737357                0.30920759                6.07499971               -0.90502347
               4.20780544                7.00673113                6.97182876                0.00010000               -0.06178619                0.26999332               -0.32526733                0.25763788                6.30571857               -0.58680246
               5.20635616                6.99838397                6.98438055                0.00010000               -0.22334938                0.22379633               -0.22288694                0.26410793                6.48834746               -0.23390395
               6.20333845                6.99023282                6.99950227                0.00010000               -0.38644396                0.16272433               -0.09194294                0.26727767                6.62735915                0.07989173
               7.19862728                6.98275564                7.01690150                0.00691823               -0.55640837                0.07431228                0.06684934                0.26772706                6.77834385                0.40471725
               8.19221028                6.97660200                7.03658992                0.33199794               -0.32756769               -0.03434184                0.25583788                0.09971359                3.45138753                0.77089920
               9.19207593                6.96860072                6.98835306                0.89953443                0.07085529                0.09058497               -0.26029092               -0.01727177                0.04010341                0.23554222
              10.19362739                6.96133441                6.93964446                1.00000000                0.15514617                0.21193018               -0.76348475               -0.03248334                0.01235151               -0.34899669
               0.21340718                8.03800970                7.05654879                1.00000000               -0.08254669               -0.18771393                0.62642468               -0.05050657                0.03446095                0.56906295
               1.21258172                8.03099740                6.99805592                0.66446104                0.02220135                0.01373340               -0.06563641               -0.03924381                0.11736548               -0.19116460
               2.21385121                8.02317219                6.94105592                0.05398373                0.21768035                0.22189932               -0.76325022                0.10774992                3.37241769               -0.91886190
               3.21693532                8.01769036                6.94800084                0.00010000                0.17701334                0.27079638               -0.41975206                0.06259603                6.87154790               -1.37117076
               4.21739148                8.00944335                6.96361656                0.00010000               -0.02462058                0.22183783               -0.33246708               -0.00168802                7.32957953               -0.66486406
               5.21644291                8.00060707                6.98270757                0.00010000               -0.21050628                0.20126786               -0.21461688                0.07680543                7.41685981               -0.23462212
               6.21318135                7.99186258                7.00344076                0.00010000               -0.44667459                0.17444499               -0.02083546                0.08869122                7.48356688                0.06071535
               7.20750942                7.98335184                7.02646398                0.01199553               -0.67547192                0.06392918                0.21511798                0.02738643                7.65003990                0.34587411
               8.19967191                7.97584662                7.05227786                0.35349779               -0.42877819               -0.12042937                0.49497158               -0.03135652                3.91213520                0.71753339
               9.19893386                7.96921581                7.00147732                0.89848960                0.01456559                0.02941239               -0.06799202               -0.01388775                0.05122895                0.22693181
              10.19996322                7.96321683                6.94982106                0.97155309                0.10293685                0.16957770               -0.61191255               -0.03458188                0.00691995               -0.36252174
               0.21895762                9.03637621                7.04783572                1.00000000               -0.02985856               -0.14324682                0.47888023               -0.04334874                0.04059054                0.46848152
               1.21865904                9.03145384                6.98555739                0.69192909                0.08249644                0.08150399               -0.28364469               -0.02135330                0.15358698               -0.17490877
               2.22060755                9.02585988                6.92541474                0.08065913                0.19568033                0.30982104               -1.05489584               -0.00033606                3.35948514               -0.65358987
               3.22257264                9.02005939                6.92764161                0.00010000                0.21237066                0.11365612               -0.06936819               -0.14680174                7.77255748               -1.22944667
               4.22485497                9.01116788                6.95550478                0.00010000                0.14501967                0.11206298               -0.34823899               -0.12048925                8.64172692               -0.47207981
               5.22547304                9.00240932                6.98102480                0.00010000               -0.12437272                0.15718774               -0.21127734                0.00516527                8.28711017               -0.14310584
               6.22236751                8.99372172                7.00678249                0.00010000               -0.51410324                0.18036019                0.03940002               -0.00754334                8.26897156                0.03873110
               7.21519097                8.98403422                7.03490174                0.01486106               -0.83241647                0.15308499                0.35093857               -0.14497231                8.50664224                0.21302828
               8.20571918                8.97419341                7.06721329                0.37161007               -0.53815054               -0.20122972                0.72976659               -0.21679693                4.43140213                0.51304698
               9.20442796                8.96918897                7.01466276                0.94602847               -0.03927368               -0.03660779                0.12718278               -0.00669422                0.09262145                0.20878459
              10.20493371                8.96472596                6.95987696                0.95891568                0.05057457                0.13380437               -0.45866943               -0.03417217               -0.01762393               -0.30480656
               0.22238494               10.03514476                7.03708545                1.00000000                0.02860351               -0.12314481                0.31090156                0.09100388                0.30789682                0.38124948
               1.22267098               10.03262748                6.97348509                0.87390273                0.14269983                0.11736380               -0.48606554                0.11238637                0.54613405               -0.16101620
               2.22523894               10.02936861                6.91459112                0.55170195                0.30101532                0.35087260               -1.24376435               -0.17006129                3.79481085               -0.44185866
               3.22869129               10.01996348                6.91639818                0.35526316                0.36964093               -0.00959126               -0.11959121               -0.27233587                8.44959124               -0.83361026
               4.23263176               10.01168461                6.95064855                0.35212722                0.26505460                0.05167236               -0.37039110               -0.03295332                9.41346475               -0.22542379
               5.23399238               10.00375082                6.98019102                0.37503869               -0.06130847                0.13415011               -0.21791476                0.04119280                8.91393110               -0.05029485
               6.23140559                9.99546978                7.00938326                0.42116521               -0.49270475                0.17480609                0.08172574                0.03694338                8.88436074                0.04940514
               7.22413828                9.98641354                7.04111059                0.50842565               -1.06121816                0.23793167                0.44802121               -0.28765704                9.22147500                0.14495112
               8.21018123                9.97182202                7.07855646                0.69268535               -0.79354296               -0.23713900                0.90224541               -0.45028968                5.04365010                0.35826775
               9.20826742                9.96848365                7.02733397                1.00000000               -0.09877191               -0.07053141                0.31486232                0.08749079                0.38305714                0.19364552
              10.20820579                9.96589292                6.97118189                0.98646409               -0.00616353                0.11669552               -0.28994465                0.06813459                0.14215471               -0.24465243
               0.13634135                0.08102248                8.13619152                1.00000000               -0.41008042               -0.45963998                1.57490038               -0.08175862               -0.38788280                0.44303564
               1.13224055                0.05781263                8.10069529                1.00000000               -0.34001271               -0.35341416                1.23178621               -0.05925332               -0.44200549               -0.00595272
               2.12954110                0.03429610                8.06397081                0.97094628               -0.18663759               -0.25251656                0.85811879               -0.04638407               -0.37875167               -0.20358439
               3.12850780                0.01136039                8.02964039                0.57728383                0.29577480               -0.18347056                0.52195969                0.33168779                0.47803314               -0.26886097
               4.13545660               -0.00308955                8.00998942                0.60718830                0.52294250               -0.19456336                0.24120683                0.02522633                1.16213465               -0.00960797
               5.13896665               -0.01209721                7.98903342                0.66035261                0.23269873               -0.02055025               -0.10571833               -0.01061500                0.91769603                0.00615806
               6.14011057               -0.02032085                7.96508170                0.67133405                0.06041389                0.11524200               -0.47021455                0.00371191                0.79612012                0.00705440
               7.14017493               -0.03105132                7.94178923                0.80405289                0.06783346                0.23329805               -0.81752422                0.06762327                0.52396049                0.02925436
               8.14146724               -0.04603532                7.91227136                1.00000000                0.23817444                0.34335479               -1.15116292                0.03044498                0.01291815                0.29565041
               9.14493841               -0.06309843                7.87894059                1.00000000                0.41241460                0.42339685               -1.47488875               -0.04992951               -0.21602934                0.02893625
              10.14971553               -0.08013594                7.84499052                1.00000000                0.47771171                0.51826836               -1.78723797               -0.07857994               -0.25234662               -0.27174760
               0.15873362                1.07642608                8.12465295                1.00000000               -0.37224075               -0.44316955                1.43353106               -0.03560915               -0.02727539                0.60725265
               1.15501121                1.05427849                8.08869617                1.00000000               -0.32151180               -0.33104592                1.08941775               -0.01627159                0.04279807               -0.00037595
               2.15230338                1.03177093                8.05401807                0.67059580               -0.22468561               -0.22490014                0.74698149               -0.00132525                0.28640547               -0.49974829
               3.15051750                1.00952568                8.02295473                0.01762344               -0.24328619               -0.17555474                0.40640380                0.40390010                1.31623494               -0.61142566
               4.14743766                0.99496482                8.00910073                0.11118077               -0.15206732                0.00195616                0.21235470                0.68024740                1.87184486               -0.19685457
               5.14747615                0.98769729                7.99096447                0.16803451                0.10935449                0.08378006               -0.10184745                0.66885119                1.45312702                0.06751927
               6.14962475                0.98083157                7.96958425                0.11357944                0.31161213               -0.05845186               -0.43779203                0.54877189                1.30784046               -0.28511541
               7.15370839                0.97128166                7.94895195                0.31567616                0.40852476                0.27235933               -0.73829752                0.42244814                1.17389163                0.48887254
               8.15779524                0.95739823                7.92473346                1.00000000                0.38905161                0.31764186               -1.02595907                0.12781068                0.57269955                0.37320958
               9.16148943                0.94113554                7.89162758                1.00000000                0.40859991                0.40285992               -1.33324974               -0.00312271                0.08340657                0.07542236
              10.16596724                0.92504675                7.85760883                1.00000000                0.44778145                0.49563181               -1.64533681               -0.03044770                0.03416913               -0.31903050
               0.17992435                2.07215909                8.11618948                1.00000000               -0.33540834               -0.41203025                1.32278954               -0.04240942                0.03480404                0.78419977
               1.17657027                2.05119172                8.07670663                1.00000000               -0.28284751               -0.28849486                0.95164319               -0.02671713                0.08652162               -0.01800208
               2.17426740                2.02979809                8.03812041                0.29983930               -0.15891793               -0.16978527                0.60052555               -0.03169045                0.62742456               -0.88573483
               3.17339191                2.00784930                8.00946856                0.00010000               -0.16887329               -0.14438773                0.26800120                0.59213746                2.27344371               -1.18142261
               4.17088994                1.99694958                8.00403108                0.00010000               -0.34574935                0.16683125                0.55887923                1.32927641                2.92398935               -0.72674638
               5.16647692                1.98957839                7.99394557                0.00010000               -0.16941485                0.07010536                0.13578062                1.21917327                1.75556998               -0.40525882
               6.16750164                1.97851011                7.96833473                0.00010000                0.27901534               -0.03842687               -0.55144112                1.21725890                2.11326136               -0.02222057
               7.17205723                1.97439586                7.96545472                0.00010000                0.33339653                0.04456248               -0.59460328                0.86955885                2.24048708                0.31998128
               8.17416957                1.96031751                7.93877574                0.40712271                0.25851033                0.28070630               -0.88015977                0.13055478                0.73477948                0.71774395
               9.17722744                1.94495877                7.90532176                1.00000000                0.35572965                0.36996949               -1.18783367                0.01321376                0.27138139                0.30492548
              10.18128416                1.92977670                7.86942151                1.00000000                0.40567260                0.45065432               -1.51673848               -0.02578728                0.14571429               -0.33229624
               0.19982018                3.06818548                8.10800850                1.00000000               -0.29823173               -0.38247532                1.21446284               -0.04585443                0.02952409                0.79921118
               1.19683786                3.04850860                8.06426729                1.00000000               -0.24040947               -0.24615561                0.80810375               -0.03038453                0.03432625               -0.04154736
               2.19501199                3.02837523                8.02046484                0.12459913               -0.08145503               -0.11103280                0.40160684               -0.08487571                0.77036431               -0.93014099
               3.19520876                3.00663793                7.99147105                0.00010000               -0.13589533                0.09660805                0.07589629                0.52338607                2.94026570               -0.86830563
               4.19229409                2.99830145                7.99129232                0.00010000               -0.24548406                0.17126703               -0.01159560                1.18579213                3.95168303               -0.84718891
               5.19029908                2.98909940                7.98523073                0.00010000               -0.15708156                0.04912820               -0.13270942                1.27854208                3.52745314               -0.66766230
               6.18915245                2.98006303                7.97862729                0.00010000               -0.05034582                0.13970794               -0.33348537                1.20378328                3.30954431                0.20959617
               7.18929217                2.97217291                7.96933900                0.00010000                0.03454884               -0.07932344               -0.52512300                0.88903663                3.03927066                0.05726138
               8.18984343                2.96301235                7.95815497                0.26980001                0.15011742                0.25834511               -0.72650396                0.35308921                1.73018934                1.23616727
               9.19229452                2.94853493                7.92263938                1.00000000                0.29861019                0.33011557               -1.01051774                0.01873550                0.25025506                0.43951628
              10.19581564                2.93405983                7.88198080                1.00000000                0.35211204                0.40747572               -1.37683725               -0.03216186               -0.01298754               -0.27967323
               0.21836103                4.06450959                8.09972802                1.00000000               -0.25881997               -0.35315794                1.10349003               -0.04502873                0.03052177                0.78381928
               1.21577283                4.04626860                8.05176632                1.00000000               -0.19602384               -0.20087822                0.65855671               -0.02665076                0.03540417               -0.04238155
               2.21444055                4.02757744                8.00373825                0.04236070               -0.09197089               -0.05130228                0.21288477                0.04538456                1.47018455               -0.84148377
               3.21393341                4.00978146                7.98453839                0.00010000               -0.11481215                0.35742220               -0.20407558                0.47149801                3.81847980               -0.12671456
               4.21214431                4.00037492                7.98436095                0.00010000               -0.18236164                0.21910243               -0.16153882                0.94193040                4.62630101               -0.42084634
               5.21028618                3.99056096                7.98355727                0.00010000               -0.18202578                0.17114161               -0.22011369                0.95515220                4.48465617               -0.27179322
               6.20850380                3.98130427                7.98244438                0.00010000               -0.16987691                0.13924167               -0.29755279                0.95148934                4.39206702               -0.00760962
               7.20688864                3.97280940                7.98142226                0.00010000               -0.18172316                0.09798048               -0.38462638                0.88285940                4.42835662                0.50247532
               8.20486933                3.96548442                7.98226938                0.27487970               -0.01669890                0.20291106               -0.45475124                0.38712398                2.26682878                1.26543246
               9.20655466                3.95156108                7.93891110                1.00000000                0.23608933                0.27241191               -0.82984128                0.00389395                0.02804068                0.37530719
              10.20959112                3.93792622                7.89506834                1.00000000                0.30364546                0.36268989               -1.22337098               -0.03104748               -0.00156390               -0.27992882
               0.23540157                5.06112232                8.09118339                1.00000000               -0.21645756               -0.32179017                0.98590769               -0.04653991                0.06187790                0.74742919
               1.23323700                5.04449103                8.03929734                0.88839377               -0.14973707               -0.15214078                0.50554351               -0.02873731                0.09346363               -0.07865440
               2.23240683                5.02734918                7.98787763                0.00723325               -0.06978760                0.00737558                0.03618335                0.17938925                2.37004171               -0.83431452
               3.23184125                5.01378637                7.98162708                0.00010000               -0.10268199                0.32542058               -0.15617630                0.51327573                4.75839073               -0.23538430
               4.23035319                5.00268349                7.98021785                0.00010000               -0.16842349                0.24673693               -0.22999059                0.70728473                5.11494410               -0.31509874
               5.22847278                4.99252223                7.98314518                0.00010000               -0.22096935                0.20876824               -0.23805775                0.75199678                5.32219256               -0.18692284
               6.22593380                4.98284786                7.98775336                0.00010000               -0.28517841                0.16684060               -0.24301950                0.74314741                5.39399700                0.09999843
               7.22276921                4.97413252                7.99389560                0.00010000               -0.35497898                0.13188102               -0.24143573                0.73146967                5.48960673                0.51941320
               8.21883422                4.96707057                8.00196410                0.28839488               -0.14193056                0.11885695               -0.22306975                0.33717140                2.77116516                0.99778222
               9.21993060                4.95398317                7.95489696                1.00000000                0.18150979                0.20991512               -0.64256147               -0.00129574                0.00821615                0.33909913
              10.22246442                4.94131363                7.90772194                1.00000000                0.25338245                0.31367800               -1.06425429               -0.03163028               -0.00186651               -0.31547957
               0.25069281                6.05807378                8.08213898                1.00000000               -0.17215865               -0.28204410                0.85925199               -0.04917953                0.06748100                0.69739238
               1.24897122                6.04322579                8.02606029                0.74822548               -0.09799071               -0.09911266                0.33174414               -0.03627555                0.14288170               -0.16156196
               2.24873300                6.02772495                7.97133007                0.00247312               -0.00533046                0.07042308               -0.18097400                0.19683793                2.94451349               -0.95912244
               3.24886462                6.01628987                7.97143470                0.00010000               -0.05894237                0.24957162               -0.24937356                0.49941821                5.74898120               -0.69450913
               4.24755415                6.00530966                7.97546728                0.00010000               -0.18514343                0.27133667               -0.26020130                0.55919540                5.99567974               -0.43517230
               5.24516175                5.99473632                7.98300167                0.00010000               -0.28988464                0.23483287               -0.22794288                0.55985482                6.19716639               -0.19177302
               6.24175646                5.98464108                7.99331381                0.00010000               -0.39332096                0.18478617               -0.17148453                0.54616331                6.34506358                0.11802150
               7.23729533                5.97544702                8.00587333                0.00010000               -0.49971734                0.11976944               -0.09712835                0.54853930                6.48131181                0.49314329
               8.23176211                5.96786156                8.02068098                0.30517329               -0.25048186                0.04065538                0.00001237                0.25006946                3.27711583                0.92420468
               9.23228569                5.95575938                7.97044888                0.95052285                0.12677389                0.14713749               -0.45099588               -0.00647954                0.02267746                0.30120423
              10.23429759                5.94419978                7.92011028                1.00000000                0.20118971                0.26279003               -0.89831032               -0.03068947                0.01256747               -0.34739157
               0.26411397                7.05548144                8.07252766                1.00000000               -0.12536532               -0.23224627                0.72143661               -0.04832798                0.04274577                0.65568418
               1.26286032                7.04250878                8.01191374                0.67090975               -0.04172310               -0.04446673                0.14364924               -0.03903664                0.13472775               -0.22149101
               2.26327951                7.02875764                7.95299345                0.01807318                0.06922922                0.13786035               -0.42479605                0.17810296                3.45012403               -1.09132610
               3.26424490                7.01877781                7.95890969                0.00010000               -0.00944332                0.26523417               -0.36578863                0.41018358                6.73795270               -0.93001954
               4.26309064                7.00811023                7.96876159                0.00010000               -0.19532283                0.28006726               -0.28923471                0.37839649                6.97520801               -0.59255981
               5.26033845                6.99721889                7.98222814                0.00010000               -0.34721329                0.25233679               -0.20479468                0.36163036                7.16148094               -0.23657950
               6.25614638                6.98654359                7.99854558                0.00010000               -0.49094639                0.19578339               -0.09376161                0.33719100                7.30674579                0.10116004
               7.25051952                6.97652791                8.01745610                0.00282438               -0.63115662                0.09717691                0.04869617                0.32520807                7.46328322                0.46458852
               8.24352325                6.96788368                8.03897946                0.32497883               -0.35283663               -0.03616794                0.22357009                0.13184288                3.78412876                0.88371774
               9.24346279                6.95692592                7.98571670                0.90042341                0.07233026                0.08853397               -0.26340867               -0.01138470                0.03371386                0.27037054
              10.24496985                6.94656943                7.93210912                1.00000000                0.15070646                0.21389504               -0.74137840               -0.03085746                0.01259714               -0.38215897
               0.27567157                8.05342886                8.06253573                1.00000000               -0.07572848               -0.17927318                0.57548881               -0.04542089                0.03013059                0.63382436
               1.27491429                8.04233645                7.99745127                0.65044216                0.01772279                0.01302924               -0.05467526               -0.03333728                0.10772919               -0.24445962
               2.27602603                8.03048216                7.93380158                0.04505176                0.14007075                0.21251146               -0.69082579                0.14398327                3.85767153               -1.10050833
               3.27771570                8.02159455                7.94401304                0.00010000                0.03274849                0.25219489               -0.39036178                0.23876923                7.72350105               -1.16615759
               4.27668100                8.01091100                7.96067796                0.00010000               -0.18773540                0.24707594               -0.27689828                0.17192267                8.06352332               -0.63996294
               5.27396099                7.99978306                7.98075572                0.00010000               -0.37448699                0.24555338               -0.17840534                0.18185969                8.17328198               -0.23885273
               6.26919126                7.98855675                8.00321664                0.00010000               -0.57507990                0.21881738               -0.01855038                0.14578602                8.27167657                0.07721383
               7.26245940                7.97739055                8.02846896                0.00913034               -0.75951512                0.09648683                0.19097450                0.05992115                8.45278989                0.40032444
               8.25400096                7.96713820                8.05696620                0.34700297               -0.45435762               -0.11386318                0.44678980               -0.01604148                4.30086613                0.82833941
               9.25337224                7.95753006                8.00071261                0.89825489                0.01962274                0.03092900               -0.08324036               -0.01040377                0.03978731                0.25947760
              10.25439341                7.94847768                7.94379335                0.97438259                0.10211666                0.17142301               -0.59592054               -0.03165271                0.00579132               -0.40252094
               0.28539036                9.05189597                8.05233625                1.00000000               -0.02500888               -0.13144939                0.42663447               -0.03936511                0.03103307                0.52317650
               1.28514027                9.04276936                7.98283343                0.67542366                0.07553576                0.07628158               -0.26046318               -0.01801880                0.13693725               -0.22594239
               2.28690108                9.03300787                7.91536931                0.06292060                0.17255847                0.28698240               -0.95734603                0.04121080                4.18310483               -0.79091880
               3.28859144                9.02382170                7.92714987                0.00010000                0.07197555                0.14195494               -0.13814026                0.04647213                8.75981082               -0.96205728
               4.28834059                9.01305175                7.95275809                0.00010000               -0.11307752                0.17711250               -0.25100734                0.03292258                9.25883726               -0.43768380
               5.28632989                9.00212996                7.97921228                0.00010000               -0.34429928                0.21755424               -0.15823674                0.07912289                9.12446994               -0.14955617
               6.28145460                8.99091994                8.00717221                0.00010000               -0.65966993                0.23279788                0.04423126                0.02488784                9.16564532                0.04884035
               7.27313649                8.97845764                8.03820535                0.01461573               -0.91958484                0.19684279                0.31737601               -0.13444493                9.43148524                0.24782506
               8.26306291                8.96560642                8.07413281                0.36779940               -0.56106310               -0.18428936                0.66076595               -0.21471805                4.88498141                0.58989290
               9.26191523                8.95754450                8.01578724                0.94465280               -0.03106666               -0.02956340                0.09944448               -0.00565565                0.08070099                0.23721794
              10.26244157                8.94999789                7.95536706                0.96045534                0.05263411                0.13374997               -0.44686557               -0.03111756               -0.02064837               -0.33851853
               0.29313749               10.05079987                8.03993465                1.00000000                0.03045204               -0.10961046                0.26404188                0.08093458                0.32484854                0.42548114
               1.29344201               10.04386209                7.96879543                0.86595532                0.13302045                0.10927224               -0.45153431                0.10127074                0.57835718               -0.20503558
               2.29579790               10.03622181                7.90270243                0.54110446                0.25796283                0.32139333               -1.13688297               -0.08173930                4.78999207               -0.53106062
               3.29860127               10.02443365                7.91620502                0.35563708                0.16166476                0.06119462               -0.10529877               -0.08744499                9.52879754               -0.56070746
               4.29903120               10.01445325                7.94768811                0.35248157               -0.04630036                0.14015055               -0.27102771                0.05408557               10.08182028               -0.19932804
               5.29767526               10.00413414                7.97835030                0.37536588               -0.28349354                0.20041888               -0.15905176                0.07250976                9.83437016               -0.04209484
               6.29336133                9.99321271                8.01018201                0.42152758               -0.62956237                0.22927720                0.08502561                0.05033564                9.87386441                0.06190015
               7.28508402                9.98132741                8.04534322                0.50952942               -1.13707938                0.28697671                0.40819636               -0.29326271               10.25155797                0.17248830
               8.27061974                9.96345241                8.08713059                0.69271081               -0.81081807               -0.21540067                0.82024393               -0.46374748                5.57700719                0.40150143
               9.26886765                9.95693880                8.03026717                1.00000000               -0.08777343               -0.06057026                0.27421350                0.08025547                0.40453532                0.21684542
              10.26886427                9.95115268                7.96831302                0.98711796               -0.00033838                0.11547823               -0.28735335                0.06365762                0.15586434               -0.27030731
               0.16945150                0.09791004                9.15177138                1.00000000               -0.40281053               -0.44950956                1.54292030               -0.07862280               -0.43023582                0.48362560
               1.16542340                0.07049135                9.11293031                1.00000000               -0.33365940               -0.34808016                1.21478187               -0.05710983               -0.50109852               -0.00024251
               2.16277832                0.04277905                9.07253257                0.98464066               -0.18242112               -0.25084365                0.85275503               -0.04455060               -0.43462234               -0.19970272
               3.16177498                0.01575351                9.03491022                0.58955569                0.30194703               -0.18447920                0.52897456                0.35923100                0.46219283               -0.30503645
               4.16881726               -0.00210321                9.01238850                0.62939800                0.51368410               -0.17167117                0.23855279                0.01237421                1.13059147                0.00168030
               5.17204866               -0.01396745                8.98799538                0.68682127                0.21592138               -0.01190980               -0.10175881               -0.00581401                0.85276584                0.01042052
               6.17313568               -0.02495479                8.96043462                0.69023903                0.05934931                0.11201061               -0.45914119                0.00425796                0.72687701               -0.00036915
               7.17323564               -0.03832054                8.93364779                0.81437431                0.06454398                0.22690574               -0.80919217                0.06603885                0.46447535                0.02906414
               8.17442656               -0.05610641                8.90080534                1.00000000                0.22907237                0.34146010               -1.14034603                0.03677621               -0.03410375                0.30747888
               9.17781709               -0.07621403                8.86425709                1.00000000                0.40556141                0.41930657               -1.46060311               -0.05019653               -0.25286736                0.02706949
              10.18253779               -0.09634420                8.82720851                1.00000000                0.47206998                0.51153695               -1.76908212               -0.07923056               -0.28384696               -0.30354996
               0.19608396                1.09341494                9.13882408                1.00000000               -0.36661658               -0.43334813                1.40295102               -0.03346745               -0.03668674                0.66219311
               1.19241779                1.06701055                9.09951810                1.00000000               -0.31911137               -0.32602409                1.07481621               -0.01353157                0.03204242                0.00803290
               2.18970173                1.04027062                9.06148461                0.69664344               -0.23046880               -0.22439916                0.74414742                0.00557062                0.27563188               -0.51038066
               3.18780842                1.01390872                9.02706277                0.03813684               -0.29501245               -0.17727789                0.41257659                0.45682067                1.37481432               -0.65429375
               4.18380148                0.99618008                9.01120512                0.14257606               -0.21960527                0.05761987                0.20825348                0.59690516                1.94226476                0.06115597
               5.18341631                0.98591345                8.98995773                0.20410901                0.07766613                0.09960828               -0.09939186                0.56798424                1.45907054                0.16160623
               6.18535480                0.97616531                8.96525853                0.13981670                0.30277659               -0.05571968               -0.42757125                0.47203749                1.31788174               -0.33173261
               7.18947184                0.96394852                8.94160563                0.33076104                0.41931337                0.26471852               -0.73001927                0.44133985                1.19809150                0.51646895
               8.19374107                0.94730819                8.91452099                1.00000000                0.39810881                0.31572446               -1.01528623                0.14404892                0.58693336                0.39424426
               9.19743402                0.92797904                8.87836144                1.00000000                0.40672925                0.39966065               -1.31942520               -0.00227771                0.08461341                0.07506656
              10.20187566                0.90877117                8.84124743                1.00000000                0.44416378                0.48724506               -1.62755702               -0.03093882                0.03309311               -0.35719987
               0.22159093                2.08924307                9.12925257                1.00000000               -0.32938391               -0.40369735                1.29202860               -0.03792310                0.03238732                0.85598986
               1.21829709                2.06397087                9.08616490                1.00000000               -0.27996855               -0.28492138                0.93989431               -0.02059307                0.09282344               -0.00947778
               2.21599156                2.03829107                9.04417947                0.31741333               -0.16475835               -0.17200832                0.60830813               -0.01692665                0.64947717               -0.93939403
               3.21500193                2.01220795                9.01222563                0.00010000               -0.36204642               -0.15171848                0.28080032                0.70735803                2.66496962               -1.25601896
               4.20875063                1.99904919                9.01076686                0.00010000               -0.57894070                0.19395187                0.66222092                1.45042932                3.04535339               -0.78371472
               5.20342311                1.98802471                8.99478254                0.00010000               -0.21046361                0.08363531                0.04114829                1.26302991                1.52881072               -0.46048149
               6.20454136                1.97393081                8.96350511                0.00010000                0.37482275               -0.06220370               -0.44808209                1.28346433                2.13468268                0.03386848
               7.21091957                1.96697383                8.95942476                0.00010000                0.43678331                0.01994489               -0.60830168                0.93142467                2.37898883                0.33964754
               8.21327703                1.95020808                8.93001610                0.40853982                0.26944938                0.28680760               -0.87046139                0.16975524                0.78297269                0.74869110
               9.21630855                1.93177919                8.89351124                1.00000000                0.35288615                0.37131472               -1.17428332                0.02335991                0.29253606                0.32152736
              10.22033475                1.91340070                8.85434691                1.00000000                0.40261953                0.44011450               -1.49935984               -0.02288056                0.15661155               -0.37102665
               0.24586990                3.08534099                9.11998654                1.00000000               -0.29119633               -0.37656684                1.18313647               -0.04083678                0.02753172                0.87271068
               1.24295794                3.06131213                9.07230519                1.00000000               -0.23718918               -0.24440939                0.79927312               -0.02450964                0.03080453               -0.03832095
               2.24112612                3.03683045                9.02456239                0.13605370               -0.08802394               -0.11400603                0.41561990               -0.07352241                0.80524841               -1.00783554
               3.24119746                3.01087435                8.99236981                0.00010000               -0.20664022                0.07818062                0.09993658                0.61580902                3.12702365               -1.02458350
               4.23699331                3.00005912                8.99131876                0.00010000               -0.37010854                0.14499425                0.01821178                1.45416276                4.25831244               -1.19507784
               5.23379529                2.98758615                8.98417933                0.00010000               -0.24591720                0.04394992               -0.09879166                1.48697365                3.73375044               -0.83219010
               6.23207497                2.97492124                8.97524374                0.00010000               -0.09861065                0.12461827               -0.33453636                1.39219138                3.47591519                0.27387125
               7.23182307                2.96434742                8.96407578                0.00010000                0.01279295               -0.09273537               -0.52363318                1.02558464                3.22413202                0.08639091
               8.23233083                2.95304434                8.95086553                0.26426523                0.14427584                0.27161986               -0.72314270                0.42694272                1.85478007                1.32543642
               9.23470859                2.93540533                8.91259550                1.00000000                0.29220921                0.33354445               -0.99863814                0.03078997                0.29392466                0.47152490
              10.23817501                2.91757346                8.86830343                1.00000000                0.34664208                0.39915173               -1.36013360               -0.03073857               -0.01215200               -0.30570460
               0.26883193                4.08171174                9.11058996                1.00000000               -0.25144897               -0.34885013                1.07074239               -0.04058043                0.02796196                0.85507397
               1.26631745                4.05908269                9.05832073                1.00000000               -0.19365238               -0.19985908                0.65212603               -0.02166084                0.03091989               -0.04347809
               2.26495889                4.03601095                9.00597665                0.05109115               -0.11140034               -0.05380145                0.23259487                0.04564585                1.46245601               -0.90920711
               3.26408944                4.01377157                8.98237852                0.00010000               -0.19184012                0.37115229               -0.22272478                0.52047305                4.07612255               -0.17896709
               4.26112208                4.00194907                8.98285366                0.00010000               -0.28944869                0.20431373               -0.14190496                1.06478079                5.06278239               -0.48918711
               5.25830046                3.98890371                8.98143809                0.00010000               -0.27490811                0.16572305               -0.20326614                1.04903264                4.84293829               -0.33421785
               6.25562392                3.97642318                8.97948458                0.00010000               -0.24961530                0.16262941               -0.29271351                1.04712711                4.72118863               -0.00469578
               7.25330816                3.96511913                8.97753000                0.00010000               -0.24329770                0.11593555               -0.38921244                1.00787467                4.75027020                0.55958593
               8.25075797                3.95564047                8.97765975                0.26836225               -0.04564631                0.21008442               -0.46364821                0.45743234                2.43850490                1.39483158
               9.25239523                3.93845007                8.93066095                1.00000000                0.23128763                0.27280316               -0.82040836                0.01338111                0.04011023                0.41071708
              10.25538372                3.92138374                8.88292182                1.00000000                0.29884890                0.35899284               -1.20727620               -0.02916230               -0.00108741               -0.29718852
               0.29031640                5.07836399                9.10085481                1.00000000               -0.20908878               -0.31716525                0.95040712               -0.04254688                0.06512518                0.81358534
               1.28822551                5.05731494                9.04433262                0.87452952               -0.14831226               -0.15101798                0.50134619               -0.02496638                0.10077144               -0.09141884
               2.28735015                5.03575442                8.98839045                0.01354987               -0.12783576                0.00491011                0.06389136                0.20721473                2.50910805               -0.91796178
               3.28566879                5.01829740                8.98011197                0.00010000               -0.20966828                0.36143009               -0.15513173                0.56021763                5.09219059               -0.18023793
               4.28315679                5.00414539                8.97798925                0.00010000               -0.26834783                0.24236091               -0.21636499                0.79034922                5.54532322               -0.32968714
               5.28030184                4.99090062                8.98082349                0.00010000               -0.31773464                0.21545067               -0.22511006                0.82436121                5.77562166               -0.19627374
               6.27680209                4.97817383                8.98532834                0.00010000               -0.37692820                0.18765635               -0.23903033                0.81893340                5.83780341                0.11698499
               7.27276327                4.96666613                8.99143750                0.00010000               -0.43267827                0.15244135               -0.24664598                0.82735793                5.92972544                0.57803691
               8.26814853                4.95724603                8.99967504                0.28196108               -0.17651622                0.11808590               -0.23329571                0.39633967                2.99008516                1.10290088
               9.26923295                4.94086140                8.94850004                1.00000000                0.17879560                0.20791879               -0.63596887                0.00740026                0.00979619                0.37879833
              10.27172444                4.92475332                8.89715894                1.00000000                0.24914912                0.31297415               -1.04832932               -0.02955340               -0.00259319               -0.32596993
               0.31007909                6.07536843                9.09052487                1.00000000               -0.16514048               -0.27582845                0.82049837               -0.04513446                0.06769317                0.75635669
               1.30842769                6.05606233                9.02936590                0.73623884               -0.09791824               -0.09782899                0.32948542               -0.03248100                0.14856861               -0.19077309
               2.30812073                6.03610915                8.96969886                0.00647071               -0.07624347                0.06847231               -0.14753374                0.23698636                3.17101461               -1.07690114
               3.30690282                6.02100017                8.96911201                0.00010000               -0.18974390                0.25836684               -0.21950417                0.58005716                6.21355871               -0.72606596
               4.30432585                6.00679629                8.97298792                0.00010000               -0.30717823                0.27619305               -0.23793242                0.65234605                6.50544229               -0.43240202
               5.30075925                5.99321272                8.98078999                0.00010000               -0.40443878                0.24988552               -0.21336190                0.64399856                6.73162004               -0.18171163
               6.29623707                5.98017630                8.99160505                0.00010000               -0.49880695                0.20896833               -0.16736027                0.61992745                6.88581960                0.14654468
               7.29078312                5.96816795                9.00485116                0.00010000               -0.58737887                0.13928232               -0.10404603                0.62608419                7.02434396                0.55271068
               8.28448950                5.95800219                9.02058516                0.29881465               -0.28735841                0.03725590               -0.01640433                0.29621135                3.54557559                1.02334559
               9.28503595                5.94260845                8.96596221                0.94222908                0.12596556                0.14415000               -0.44903855                0.00143139                0.02518376                0.33993280
              10.28700881                5.92764322                8.91125322                1.00000000                0.19728613                0.26274240               -0.88014079               -0.02801980                0.01810245               -0.35996380
               0.32802592                7.07284742                9.07951834                1.00000000               -0.11907511               -0.22454203                0.68003197               -0.04392507                0.04069064                0.70763862
               1.32683517                7.05535836                9.01336434                0.65987377               -0.04369431               -0.04369045                0.14667513               -0.03403966                0.13523796               -0.26139110
               2.32715203                7.03712387                8.94899046                0.01847603               -0.01261874                0.13385043               -0.37863235                0.22142568                3.75840698               -1.23285283
               3.32658279                7.02346473                8.95548631                0.00010000               -0.15804412                0.25634282               -0.32513234                0.50857652                7.34997995               -0.94054343
               4.32399115                7.00966925                8.96604406                0.00010000               -0.33904996                0.29256515               -0.25924454                0.50135030                7.59002404               -0.57132732
               5.31980180                6.99589833                8.98028465                0.00010000               -0.48728707                0.28165770               -0.18518267                0.46472797                7.78119880               -0.21606661
               6.31424541                6.98235319                8.99762704                0.00010000               -0.61713626                0.23019588               -0.08795302                0.41090092                7.93875982                0.13295813
               7.30745907                6.96945178                9.01787542                0.00010000               -0.73065760                0.12205592                0.03849401                0.38352489                8.10619981                0.52341790
               8.29963226                6.95799115                9.04106132                0.31876877               -0.39192622               -0.03710681                0.19607633                0.16243530                4.10100653                0.98332776
               9.29962055                6.94374440                8.98308488                0.90198296                0.07311222                0.08631845               -0.26480900               -0.00582390                0.03248213                0.30144872
              10.30109450                6.93000817                8.92481690                1.00000000                0.14739570                0.21326263               -0.72371845               -0.02818447                0.01624794               -0.40920421
               0.34417871                8.07087759                9.06805857                1.00000000               -0.07082582               -0.17032984                0.53309963               -0.04100678                0.02653937                0.68187490
               1.34347045                8.05518852                8.99696241                0.63885015                0.01320815                0.01162351               -0.04306834               -0.02809367                0.09941394               -0.29206594
               2.34444287                8.03878616                8.92723941                0.03970077                0.05292558                0.20083933               -0.62537353                0.18698404                4.28905271               -1.25320162
               3.34452896                8.02612703                8.94019360                0.00010000               -0.12618041                0.25807657               -0.38082899                0.38293618                8.50157055               -1.03191911
               4.34191926                8.01264760                8.95807859                0.00010000               -0.35795442                0.28674020               -0.25446125                0.33485013                8.74238226               -0.58078724
               5.33736987                7.99884588                8.97913946                0.00010000               -0.55088114                0.29626476               -0.15160629                0.29395707                8.85982541               -0.21355859
               6.33090164                7.98478022                9.00306975                0.00010000               -0.72771069                0.26899815               -0.01028895                0.21025657                8.99276233                0.10487843
               7.32281566                7.97060907                9.03028347                0.00738249               -0.87280283                0.13323419                0.17572418                0.09404223                9.19801637                0.45102530
               8.31344559                7.95726005                9.06121366                0.34160104               -0.49566057               -0.10821336                0.40644746               -0.00347970                4.66465015                0.92215734
               9.31290245                7.94433482                8.99981251                0.89807102                0.02359969                0.03171869               -0.09504333               -0.00821959                0.03018886                0.28693094
              10.31391758                7.93190847                8.93790265                0.97820027                0.10151296                0.17138775               -0.58277145               -0.02930409                0.00452134               -0.43515653
               0.35858394                9.06944083                9.05636841                1.00000000               -0.02192072               -0.12099946                0.38441599               -0.03591780                0.02343659                0.56388522
               1.35836473                9.05559083                8.98034813                0.66241635                0.06846354                0.07071209               -0.23718630               -0.01501439                0.12295088               -0.26980825
               2.35995321                9.04114065                8.90626782                0.05082878                0.10076770                0.26474946               -0.86821015                0.11108758                4.83843437               -0.90323616
               3.36038008                9.02862627                8.92487881                0.00010000               -0.09919519                0.22560010               -0.29317335                0.20079982                9.66607118               -0.76410427
               4.35796930                9.01540406                8.95048464                0.00010000               -0.34158861                0.25952009               -0.23284687                0.17004890                9.88667673               -0.37914195
               5.35354831                9.00182362                8.97786006                0.00010000               -0.56409782                0.28935047               -0.12444591                0.15725520                9.86459226               -0.13246477
               6.34668735                8.98773316                9.00766712                0.00010000               -0.83441136                0.29539839                0.05428262                0.06405776                9.97419043                0.06569070
               7.33686008                8.97211646                9.04124926                0.01496485               -1.04252140                0.24892441                0.29617789               -0.12505365               10.28086086                0.27771021
               8.32583692                8.95582688                9.08042861                0.36497276               -0.60261738               -0.17017810                0.60416396               -0.21929273                5.30462486                0.65022310
               9.32480774                8.94437877                9.01665165                0.94281111               -0.02379023               -0.02370552                0.07514513               -0.00588540                0.07071286                0.26176677
              10.32536111                8.93343592                8.95093965                0.96204607                0.05533783                0.13431850               -0.44169314               -0.02859526               -0.02312039               -0.36437275
               0.37116034               10.06845760                9.04236629                1.00000000                0.03099989               -0.09832233                0.22663313                0.07215574                0.33708309                0.45853937
               1.37147034               10.05660276                8.96445440                0.85987879                0.12344282                0.10119242               -0.41804626                0.09173808                0.60282038               -0.24151190
               2.37362919               10.04408115                8.89185346                0.53385652                0.14056096                0.29404955               -1.03891003                0.06941218                5.60187148               -0.60105243
               3.37428156               10.03063903                8.91429220                0.35631052               -0.07531535                0.20127625               -0.28227456                0.07798974               10.51615482               -0.38961233
               4.37212289               10.01783800                8.94522800                0.35283220               -0.30478378                0.24339400               -0.25376589                0.11505136               10.73381661               -0.15886836
               5.36818588               10.00463289                8.97700998                0.37557490               -0.51164648                0.28092657               -0.12267923                0.10626662               10.64588222               -0.02743607
               6.36188996                9.99068819                9.01108377                0.42178438               -0.79825073                0.29550342                0.09489628                0.06799479               10.76687392                0.07659812
               7.35222087                9.97558756                9.04927451                0.51060536               -1.25462674                0.34711002                0.38363576               -0.30550666               11.19697782                0.19556823
               8.33679742                9.95385649                9.09496134                0.69284857               -0.85225832               -0.19703861                0.75322276               -0.49029221                6.06451351                0.43267135
               9.33517570                9.94386071                9.03281824                1.00000000               -0.07830257               -0.05180604                0.23855378                0.07371389                0.42260858                0.23612842
              10.33523137                9.93459484                8.96543482                0.98745429                0.00556719                0.11589222               -0.29077873                0.06043913                0.16648404               -0.29038414
               0.20541878                0.11658961               10.16704993                1.00000000               -0.39613904               -0.44008459                1.51443039               -0.07643575               -0.47050130                0.52117208
               1.20145739                0.08463220               10.12499093                1.00000000               -0.32750198               -0.34276381                1.19782755               -0.05616818               -0.55922160                0.00610724
               2.19886874                0.05239797               10.08102591                0.99620148               -0.17808318               -0.24815537                0.84507409               -0.04362087               -0.49097251               -0.19339716
               3.19789573                0.02095456               10.04021988                0.59946895                0.30572625               -0.18301620                0.53050051                0.38539713                0.43734935               -0.33868726
               4.20498326               -0.00068918               10.01476047                0.64705559                0.50400580               -0.15012363                0.23673538                0.00207084                1.09245491                0.01471037
               5.20797584               -0.01581348                9.98699824                0.70824507                0.20062177               -0.00442529               -0.09727031               -0.00151260                0.78888195                0.01568925
               6.20899570               -0.02997605                9.95589887                0.70575401                0.05589393                0.11024770               -0.44751027                0.00526600                0.65553110               -0.00694542
               7.20909372               -0.04638572                9.92560539                0.82263137                0.05900826                0.22197869               -0.79759469                0.06435464                0.40227934                0.02925986
               8.21017587               -0.06731705                9.88946444                1.00000000                0.21920864                0.33894003               -1.12643514                0.04122202               -0.08039666                0.31895728
               9.21347789               -0.09076574                9.84972853                1.00000000                0.39799465                0.41484701               -1.44403231               -0.05065117               -0.28827796                0.02490730
              10.21813576               -0.11428478                9.80960888                1.00000000                0.46578653                0.50491330               -1.75011312               -0.07976789               -0.31400570               -0.33464675
               0.23661183                1.11218876               10.15271197                1.00000000               -0.36203031               -0.42365910                1.37641753               -0.03198716               -0.04577136                0.71297539
               1.23299153                1.08120456               10.11019250                1.00000000               -0.31702399               -0.32085646                1.06049522               -0.01149511                0.01991108                0.01678647
               2.23027135                1.04991642               10.06890102                0.71985450               -0.23491270               -0.22327709                0.73773146                0.01236575                0.26066450               -0.51554934
               3.22829327                1.01912440               10.03120626                0.05622881               -0.34416760               -0.17663429                0.41444149                0.50506817                1.42003768               -0.69331308
               4.22338800                0.99780958               10.01326580                0.16969658               -0.28445603                0.09254111                0.20467125                0.46373483                2.00449183                0.31014077
               5.22260415                0.98414226                9.98897663                0.23521290                0.04732397                0.09803234               -0.09660834                0.48279414                1.46645834                0.21315737
               6.22433448                0.97112643                9.96103283                0.16264652                0.29018076               -0.04108397               -0.41755073                0.41245878                1.32662570               -0.34806114
               7.22840777                0.95583407                9.93435156                0.34462084                0.42218105                0.25521904               -0.71981859                0.44891139                1.22046814                0.53429107
               8.23277810                0.93607235                9.90442774                1.00000000                0.40237409                0.31319242               -1.00278592                0.15576719                0.60170423                0.41488859
               9.23645525                0.91338273                9.86523908                1.00000000                0.40395125                0.39605021               -1.30463947               -0.00192751                0.08668526                0.07457893
              10.24085712                0.89076435                9.82505769                1.00000000                0.44018744                0.47924769               -1.61033899               -0.03137378                0.03287586               -0.39493131
               0.26674743                2.10811642               10.14203005                1.00000000               -0.32476029               -0.39432284                1.26533918               -0.03405114                0.03071868                0.92189358
               1.26349983                2.07821507               10.09550452                1.00000000               -0.27756098               -0.28091093                0.92806083               -0.01487098                0.10020310               -0.00083122
               2.26119621                2.04793243               10.05028658                0.33484388               -0.16979551               -0.17475364                0.61114619               -0.00060992                0.66670302               -0.98509104
               3.26010392                2.01742188               10.01508457                0.00010000               -0.59780573               -0.15655151                0.28974872                0.79644069                3.02808371               -1.32399317
               4.24924010                2.00116164               10.01727549                0.00010000               -0.78945196                0.22517501                0.58054248                1.54940518                3.21667657               -0.87419687
               5.24431488                1.98614716                9.99476854                0.00010000               -0.18435157                0.08288873               -0.02205378                1.32427938                1.39335161               -0.47359150
               6.24555307                1.96920227                9.95937309                0.00010000                0.44055710               -0.07827164               -0.40049588                1.35056643                2.22371466                0.05375288
               7.25312602                1.95871866                9.95328869                0.00010000                0.50947407               -0.00192884               -0.61558942                0.97448919                2.48772241                0.36045945
               8.25574255                1.93894680                9.92136651                0.41299765                0.28106599                0.29025379               -0.85946320                0.20389098                0.84090898                0.78031413
               9.25874734                1.91715526                9.88183609                1.00000000                0.35012465                0.37164943               -1.16097963                0.03166131                0.31438050                0.33757279
              10.26274504                1.89530017                9.83943431                1.00000000                0.39976993                0.43032404               -1.48371593               -0.02052901                0.16798410               -0.40919071
               0.29573351                3.10430230               10.13167123                1.00000000               -0.28554116               -0.36868122                1.15561931               -0.03603202                0.02665750                0.93882547
               1.29287810                3.07558634               10.08025275                1.00000000               -0.23405855               -0.24217281                0.79014974               -0.01881266                0.02891939               -0.03541494
               2.29105234                3.04642134               10.02877724                0.14842087               -0.09426158               -0.11835948                0.42535473               -0.05786489                0.83548926               -1.07889923
               3.29099287                3.01599337                9.99346978                0.00010000               -0.27007637                0.05190394                0.11674016                0.71833349                3.30602858               -1.19530894
               4.28565082                3.00231308                9.99165655                0.00010000               -0.49718799                0.13795238                0.03728299                1.74534752                4.54252499               -1.55261069
               5.28104911                2.98580004                9.98325490                0.00010000               -0.34382560                0.05426400               -0.09672843                1.67235300                3.92808538               -0.94969921
               6.27877430                2.96956099                9.97193656                0.00010000               -0.14480447                0.09617424               -0.32698476                1.56390277                3.63872268                0.31017167
               7.27815302                2.95579549                9.95886633                0.00010000               -0.01774930               -0.10396305               -0.51658412                1.14546398                3.40709289                0.12625041
               8.27841932                2.94187743                9.94369212                0.26041728                0.12910404                0.28123703               -0.70919142                0.48930767                1.97699657                1.40567950
               9.28073510                2.92081572                9.90266662                1.00000000                0.28687058                0.33578127               -0.98769660                0.04204282                0.33633502                0.50197586
              10.28415673                2.89937083                9.85477813                1.00000000                0.34216268                0.39133850               -1.34602252               -0.02936013               -0.01081016               -0.33046035
               0.32345872                4.10074280               10.12114287                1.00000000               -0.24541770               -0.34215978                1.04171281               -0.03637179                0.02651519                0.91685661
               1.32100454                4.07337161               10.06480884                1.00000000               -0.19134136               -0.19844266                0.64537001               -0.01694419                0.02778025               -0.04541466
               2.31963189                4.04556524               10.00839014                0.06111953               -0.12128441               -0.05768041                0.24802079                0.04228220                1.42826915               -0.96918968
               3.31857885                4.01845996                9.98008390                0.00010000               -0.26457521                0.37273764               -0.22844316                0.57244223                4.31049606               -0.24026759
               4.31434038                4.00392069                9.98152285                0.00010000               -0.40324088                0.18212048               -0.12787851                1.18349030                5.49517380               -0.57566945
               5.31051403                3.98723244                9.97949195                0.00010000               -0.37523579                0.17224116               -0.18928658                1.14010339                5.17570383               -0.40074914
               6.30683567                3.97112575                9.97659011                0.00010000               -0.33975808                0.17530492               -0.28516315                1.13542610                5.02711224                0.00346514
               7.30371887                3.95663940                9.97363801                0.00010000               -0.31635948                0.12882982               -0.38636619                1.11548913                5.05656817                0.61935744
               8.30050848                3.94457154                9.97299642                0.26278258               -0.08120376                0.21628765               -0.46703402                0.51927786                2.60880866                1.51319289
               9.30209480                3.92387089                9.92250293                1.00000000                0.22695688                0.27210780               -0.81205218                0.02314588                0.05710079                0.44460548
              10.30504762                3.90312694                9.87092281                1.00000000                0.29528204                0.35460024               -1.19448757               -0.02749382               -0.00017986               -0.31117023
               0.34974845                5.09745911               10.11019153                1.00000000               -0.20316695               -0.31027057                0.91907503               -0.03886622                0.06940916                0.86823610
               1.34771678                5.07161749               10.04932426                0.86139502               -0.14694027               -0.14965019                0.49682617               -0.02136484                0.10968940               -0.10546736
               2.34680964                5.04526773                9.98915546                0.02123739               -0.18152585                0.00108389                0.08653621                0.23029612                2.61893725               -0.99300364
               3.34408626                5.02344812                9.97852445                0.00010000               -0.31307544                0.39671247               -0.17364723                0.59778179                5.39878054               -0.10377047
               4.34054814                5.00595549                9.97589055                0.00010000               -0.37200747                0.23430543               -0.20602097                0.87206843                5.96459365               -0.34191402
               5.33664611                4.98924486                9.97864298                0.00010000               -0.42361351                0.22042416               -0.21188495                0.88872924                6.20443576               -0.20447115
               6.33207587                4.97306709                9.98297275                0.00010000               -0.48145470                0.20737619               -0.23107864                0.88516189                6.25519820                0.13846644
               7.32701702                4.95837209                9.98896268                0.00010000               -0.52512382                0.17119498               -0.24625296                0.91096536                6.34879157                0.63912359
               8.32157339                4.94620318                9.99729818                0.27611069               -0.21872006                0.11853236               -0.24160963                0.44699400                3.20464736                1.20332057
               9.32264262                4.92625787                9.94217758                1.00000000                0.17606810                0.20511515               -0.62873619                0.01430823                0.01541873                0.41474901
              10.32509475                4.90646283                9.88675535                1.00000000                0.24521322                0.31078004               -1.03255928               -0.02800438               -0.00272304               -0.33349419
               0.37436463                6.09453739               10.09854895                1.00000000               -0.15960133               -0.26792958                0.78688696               -0.04151116                0.06789812                0.80264930
               1.37276861                6.07037861               10.03264999                0.72513311               -0.09787257               -0.09665230                0.32733313               -0.02871520                0.15429595               -0.22002402
               2.37240718                6.04558692                9.96837940                0.01170450               -0.14609434                0.06461497               -0.11883348                0.27658134                3.37776139               -1.18318616
               3.36984673                6.02639421                9.96704462                0.00010000               -0.32110801                0.27186104               -0.20024031                0.65622610                6.64229680               -0.72961356
               4.36598502                6.00860680                9.97070864                0.00010000               -0.43348542                0.28187572               -0.22237755                0.73956828                6.98210167               -0.41516810
               5.36117702                5.99164093                9.97873443                0.00010000               -0.52866695                0.26516135               -0.19902414                0.71999073                7.23397657               -0.16264570
               6.35541168                5.97527328                9.98996660                0.00010000               -0.61874639                0.23354785               -0.15953149                0.68386583                7.39527398                0.18100320
               7.34880209                5.96006330               10.00379241                0.00010000               -0.69245514                0.15959345               -0.10584068                0.69305607                7.54043551                0.61334488
               8.34156257                5.94694219               10.02035290                0.29302561               -0.33403935                0.03592798               -0.02968626                0.33352076                3.80394017                1.11475413
               9.34212130                5.92797319                9.96146811                0.92968659                0.12575165                0.14233590               -0.44939884                0.00572936                0.02867133                0.37600201
              10.34407761                5.90934254                9.90250747                1.00000000                0.19563027                0.26365443               -0.87053215               -0.02626342                0.02363690               -0.36954813
               0.39723578                7.09210052               10.08612830                1.00000000               -0.11428340               -0.21605521                0.64505177               -0.04010481                0.03881571                0.74683256
               1.39609295                7.06968444               10.01484724                0.65001706               -0.04550538               -0.04336346                0.14982566               -0.02936848                0.13579772               -0.29836095
               2.39632568                7.04656003                9.94542080                0.02038945               -0.09510231                0.12769287               -0.33843348                0.26848068                4.04164426               -1.35557834
               3.39419090                7.02888534                9.95240705                0.00010000               -0.31164469                0.25847342               -0.29676305                0.60470876                7.91509615               -0.94978555
               4.39009278                7.01159301                9.96357670                0.00010000               -0.49057268                0.31239425               -0.23902210                0.61302577                8.16036472               -0.54097301
               5.38437945                6.99454809                9.97852449                0.00010000               -0.63809882                0.31477770               -0.16943777                0.55671838                8.35965612               -0.18315247
               6.37733081                6.97773805                9.99678652                0.00010000               -0.75851074                0.26704813               -0.08017725                0.47533442                8.53092480                0.17238175
               7.36920923                6.96156396               10.01822598                0.00010000               -0.84984449                0.14869611                0.03340159                0.43287053                8.71214931                0.58199188
               8.36033392                6.94692174               10.04290098                0.31326682               -0.44261913               -0.03640671                0.17449086                0.18714875                4.40356261                1.07178112
               9.36035685                6.92910459                9.98042052                0.89486875                0.07484349                0.08643637               -0.27177280               -0.00100439                0.03364449                0.33182433
              10.36183079                6.91173592                9.91763475                1.00000000                0.14739338                0.21546277               -0.71964586               -0.02556926                0.01957861               -0.42861514
               0.41839468                8.09021628               10.07319772                1.00000000               -0.06729503               -0.16172797                0.49827956               -0.03730106                0.02358122                0.71759100
               1.41772173                8.06951134                9.99658991                0.62910740                0.00906059                0.00983807               -0.03194086               -0.02342889                0.09224782               -0.33372420
               2.41857589                8.04814077                9.92129411                0.03691618               -0.04068985                0.18845313               -0.56812266                0.24328739                4.66702168               -1.38061890
               3.41690793                8.03156367                9.93639646                0.00010000               -0.29965501                0.27778381               -0.37745014                0.51095266                9.21278093               -0.96647491
               4.41258279                8.01485468                9.95558874                0.00010000               -0.53707917                0.33632486               -0.24733337                0.46864455                9.38736914               -0.52619651
               5.40616635                7.99793648                9.97772360                0.00010000               -0.73401469                0.35310239               -0.13646352                0.39096844                9.50320544               -0.17601894
               6.39790249                7.98061424               10.00301086                0.00010000               -0.89452668                0.32408404               -0.00278738                0.26595774                9.66261042                0.14018007
               7.38827581                7.96303722               10.03198345                0.00633513               -1.00687893                0.17284213                0.16618599                0.11913959                9.89402292                0.49990460
               8.37776492                7.94621405               10.06509514                0.33703026               -0.54943904               -0.10292700                0.37348735                0.00418968                5.00857872                1.00328626
               9.37728703                7.92970192                9.99881175                0.89797596                0.02693218                0.03347541               -0.10605543               -0.00503260                0.02503483                0.31034931
              10.37830356                7.91365180                9.93213792                1.00000000                0.10165278                0.17211720               -0.57589193               -0.02639308                0.00702055               -0.46117381
               0.43789965                9.08886596               10.06002457                1.00000000               -0.01997658               -0.11206976                0.35072689               -0.03306243                0.01743059                0.59433900
               1.43769988                9.06988120                9.97808970                0.65187847                0.06197209                0.06539802               -0.21584529               -0.01236669                0.11153836               -0.30677753
               2.43913909                9.05032910                9.89800511                0.04256969               -0.00019183                0.24443479               -0.79070853                0.19907305                5.35869087               -0.99417896
               3.43769605                9.03444102                9.92128641                0.00010000               -0.30231113                0.31254690               -0.38938701                0.33161554               10.50372494               -0.66278175
               4.43309287                9.01831950                9.94810115                0.00010000               -0.56283925                0.34672436               -0.24753779                0.27880373               10.54569361               -0.32882806
               5.42643926                9.00161014                9.97672336                0.00010000               -0.77718261                0.36745511               -0.11083295                0.22355061               10.56075735               -0.10575341
               6.41754921                8.98421973               10.00825787                0.00010000               -1.02235226                0.36485615                0.06141472                0.09712224               10.71977192                0.08744402
               7.40599222                8.96502080               10.04412891                0.01555400               -1.18981000                0.30755203                0.28197092               -0.12431717               11.06778814                0.30497415
               8.39375301                8.94486320               10.08621609                0.36258392               -0.65868801               -0.15868357                0.55883862               -0.23226690                5.69673637                0.70007802
               9.39281846                8.92977410               10.01729015                0.94067499               -0.01749224               -0.01868733                0.05402372               -0.00628081                0.06287892                0.28164114
              10.39340317                8.91517827                9.94653319                0.96383799                0.05847150                0.13514247               -0.44171604               -0.02672123               -0.02516288               -0.38656937
               0.45570293               10.08797489               10.04446731                1.00000000                0.03083207               -0.08910678                0.19721815                0.06476960                0.34598343                0.48343451
               1.45601125               10.07081930                9.96043451                0.85508902                0.11473010                0.09380964               -0.38808389                0.08386601                0.62177211               -0.27139454
               2.45799753               10.05302947                9.88192423                0.52877968               -0.02307100                0.27003717               -0.95398325                0.23560992                6.23926852               -0.65587907
               3.45554983               10.03781461                9.91055953                0.35712565               -0.35038925                0.33735914               -0.42138166                0.22336376               11.43785759               -0.31389508
               4.45098975               10.02178917                9.94261279                0.35316905               -0.54063491                0.34696657               -0.27483988                0.16323660               11.42716527               -0.12767662
               5.44473713               10.00528558                9.97589672                0.37568364               -0.72777373                0.36754464               -0.10899415                0.13589699               11.40837026               -0.00971335
               6.43643427                9.98791136               10.01207994                0.42191088               -0.97955669                0.36916345                0.10177719                0.08364006               11.59163002                0.09200764
               7.42514600                9.96918827               10.05301594                0.51156826               -1.40339973                0.41674642                0.36721388               -0.32817070               12.07258935                0.21535193
               8.40836628                9.94304038               10.10219505                0.69284885               -0.91498269               -0.18228181                0.70057741               -0.53167825                6.51540248                0.45603709
               9.40684635                9.92932817               10.03503824                1.00000000               -0.07027392               -0.04459277                0.20811619                0.06850239                0.43817617                0.25201782
              10.40696080                9.91635465                9.96249745                1.00000000                0.01144542                0.11763779               -0.29910318                0.05841033                0.17479691               -0.30616427
               0.24415947                0.13700941               11.18205999                1.00000000               -0.38964896               -0.43150824                1.48909665               -0.07510414               -0.50774896                0.55581534
               1.24026298                0.10021037               11.13688686                1.00000000               -0.32147802               -0.33776754                1.18170789               -0.05602872               -0.61538176                0.01265639
               2.23772991                0.06316089               11.08943405                1.00000000               -0.17377899               -0.24619222                0.84022138               -0.04303353               -0.54755063               -0.18659618
               3.23678740                0.02700702               11.04552023                0.60713190                0.30790429               -0.18292380                0.53332650                0.40667093                0.40791320               -0.37017382
               4.24388800                0.00118034               11.01712321                0.66090541                0.49502458               -0.13124634                0.23633020               -0.00757813                1.05131824                0.02831430
               5.24668790               -0.01761045               10.98604998                0.72563082                0.18755804                0.00167475               -0.09196188                0.00195867                0.72559437                0.02174656
               6.24763916               -0.03536161               10.95148442                0.71869762                0.05138823                0.10914835               -0.43497733                0.00646077                0.58322001               -0.01286705
               7.24771566               -0.05522769               10.91769590                0.82972216                0.05281635                0.21787260               -0.78288046                0.06245074                0.33822570                0.03002653
               8.24869549               -0.07965386               10.87827663                1.00000000                0.20957185                0.33577519               -1.10996161                0.04375043               -0.12670010                0.33053778
               9.25190710               -0.10673698               10.83537645                1.00000000                0.39007461                0.41000379               -1.42547741               -0.05097711               -0.32313315                0.02276536
              10.25649698               -0.13393475               10.79220625                1.00000000                0.45898817                0.49818680               -1.72951284               -0.07987967               -0.34359041               -0.36530179
               0.28020747                1.13269433               11.16635243                1.00000000               -0.35805126               -0.41438640                1.35309842               -0.03131795               -0.05379633                0.75965407
               1.27662696                1.09683270               11.12072801                1.00000000               -0.31531065               -0.31581899                1.04696645               -0.01068553                0.00692732                0.02522901
               2.27390126                1.06069897               11.07623924                0.73994971               -0.23912833               -0.22239287                0.73133042                0.01803703                0.24350838               -0.51727811
               3.27184439                1.02517778               11.03535160                0.07201231               -0.38901533               -0.17712225                0.41689167                0.54780911                1.45761901               -0.72931845
               4.26612095                0.99986787               11.01529854                0.19308180               -0.34329674                0.09970825                0.20228702                0.33703583                2.06054719                0.49086601
               5.26497846                0.98240630               10.98802556                0.26222385                0.01957189                0.09425322               -0.09357863                0.41833283                1.47403424                0.24422176
               6.26651239                0.96572987               10.95690752                0.18279502                0.27539189               -0.02681301               -0.40764171                0.37005389                1.33404664               -0.35561085
               7.27048629                0.94695104               10.92720926                0.35772628                0.41876255                0.24479690               -0.70792656                0.44694754                1.24104889                0.54566566
               8.27488764                0.92370389               10.89446527                1.00000000                0.40257405                0.31019196               -0.98942682                0.16321693                0.61645759                0.43570168
               9.27853777                0.89736306               10.85226866                1.00000000                0.40041583                0.39200425               -1.28917056               -0.00177564                0.08915891                0.07428757
              10.28289596                0.87104711               10.80904065                1.00000000                0.43581809                0.47156000               -1.59278347               -0.03154359                0.03306475               -0.43220923
               0.31525638                2.12872168               11.15455935                1.00000000               -0.32117419               -0.38448187                1.24198483               -0.03114207                0.02978052                0.98176995
               1.31204463                2.09389399               11.10472612                1.00000000               -0.27554009               -0.27665958                0.91648187               -0.01026453                0.10852900                0.00719226
               2.30974557                2.05871303               11.05640240                0.35170451               -0.17349761               -0.17750356                0.61037320                0.01440968                0.68160691               -1.02398636
               3.30857468                2.02346457               11.01802061                0.00010000               -0.81726896               -0.16044673                0.29541887                0.85278973                3.30895749               -1.38729301
               4.29340019                2.00317450               11.02237771                0.00010000               -0.96910649                0.24458397                0.44834985                1.63738972                3.42897915               -0.94822360
               5.28919255                1.98427462               10.99434146                0.00010000               -0.14523476                0.07312292               -0.05283916                1.40130791                1.33485943               -0.47147840
               6.29049550                1.96410213               10.95549520                0.00010000                0.47440212               -0.09111142               -0.38217887                1.40596147                2.32153919                0.06104356
               7.29868059                1.94966825               10.94711297                0.00010000                0.55261545               -0.02139667               -0.61708502                1.00854680                2.58962403                0.38454427
               8.30154781                1.92654998               10.91282683                0.41873747                0.29238854                0.29120620               -0.84906241                0.23088453                0.90558787                0.81611760
               9.30452836                1.90110310               10.87029164                1.00000000                0.34750921                0.37074766               -1.14823927                0.03789836                0.33666649                0.35369028
              10.30849799                1.87549645               10.82467259                1.00000000                0.39696280                0.42143178               -1.46887513               -0.01867451                0.17964688               -0.44665798
               0.34924001                3.12500469               11.14309893                1.00000000               -0.28096904               -0.35965537                1.13147888               -0.03182244                0.02683325                0.99751181
               1.34643032                3.09129950               11.08810819                1.00000000               -0.23105669               -0.23955531                0.78088685               -0.01373260                0.02860209               -0.03313917
               2.34461887                3.05714890               11.03306949                0.16119556               -0.09958000               -0.12320457                0.43146929               -0.04135106                0.86157259               -1.14365599
               3.34443872                3.02196884               10.99470461                0.00010000               -0.32800868                0.02234910                0.12756684                0.81013169                3.47025024               -1.37040541
               4.33805870                3.00475955               10.99206442                0.00010000               -0.61808658                0.15135933                0.03579092                2.00586145                4.79796693               -1.84969080
               5.33207698                2.98386876               10.98224476                0.00010000               -0.44103579                0.06130126               -0.10700764                1.83514091                4.12067438               -1.02873589
               6.32923798                2.96390765               10.96870405                0.00010000               -0.19338018                0.06770802               -0.32067534                1.70894755                3.80608856                0.33363123
               7.32820938                2.94652311               10.95374410                0.00010000               -0.05837534               -0.11291594               -0.50759963                1.24864954                3.58710738                0.17211507
               8.32807048                2.92952802               10.93668170                0.25779747                0.10699480                0.28741413               -0.69470223                0.53881617                2.09771068                1.48329933
               9.33034928                2.90477801               10.89284157                1.00000000                0.28326518                0.33640582               -0.97788206                0.05151119                0.37489557                0.53182873
              10.33373578                2.87947575               10.84138298                1.00000000                0.33865036                0.38433311               -1.33384786               -0.02810778               -0.00907439               -0.35429661
               0.38203029                4.12152857               11.13142421                1.00000000               -0.24045203               -0.33410281                1.01625103               -0.03261328                0.02610289                0.96979511
               1.37962577                4.08910289               11.07122813                1.00000000               -0.18905402               -0.19675301                0.63837796               -0.01272900                0.02590757               -0.04822041
               2.37824921                4.05624894               11.01093706                0.07178342               -0.12295581               -0.06219016                0.25945893                0.03592517                1.37935109               -1.02223112
               3.37716666                4.02391155               10.97780966                0.00010000               -0.33158531                0.36462105               -0.21976071                0.62116699                4.52037800               -0.31589832
               4.37161751                4.00620169               10.98029609                0.00010000               -0.52096916                0.16808851               -0.12204344                1.29302566                5.91485592               -0.66759060
               5.36674728                3.98550064               10.97765236                0.00010000               -0.47987029                0.18499756               -0.18152413                1.22429849                5.49177023               -0.45815943
               6.36202010                3.96545629               10.97378131                0.00010000               -0.43570308                0.18295096               -0.27711678                1.21288333                5.31978031                0.01596708
               7.35803321                3.94740993               10.96980267                0.00010000               -0.39754378                0.13855491               -0.37991115                1.20231328                5.35004526                0.67954214
               8.35406923                3.93229826               10.96831907                0.25812473               -0.12111789                0.22139723               -0.46734144                0.56886925                2.77571316                1.62253398
               9.35561086                3.90783122               10.91441990                1.00000000                0.22355647                0.27065938               -0.80547812                0.03098600                0.07664889                0.47854996
              10.35854036                3.88318311               10.85903207                1.00000000                0.29295006                0.35115140               -1.18540231               -0.02587864                0.00048813               -0.32081569
               0.41343912                5.11832263               11.11923631                1.00000000               -0.19837472               -0.30219641                0.89185727               -0.03558502                0.07450576                0.91295455
               1.41145537                5.08736444               11.05426914                0.84915257               -0.14552033               -0.14820110                0.49196143               -0.01800782                0.11983208               -0.12039945
               2.41052871                5.05590509               10.99012118                0.02968244               -0.22730305               -0.00344296                0.10415572                0.24644668                2.69265919               -1.06018157
               3.40690931                5.02926126               10.97663902                0.00010000               -0.40992932                0.43068725               -0.21479491                0.62345459                5.68274518               -0.01922859
               4.40233012                5.00812132               10.97386883                0.00010000               -0.48004789                0.23025454               -0.20158013                0.94840045                6.38697416               -0.35278835
               5.39730835                4.98756871               10.97658579                0.00010000               -0.53718819                0.22888307               -0.20169772                0.94394443                6.61628873               -0.20990248
               6.39158636                4.96756667               10.98070677                0.00010000               -0.59473377                0.22631556               -0.22231695                0.93949831                6.65298629                0.16372894
               7.38541367                4.94929420               10.98651244                0.00010000               -0.62798931                0.18808098               -0.24294694                0.97808062                6.74949109                0.70170718
               8.37902657                4.93395596               10.99484284                0.27088641               -0.26647618                0.11981049               -0.24828464                0.48601872                3.41482024                1.30036022
               9.38008415                4.91019120               10.93592531                0.99324705                0.17439285                0.20271647               -0.62572094                0.01933815                0.02641958                0.44977283
              10.38251443                4.88649878               10.87650775                1.00000000                0.24302791                0.30948780               -1.02266854               -0.02611857                0.00103213               -0.33765953
               0.44323497                6.11548465               11.10626261                1.00000000               -0.15518123               -0.25936662                0.75818272               -0.03831621                0.06810830                0.83874059
               1.44168316                6.08613886               11.03591256                0.71490849               -0.09768208               -0.09566069                0.32504408               -0.02506551                0.16009856               -0.24872980
               2.44128133                6.05618008               10.96732219                0.01767926               -0.21318191                0.05962489               -0.09514990                0.31414189                3.56347877               -1.27901189
               3.43741952                6.03252530               10.96510720                0.00010000               -0.45016285                0.29279586               -0.19484957                0.72231034                7.03873236               -0.70342823
               4.43227807                6.01080678               10.96854037                0.00010000               -0.56193498                0.29241847               -0.21614772                0.81519439                7.43643360               -0.38906640
               5.42618082                5.99007830               10.97680951                0.00010000               -0.65967490                0.28387026               -0.18811954                0.78262884                7.71457577               -0.13852120
               6.41908457                5.96998260               10.98841442                0.00010000               -0.74876454                0.25949520               -0.15132629                0.73346526                7.88127135                0.21937822
               7.41120553                5.95117155               11.00273435                0.00010000               -0.80959834                0.18031897               -0.10508869                0.74428944                8.03363063                0.67501507
               8.40289261                5.93469447               11.01999144                0.28778654               -0.38753635                0.03642794               -0.04188412                0.35981973                4.05482714                1.20280630
               9.40345480                5.91188555               10.95697423                0.91626203                0.12551082                0.14230231               -0.45130954                0.00769558                0.03534623                0.40784485
              10.40540282                5.88937286               10.89384258                1.00000000                0.19480210                0.26533171               -0.86792600               -0.02410885                0.03045517               -0.38123065
               0.47136435                7.11313530               11.09241937                1.00000000               -0.11057322               -0.20757535                0.61588025               -0.03685710                0.03712524                0.77634888
               1.47025862                7.08545123               11.01636085                0.64114692               -0.04696206               -0.04336466                0.15257581               -0.02509227                0.13642701               -0.33222407
               2.47042511                7.05709759               10.94222180                0.02329719               -0.17649029                0.12046984               -0.30458196                0.31806862                4.30004316               -1.46220554
               3.46672882                7.03511718               10.94955105                0.00010000               -0.46720542                0.26964362               -0.27940380                0.69712683                8.43887067               -0.95867880
               4.46108101                7.01396969               10.96126362                0.00010000               -0.64718572                0.33962199               -0.22744790                0.70951879                8.69877909               -0.50871078
               5.45378510                6.99324611               10.97689590                0.00010000               -0.79592949                0.35241615               -0.15873835                0.63089591                8.90988959               -0.14585554
               6.44516242                6.97275657               10.99602349                0.00010000               -0.90987548                0.30649366               -0.07322290                0.52319474                9.09456860                0.21542832
               7.43558759                6.95290058               11.01854346                0.00010000               -0.98267230                0.17663424                0.03081899                0.46671277                9.28985978                0.64020283
               8.42550897                6.93468452               11.04455114                0.30837346               -0.50139610               -0.03418997                0.15697649                0.20164565                4.69398514                1.15353627
               9.42555967                6.91303724               10.97764943                0.88049210                0.07743266                0.08933160               -0.28414121                0.00132297                0.03480599                0.36040314
              10.42705762                6.89180541               10.91042398                1.00000000                0.14979516                0.22068432               -0.72702750               -0.02304219                0.02161311               -0.44578249
               0.49786597                8.11133314               11.07802416                1.00000000               -0.06469452               -0.15386388                0.47001828               -0.03426003                0.02112275                0.74434941
               1.49721902                8.08527157               10.99632359                0.62073971                0.00553917                0.00797260               -0.02215076               -0.01936595                0.08611137               -0.36997701
               2.49797675                8.05858948               10.91587696                0.03588841               -0.13645339                0.17646812               -0.51988655                0.30759039                5.00092699               -1.48722412
               3.49448995                8.03791817               10.93264460                0.00010000               -0.48186184                0.30451906               -0.37126817                0.63197306                9.86648947               -0.94295305
               4.48833951                8.01759922               10.95313193                0.00010000               -0.72390471                0.39168730               -0.24439033                0.57868347               10.00710148               -0.48517824
               5.48001186                7.99712663               10.97641019                0.00010000               -0.92227573                0.41446594               -0.12861832                0.46674479               10.12039457               -0.13746089
               6.46989400                7.97611248               11.00301400                0.00010000               -1.07000134                0.38281936                0.00213833                0.30462166               10.29901579                0.17802700
               7.45861183                7.95470424               11.03360719                0.00571466               -1.15525702                0.21414355                0.15947078                0.12841146               10.55383826                0.54703937
               8.44678886                7.93401067               11.06868341                0.33306551               -0.61257316               -0.09779913                0.34758787                0.00346927                5.33793657                1.07503132
               9.44636037                7.91367218               10.99769140                0.88920304                0.03083915                0.03739251               -0.12059450               -0.00177920                0.02339268                0.33289737
              10.44740564                7.89378655               10.92638481                1.00000000                0.10452717                0.17697974               -0.58293167               -0.02285617                0.01169455               -0.48164236
               0.52280229                9.11005802               11.06338295                1.00000000               -0.01873259               -0.10461560                0.32415861               -0.03075220                0.01265053                0.61746995
               1.52261496                9.08561068               10.97603123                0.64307737                0.05640161                0.06068430               -0.19749587               -0.01006187                0.10239593               -0.33792825
               2.52393032                9.06062695               10.89045365                0.03689856               -0.11282135                0.22679197               -0.72604439                0.29548350                5.79069900               -1.06808078
               3.52035854                9.04120756               10.91709107                0.00010000               -0.52420520                0.39483521               -0.42852794                0.45183372               11.27611730               -0.61704216
               4.51344622                9.02180344               10.94553388                0.00010000               -0.78758982                0.43309789               -0.26139950                0.36586819               11.21595709               -0.29431244
               5.50460674                9.00153543               10.97564340                0.00010000               -0.98844903                0.44826429               -0.10754106                0.27418998               11.23803553               -0.07939269
               6.49367724                8.98041296               11.00889541                0.00010000               -1.21745583                0.43858617                0.06433484                0.11786792               11.42763357                0.11038938
               7.48025762                8.95718345               11.04688868                0.01620087               -1.35334142                0.37081543                0.27120553               -0.13693535               11.81032770                0.33021536
               8.46661041                8.93272854               11.09160538                0.36038227               -0.72547075               -0.14956763                0.52393153               -0.25520279                6.06925223                0.74289695
               9.46574821                8.91378509               11.01773212                0.93839961               -0.01193247               -0.01336573                0.03506376               -0.00535403                0.05866455                0.29761112
              10.46637176                8.89534501               10.94210533                0.96581457                0.06235507                0.13782504               -0.44920053               -0.02384552               -0.02439832               -0.40649920
               0.54614560               10.10924083               11.04631065                1.00000000                0.03032512               -0.08171964                0.17443429                0.05877440                0.35261439                0.50253437
               1.54644886               10.08648526               10.95669273                0.85119471                0.10719690                0.08745738               -0.36262446                0.07761365                0.63699705               -0.29603070
               2.54828954               10.06312532               10.87277380                0.52513532               -0.20493556                0.24983644               -0.88312176                0.40240283                6.75918706               -0.69924578
               3.54235014               10.04581487               10.90586457                0.35798693               -0.64802672                0.46073119               -0.48664724                0.35595365               12.29632201               -0.28197729
               4.53532901               10.02626118               10.93973120                0.35348824               -0.77320014                0.44577383               -0.29544157                0.20213079               12.14888177               -0.10822459
               5.52688614               10.00609191               10.97483010                0.37571231               -0.93628351                0.45564786               -0.10677178                0.15909120               12.15332656                0.00609001
               6.51660334                9.98488420               11.01311931                0.42190901               -1.16642977                0.44712423                0.10429832                0.09404163               12.37608218                0.10659565
               7.50355755                9.96212054               11.05661879                0.51240010               -1.57600868                0.49370911                0.35470290               -0.36325175               12.89874353                0.23231234
               8.48508316                9.93101932               11.10897289                0.69265662               -0.99603621               -0.17092173                0.66116361               -0.58850846                6.94056042                0.47548912
               9.48363682                9.91340487               11.03698057                1.00000000               -0.06371291               -0.03802267                0.18206113                0.06504778                0.45179063                0.26417704
              10.48380891                9.89654305               10.95945276                1.00000000                0.01720840                0.11980449               -0.31078166                0.05753306                0.18077807               -0.32117025
               0.28561006                0.15912104               12.19683186                1.00000000               -0.38343659               -0.42385580                1.46661149               -0.07433168               -0.54290884                0.58789661
               1.28177569                0.11720304               12.14862509                1.00000000               -0.31628505               -0.33331495                1.16693148               -0.05651093               -0.66665345                0.01960161
               2.27928435                0.07505568               12.09783034                1.00000000               -0.17054277               -0.24531686                0.83967077               -0.04237762               -0.59993076               -0.18456779
               3.27836483                0.03388835               12.05088641                0.61280228                0.30977655               -0.18506898                0.54027059                0.42568858                0.37208723               -0.40451709
               4.28547989                0.00352643               12.01948708                0.67167594                0.48808421               -0.11540253                0.23727982               -0.01639388                1.00521615                0.04232696
               5.28812652               -0.01932972               11.98515900                0.73976270                0.17671458                0.00649346               -0.08600447                0.00463353                0.66320538                0.02829271
               6.28901418               -0.04107959               11.94719933                0.72958058                0.04697498                0.10830213               -0.42196313                0.00764374                0.51110533               -0.01829888
               7.28906602               -0.06481191               11.90994778                0.83607691                0.04735695                0.21422184               -0.76602767                0.06029822                0.27295267                0.03136089
               8.28996132               -0.09308357               11.86726521                1.00000000                0.20097983                0.33197529               -1.09159229                0.04450668               -0.17398420                0.34222693
               9.29308561               -0.12409485               11.82121898                1.00000000                0.38215156                0.40481346               -1.40538212               -0.05106061               -0.35824545                0.02087807
              10.29760435               -0.15525963               11.77501862                1.00000000                0.45187327                0.49134529               -1.70727004               -0.07947126               -0.37311481               -0.39561163
               0.32678474                1.15488248               12.17977393                1.00000000               -0.35414803               -0.40578582                1.33245582               -0.03128651               -0.06105652                0.80281132
               1.32324326                1.11386989               12.13113183                1.00000000               -0.31334099               -0.31121507                1.03428609               -0.01141488               -0.00542496                0.03359349
               2.32051792                1.07260251               12.08352763                0.75696939               -0.24284587               -0.22166143                0.72710942                0.02086411                0.22778382               -0.52002516
               3.31838634                1.03203766               12.03954409                0.08570041               -0.42964698               -0.17826721                0.42170027                0.58564127                1.48970181               -0.76661118
               4.31192498                1.00237241               12.01731154                0.21330770               -0.39552396                0.09524319                0.20055316                0.23582482                2.10932742                0.61202054
               5.31047586                0.98073521               11.98710506                0.28588177               -0.00466365                0.09140571               -0.09071382                0.36995441                1.48144330                0.26567232
               6.31183171                0.96000343               11.95287999                0.20081435                0.25975629               -0.01468996               -0.39823331                0.33966291                1.34060404               -0.36065623
               7.31567099                0.93733031               11.92019303                0.37027023                0.41080729                0.23433081               -0.69513505                0.43768005                1.25973905                0.55333514
               8.32004785                0.91023618               11.88463920                1.00000000                0.39960256                0.30681453               -0.97571647                0.16686467                0.63041616                0.45678481
               9.32366304                0.87995328               11.83945567                1.00000000                0.39632817                0.38755037               -1.27330076               -0.00165336                0.09165768                0.07453020
              10.32797442                0.84965382               11.79320202                1.00000000                0.43113767                0.46421583               -1.57468721               -0.03135981                0.03336130               -0.46887777
               0.36700951                2.15100532               12.16686975                1.00000000               -0.31821495               -0.37474011                1.22135375               -0.02931283                0.02947438                1.03639671
               1.36382736                2.11097873               12.11383416                1.00000000               -0.27378250               -0.27241724                0.90540084               -0.00732755                0.11701344                0.01462706
               2.36153386                2.07062245               12.06249404                0.36773364               -0.17598004               -0.17944750                0.60693928                0.02568593                0.69439499               -1.05850043
               3.36030776                2.03032301               12.02099294                0.00010000               -1.00175177               -0.16207240                0.29769673                0.89127232                3.51925896               -1.44770104
               4.34149883                2.00543129               12.02624249                0.00010000               -1.12065909                0.25142386                0.34571261                1.71602066                3.63810091               -0.99821224
               5.33789458                1.98249839               11.99371175                0.00010000               -0.11432439                0.05896011               -0.06828593                1.47712123                1.32762830               -0.47041376
               6.33921234                1.95862661               11.95172951                0.00010000                0.48461429               -0.10279654               -0.37337645                1.44706696                2.41470481                0.06827197
               7.34758687                1.93987471               11.94094699                0.00010000                0.57316483               -0.03911070               -0.61473091                1.03363186                2.69075455                0.41267646
               8.35067564                1.91305272               11.90438526                0.42499842                0.30240229                0.29074952               -0.83989969                0.25048296                0.97414539                0.85574392
               9.35363491                1.88365616               11.85887130                1.00000000                0.34502222                0.36853744               -1.13617683                0.04203248                0.35949093                0.37071288
              10.35757608                1.85402468               11.81005681                1.00000000                0.39411683                0.41357995               -1.45446270               -0.01724771                0.19156809               -0.48318968
               0.40625166                3.14738768               12.15430081                1.00000000               -0.27720762               -0.35019999                1.11024737               -0.02844281                0.02777961                1.04968289
               1.40347958                3.10842154               12.09587049                1.00000000               -0.22821452               -0.23662426                0.77160489               -0.00958219                0.02957445               -0.03146197
               2.40168737                3.06901356               12.03740663                0.17404489               -0.10383195               -0.12767607                0.43464840               -0.02609028                0.88387875               -1.20231863
               3.40140294                3.02879621               11.99602112                0.00010000               -0.38086811               -0.00577129                0.13366020                0.88534715                3.61516822               -1.53903227
               4.39407001                3.00740088               11.99237237                0.00010000               -0.72899857                0.16665882                0.02535700                2.22070863                5.03038854               -2.07804436
               5.38682297                2.98191442               11.98111474                0.00010000               -0.53366363                0.06149156               -0.11773122                1.97581262                4.31365002               -1.08484375
               6.38339673                2.95794750               11.96552306                0.00010000               -0.24527278                0.04078815               -0.31591179                1.82511530                3.97684120                0.35597586
               7.38191752                2.93654810               11.94871434                0.00010000               -0.10603343               -0.12063987               -0.49884475                1.33494124                3.76435737                0.22419138
               8.38127607                2.91605117               11.92979807                0.25602836                0.08071065                0.29041753               -0.68416258                0.57529045                2.21766330                1.56221633
               9.38353173                2.88732403               11.88310898                1.00000000                0.28081731                0.33509939               -0.96919870                0.05770509                0.41105560                0.56264126
              10.38689241                2.85792542               11.82810117                1.00000000                0.33606818                0.37805867               -1.32325478               -0.02701352               -0.00717425               -0.37728795
               0.44437293                4.14400132               12.14146789                1.00000000               -0.23630906               -0.32539407                0.99396589               -0.02944558                0.02658459                1.01513046
               1.44200984                4.10624625               12.07757640                1.00000000               -0.18677714               -0.19482341                0.63118029               -0.00917125                0.02514455               -0.05170965
               2.44063739                4.06806893               12.01357932                0.08264311               -0.11912287               -0.06672901                0.26733029                0.02834551                1.32590627               -1.06931127
               3.43962738                4.03020758               11.97568868                0.00010000               -0.39212957                0.34848958               -0.20054782                0.66430584                4.70528302               -0.41436511
               4.43279480                4.00876447               11.97908198                0.00010000               -0.63815831                0.16272832               -0.12364839                1.38957457                6.31474669               -0.75333884
               5.42686422                3.98372823               11.97586147                0.00010000               -0.58569146                0.19876251               -0.17819907                1.29944390                5.79891367               -0.50202708
               6.42108097                3.95944237               11.97104778                0.00010000               -0.53410988                0.18805323               -0.27031939                1.27729477                5.60488465                0.03355609
               7.41618202                3.93746191               11.96603979                0.00010000               -0.48377285                0.14632301               -0.37288225                1.26859734                5.63429624                0.74091773
               8.41140551                3.91886107               11.96364959                0.25423848               -0.16336236                0.22434210               -0.46637581                0.60385438                2.93961057                1.72778853
               9.41291477                3.89035814               11.90639337                1.00000000                0.22137652                0.26874848               -0.80085619                0.03495783                0.09745125                0.51202475
              10.41583304                3.86158586               11.84721477                1.00000000                0.29182688                0.34868593               -1.17948505               -0.02432384                0.00063181               -0.32925740
               0.48117289                5.14087980               12.12802867                1.00000000               -0.19443402               -0.29360926                0.86832420               -0.03277382                0.08019363                0.94947865
               1.47922855                5.10452507               12.05916349                0.83783485               -0.14399721               -0.14669705                0.48668723               -0.01498227                0.13084236               -0.13585073
               2.47829295                5.06767898               11.99123857                0.03848734               -0.26175177               -0.00814337                0.11710493                0.25428255                2.72315246               -1.12046722
               3.47399352                5.03576600               11.97422855                0.00010000               -0.49760479                0.46030176               -0.27509020                0.63761417                5.94614969                0.05956669
               4.46834085                5.01065545               11.97185895                0.00010000               -0.59297847                0.23331022               -0.20326964                1.01701265                6.82452266               -0.36187122
               5.46213395                4.98588967               11.97460903                0.00010000               -0.65659543                0.24160837               -0.19568466                0.98916928                7.01810660               -0.21095437
               6.45520894                4.96170857               11.97852641                0.00010000               -0.71315910                0.24508720               -0.21460292                0.98080932                7.03815797                0.19285609
               7.44787077                4.93947456               11.98410374                0.00010000               -0.73760122                0.20353374               -0.23878044                1.02725584                7.13654954                0.76576240
               8.44045692                4.92053802               11.99233249                0.26629449               -0.31823315                0.12144738               -0.25309293                0.51190846                3.62034171                1.39557000
               9.44150610                4.89269900               11.92966316                0.97899586                0.17467960                0.20239136               -0.63026453                0.02117176                0.04006366                0.48544689
              10.44395051                4.86489914               11.86630198                1.00000000                0.24444089                0.31079222               -1.02442571               -0.02413787                0.00746937               -0.34232536
               0.51642690                6.13812914               12.11371261                1.00000000               -0.15158881               -0.25069247                0.73382150               -0.03556096                0.06831160                0.86683060
               1.51491101                6.10331231               12.03915087                0.70553528               -0.09723962               -0.09480719                0.32235729               -0.02162821                0.16597420               -0.27653776
               2.51448211                6.06790606               11.96647640                0.02409564               -0.27539088                0.05410885               -0.07650435                0.34723483                3.72552672               -1.36556495
               3.50940319                6.03941361               11.96314763                0.00010000               -0.57353611                0.32041843               -0.20560259                0.77287937                7.40609336               -0.64376422
               4.50301139                6.01343068               11.96638568                0.00010000               -0.69043546                0.30858929               -0.21908594                0.87647197                7.87919284               -0.35704447
               5.49559449                5.98856039               11.97497204                0.00010000               -0.79495609                0.30703148               -0.18159802                0.82984325                8.18308799               -0.11125051
               6.48711226                5.96434412               11.98694008                0.00010000               -0.88484006                0.28692329               -0.14449473                0.76689348                8.35156802                0.26029934
               7.47789768                5.94153259               12.00169064                0.00010000               -0.93465153                0.20103095               -0.10370681                0.77769612                8.50974374                0.73769943
               8.46841923                5.92129002               12.01951522                0.28311254               -0.44602991                0.03812389               -0.05233618                0.37620559                4.30024395                1.28912349
               9.46897709                5.89440597               11.95244192                0.90224636                0.12653903                0.14482415               -0.45873026                0.00928532                0.04420965                0.43890666
              10.47095001                5.86780170               11.88514895                1.00000000                0.19729277                0.26894535               -0.87687669               -0.02225542                0.03640030               -0.39564301
               0.55009533                7.13586595               12.09844591                1.00000000               -0.10762653               -0.19947192                0.59172531               -0.03413349                0.03561669                0.79867984
               1.54901907                7.10262893               12.01789876                0.63312589               -0.04794961               -0.04354412                0.15451874               -0.02123226                0.13717967               -0.36314472
               2.54913634                7.06876116               11.93932916                0.02686966               -0.25462881                0.11291900               -0.27709615                0.36683779                4.53489289               -1.55542584
               3.54392649                7.04217437               11.94681897                0.00010000               -0.62064119                0.28754914               -0.27220716                0.78228173                8.92713035               -0.96202422
               4.53672351                7.01682723               11.95902775                0.00010000               -0.80545595                0.37250918               -0.22309782                0.79018852                9.21491501               -0.47424312
               5.52781737                6.99203030               11.97534972                0.00010000               -0.95744470                0.39396825               -0.15256442                0.68587361                9.44228640               -0.10744380
               6.51757462                6.96744703               11.99532206                0.00010000               -1.06692918                0.34793729               -0.06806887                0.55192130                9.63961470                0.25968813
               7.50647879                6.94349518               12.01884236                0.00010000               -1.12334876                0.20501023                0.02903472                0.48194753                9.84773300                0.69809038
               8.49510765                6.92130049               12.04604051                0.30403704               -0.56493290               -0.03147948                0.14157577                0.20602549                4.97565332                1.23236923
               9.49518013                6.89559548               11.97473770                0.86605001                0.08031499                0.09356002               -0.29797922                0.00269728                0.03573222                0.38685146
              10.49671395                6.87027804               11.90309420                1.00000000                0.15338169                0.22679511               -0.73980768               -0.02171318                0.02248351               -0.46346626
               0.58221827                8.13413970               12.08259809                1.00000000               -0.06271073               -0.14685429                0.44724506               -0.03178881                0.01907543                0.76474210
               1.58159116                8.10244143               11.99614689                0.61340886                0.00275773                0.00622892               -0.01415690               -0.01586118                0.08089905               -0.40168557
               2.58227342                8.07016444               11.91089638                0.03606100               -0.23042046                0.16547431               -0.48057548                0.37400312                5.30060692               -1.57733026
               3.57698275                8.04516460               11.92897110                0.00010000               -0.66570945                0.33529191               -0.36392432                0.74640427               10.47308321               -0.93708649
               4.56895923                8.02088086               11.95070093                0.00010000               -0.91452940                0.45033744               -0.24196928                0.67056583               10.60529362               -0.45353154
               5.55869216                7.99643976               11.97515123                0.00010000               -1.11367105                0.47860365               -0.12431975                0.52215392               10.72031531               -0.10130948
               6.54668581                7.97130286               12.00305363                0.00010000               -1.25044947                0.44375873                0.00490601                0.32375118               10.91469099                0.21553022
               7.53368317                7.94563279               12.03517286                0.00535297               -1.31231886                0.25591643                0.15405184                0.11837875               11.19014315                0.59261592
               8.52043943                7.92066043               12.07204690                0.32958754               -0.68148450               -0.09344193                0.32714068               -0.00843245                5.65756520                1.14145271
               9.52005348                7.89627717               11.99639986                0.87437353                0.03555998                0.04208353               -0.13853632               -0.00055755                0.02203277                0.35615192
              10.52115063                7.87233760               11.92047929                1.00000000                0.10971512                0.18511469               -0.60111015               -0.02121427                0.01374178               -0.49952517
               0.61285610                9.13292886               12.06650775                1.00000000               -0.01789993               -0.09847705                0.30337064               -0.02889477                0.00880759                0.63548170
               1.61267710                9.10275351               11.97413979                0.63551864                0.05185646                0.05671300               -0.18246305               -0.00806629                0.09515219               -0.36446272
               2.61389323                9.07207064               11.88348422                0.03298701               -0.22694723                0.21199071               -0.67377569                0.39313570                6.16631953               -1.12896732
               3.60813816                9.04888021               11.91271585                0.00010000               -0.75167786                0.47317317               -0.43719149                0.56497317               11.99158778               -0.59608572
               4.59885967                9.02583398               11.94287316                0.00010000               -1.01498560                0.51745948               -0.26673468                0.43823900               11.87958544               -0.27087394
               5.58783844                9.00160237               11.97457254                0.00010000               -1.20015298                0.52971157               -0.10662552                0.31058054               11.90330223               -0.05637898
               6.57485661                8.97632221               12.00954456                0.00010000               -1.41748241                0.51463042                0.06478328                0.12462748               12.11363253                0.13230092
               7.55948880                8.94861350               12.04955302                0.01683348               -1.52809986                0.43707471                0.26238131               -0.16532138               12.52504430                0.35384199
               8.54429461                8.91943166               12.09669472                0.35833729               -0.79984951               -0.14226382                0.49770493               -0.29000354                6.43069226                0.78195745
               9.54349180                8.89643716               12.01799142                0.93057184               -0.00629080               -0.00811750                0.01604607               -0.00512542                0.05724415                0.31227674
              10.54416880                8.87398034               11.93754918                0.96779602                0.06769937                0.14493878               -0.46688220               -0.02161417               -0.02369351               -0.42291212
               0.64199108               10.13217016               12.04795599                1.00000000                0.02969749               -0.07587041                0.15700630                0.05405065                0.35777476                0.51763582
               1.64228805               10.10357569               11.95318202                0.84793043                0.10091771                0.08221779               -0.34176379                0.07280006                0.64984078               -0.31670522
               2.64400943               10.07440425               11.86426180                0.52245280               -0.38845909                0.23336123               -0.82568067                0.56423907                7.20603867               -0.73428926
               3.63451887               10.05462806               11.90082659                0.35883916               -0.95037896                0.57478506               -0.50575706                0.47936123               13.09678924               -0.26730512
               4.62500185               10.03123005               11.93670396                0.35378845               -1.00516601                0.53960645               -0.30405848                0.23451450               12.87413641               -0.09626902
               5.61441555               10.00703399               11.97376128                0.37568034               -1.14173135                0.54316194               -0.10650989                0.17598189               12.88856846                0.01872431
               6.60216723                9.98159547               12.01416591                0.42179188               -1.35741278                0.52732664                0.10431711                0.09807612               13.13723226                0.11942190
               7.58726729                9.95437428               12.06010999                0.51312357               -1.76757573                0.57607800                0.34426921               -0.41116597               13.69383214                0.24687646
               8.56681571                9.91781515               12.11541832                0.69234599               -1.09325017               -0.16165016                0.63153827               -0.66086347                7.35157114                0.49466200
               9.56540229                9.89611482               12.03867947                1.00000000               -0.05918624               -0.03223337                0.15928186                0.06210986                0.46800405                0.27282681
              10.56563199                9.87523638               11.95628181                1.00000000                0.02296949                0.12560408               -0.32833497                0.05847437                0.19155921               -0.33204048
               0.32971484                0.18288320               13.21139222                1.00000000               -0.37834049               -0.41705338                1.44682241               -0.07385533               -0.57563227                0.61788732
               1.32593144                0.13558893               13.16022549                1.00000000               -0.31224347               -0.32934335                1.15397425               -0.05708025               -0.71250618                0.02613789
               2.32346997                0.08807495               13.10622747                1.00000000               -0.16795123               -0.24401864                0.83812985               -0.04191201               -0.64643687               -0.18612665
               3.32257241                0.04160131               13.05632564                0.61676612                0.31248802               -0.18622899                0.54493143                0.44335945                0.33281475               -0.43914318
               4.32971973                0.00637794               13.02186880                0.67997621                0.48336697               -0.10250716                0.23953514               -0.02422076                0.95454450                0.05646366
               5.33223975               -0.02093670               12.98432989                0.75121947                0.16763790                0.01036980               -0.07980571                0.00656914                0.60157305                0.03514256
               6.33307249               -0.04708892               12.94304515                0.73870594                0.04345381                0.10754839               -0.40919935                0.00868678                0.44012462               -0.02335965
               7.33310883               -0.07509098               12.90237535                0.84181059                0.04360534                0.21095025               -0.74851498                0.05788424                0.20713221                0.03325565
               8.33394460               -0.10755730               12.85644479                1.00000000                0.19399743                0.32768419               -1.07230299                0.04378153               -0.22273205                0.35395618
               9.33698878               -0.14279279               12.80726880                1.00000000                0.37454015                0.39941311               -1.38437929               -0.05089072               -0.39410847                0.01935071
              10.34143540               -0.17821378               12.75806085                1.00000000                0.44466240                0.48451557               -1.68386488               -0.07859118               -0.40286029               -0.42560760
               0.37627056                1.17871267               13.19300154                1.00000000               -0.35057959               -0.39802298                1.31429511               -0.03160624               -0.06768589                0.84306033
               1.37276476                1.13229550               13.14141373                1.00000000               -0.31129461               -0.30705326                1.02261751               -0.01243633               -0.01654102                0.04157744
               2.37004466                1.08563476               13.09078143                0.77110570               -0.24551230               -0.22054614                0.72313851                0.02241174                0.21375269               -0.52427112
               3.36785451                1.03973902               13.04378561                0.09752518               -0.46490642               -0.17838947                0.42502809                0.61785485                1.51664453               -0.80321325
               4.36074654                1.00535287               13.01930961                0.23088078               -0.44078205                0.08857440                0.19914869                0.15758196                2.15196567                0.69521388
               5.35903887                0.97916699               12.98621128                0.30675843               -0.02550198                0.08966793               -0.08826562                0.33260219                1.48872932                0.28280293
               6.36023650                0.95398657               12.94894285                0.21707467                0.24414954               -0.00432890               -0.38975836                0.31666992                1.34696697               -0.36471571
               7.36392186                0.92701853               12.91330656                0.38229046                0.39984138                0.22457211               -0.68246013                0.42320388                1.27677431                0.55920909
               8.36823332                0.89571954               12.87495094                1.00000000                0.39431233                0.30316458               -0.96207206                0.16723067                0.64318324                0.47810867
               9.37180811                0.86120134               12.82680264                1.00000000                0.39185774                0.38284234               -1.25734335               -0.00151534                0.09395368                0.07552518
              10.37607048                0.82663137               12.77754691                1.00000000                0.42623677                0.45736400               -1.55622161               -0.03084898                0.03361089               -0.50482153
               0.42191705                2.17492274               13.17898643                1.00000000               -0.31564373               -0.36562294                1.20316226               -0.02820320                0.02960201                1.08670311
               1.41876061                2.12944787               13.12283413                1.00000000               -0.27211826               -0.26837394                0.89489910               -0.00537424                0.12500486                0.02163229
               2.41647469                2.08366403               13.06854118                0.38282571               -0.17746026               -0.18087630                0.60200239                0.03434047                0.70516119               -1.08990605
               3.41521141                2.03803352               13.02397454                0.00010000               -1.15156409               -0.16232826                0.29801042                0.92036091                3.68264910               -1.50495650
               4.39344340                2.00814943               13.02929196                0.00010000               -1.24766546                0.25031555                0.28003896                1.78247206                3.82859610               -1.03727375
               5.39025810                1.98085666               12.99297574                0.00010000               -0.09445226                0.04275873               -0.07652871                1.54177512                1.34984138               -0.47182647
               6.39155436                1.95282450               12.94802767                0.00010000                0.47909176               -0.11388347               -0.36817326                1.47412618                2.50181060                0.07856306
               7.39983993                1.92940047               12.93481835                0.00010000                0.57760222               -0.05521977               -0.61045802                1.04905673                2.79195246                0.44485115
               8.40310640                1.89850599               12.89602884                0.43153872                0.31033517                0.28942365               -0.83191382                0.26296854                1.04456419                0.89826202
               9.40604664                1.86486405               12.84756811                1.00000000                0.34259735                0.36537172               -1.12482426                0.04433420                0.38297742                0.38927738
              10.40995835                1.83093350               12.79558334                1.00000000                0.39117124                0.40703281               -1.44047364               -0.01618447                0.20374942               -0.51869612
               0.46665624                3.17140021               13.16530387                1.00000000               -0.27402482               -0.34097109                1.09159765               -0.02582282                0.02921606                1.09650610
               1.46391599                3.12692802               13.10354029                1.00000000               -0.22552089               -0.23360869                0.76250733               -0.00631748                0.03149757               -0.03021588
               2.46214582                3.08201724               13.04176246                0.18678320               -0.10698270               -0.13166287                0.43559001               -0.01275952                0.90271364               -1.25541955
               3.46177633                3.03649246               12.99737782                0.00010000               -0.42864859               -0.03083516                0.13645168                0.94500986                3.74374500               -1.69452669
               4.45357285                3.01035918               12.99257156                0.00010000               -0.82885173                0.17494535                0.01651007                2.39129825                5.24603195               -2.25658915
               5.44519930                2.98002217               12.97989014                0.00010000               -0.61988191                0.05545800               -0.12539734                2.09256842                4.50557499               -1.12725765
               6.44117521                2.95170890               12.96238581                0.00010000               -0.29888924                0.01497761               -0.31174315                1.91385379                4.14938911                0.38187063
               7.43922151                2.92591413               12.94376721                0.00010000               -0.15730496               -0.12807897               -0.49131449                1.40382526                3.93857213                0.28283229
               8.43802911                2.90150801               12.92299845                0.25484090                0.05228861                0.29068126               -0.67726542                0.59980502                2.33661151                1.64374042
               9.44026729                2.86850877               12.87345759                1.00000000                0.27893951                0.33267377               -0.96169342                0.06060430                0.44648409                0.59555109
              10.44360790                2.83477203               12.81491789                1.00000000                0.33406126                0.37318257               -1.31401591               -0.02608202               -0.00535143               -0.39956948
               0.51034497                4.16810332               13.15130353                1.00000000               -0.23277338               -0.31663584                0.97446337               -0.02690621                0.02777957                1.05423830
               1.50801723                4.12477569               13.08385174                1.00000000               -0.18449540               -0.19275331                0.62383277               -0.00631076                0.02530117               -0.05570151
               2.50665506                4.08103077               13.01628367                0.09343183               -0.11237834               -0.07092848                0.27212105                0.02110035                1.27490793               -1.11149045
               3.50576966                4.03741682               12.97379870                0.00010000               -0.44576998                0.32505958               -0.17621610                0.70265762                4.86792556               -0.54335545
               4.49773966                4.01164833               12.97782312                0.00010000               -0.75049578                0.16105076               -0.12878052                1.47081224                6.69175927               -0.83074696
               5.49075975                3.98196582               12.97408838                0.00010000               -0.69000934                0.21084384               -0.17696384                1.36397199                6.10174276               -0.53369846
               6.48393947                3.95312406               12.96837492                0.00010000               -0.63212130                0.19112957               -0.26485242                1.32763351                5.88535225                0.05687469
               7.47811732                3.92683889               12.96234503                0.00010000               -0.57158041                0.15222353               -0.36674127                1.31563167                5.91199243                0.80513773
               8.47250786                3.90431961               12.95899155                0.25094775               -0.20613087                0.22468628               -0.46557544                0.62617591                3.10147961                1.83320593
               9.47399471                3.87151753               12.89840278                1.00000000                0.22011648                0.26714065               -0.79835546                0.03630895                0.11933551                0.54443077
              10.47691019                3.83839715               12.83544237                1.00000000                0.29154868                0.34730288               -1.17635018               -0.02312419                0.00063159               -0.34011482
               0.55277336                5.16506749               13.13660279                1.00000000               -0.19110391               -0.28496471                0.84791223               -0.03046865                0.08624186                0.97950033
               1.55086232                5.12307296               13.06400289                0.82735725               -0.14233300               -0.14514278                0.48093189               -0.01236039                0.14241216               -0.15156634
               2.54992670                5.08059867               12.99246328                0.04739321               -0.28251985               -0.01262913                0.12585648                0.25303734                2.70650602               -1.17500517
               3.54521192                5.04299365               12.97113722                0.00010000               -0.57433008                0.48213841               -0.34450916                0.64219842                6.18913569                0.12045745
               4.53844010                5.01358019               12.96980343                0.00010000               -0.71044529                0.24243790               -0.20969929                1.07716268                7.28463505               -0.36972879
               5.53100302                4.98423905               12.97267210                0.00010000               -0.77926458                0.25733913               -0.19311430                1.02398653                7.41475412               -0.20719081
               6.52285481                4.95553149               12.97641471                0.00010000               -0.83322136                0.26344429               -0.20869861                1.00887113                7.41566552                0.22605655
               7.51433859                4.92895860               12.98173683                0.00010000               -0.84904098                0.21740165               -0.23511694                1.05890958                7.51415546                0.83192458
               8.50587399                4.90600174               12.98978099                0.26227517               -0.37113296                0.12246526               -0.25777370                0.52656645                3.82119340                1.49124915
               9.50691593                4.87385159               12.92332002                0.96370698                0.17560935                0.20358091               -0.63804488                0.02134530                0.05335775                0.52041793
              10.50938617                4.84171809               12.85601924                1.00000000                0.24702424                0.31353204               -1.03188289               -0.02302107                0.01362589               -0.35087033
               0.59372466                6.16240402               13.12093904                1.00000000               -0.14858178               -0.24220393                0.71315679               -0.03323711                0.06845868                0.88886856
               1.59223885                6.12187284               13.04235971                0.69693125               -0.09647769               -0.09403183                0.31903927               -0.01845979                0.17185141               -0.30327369
               2.59179511                6.08077819               12.96579210                0.03076541               -0.33033683                0.04852137               -0.06277014                0.37314047                3.86006906               -1.44417021
               3.58563211                6.04705959               12.96099515                0.00010000               -0.68787965                0.35297878               -0.23387656                0.80399117                7.74735561               -0.54921338
               4.57803752                6.01649709               12.96415865                0.00010000               -0.81719613                0.32946931               -0.22954017                0.92307332                8.32052785               -0.32067590
               5.56928819                5.98711260               12.97317755                0.00010000               -0.93200895                0.33395024               -0.17917795                0.86146741                8.64667004               -0.08144400
               6.55939734                5.95839294               12.98552452                0.00010000               -1.02314604                0.31526468               -0.13973960                0.78407946                8.81209458                0.30341929
               7.54882526                5.93118692               13.00066021                0.00010000               -1.06255638                0.22107830               -0.10287596                0.79305949                8.97414809                0.80170702
               8.53814621                5.90676892               13.01894471                0.27898624               -0.50600014                0.03992400               -0.06201249                0.38274693                4.54106830                1.37463958
               9.53870526                5.87558915               12.94779963                0.88778447                0.12852777                0.14823741               -0.47008893                0.01017853                0.05249707                0.47179630
              10.54071676                5.84466779               12.87630505                1.00000000                0.20115029                0.27438307               -0.89115394               -0.02172967                0.03855879               -0.40895287
               0.63317099                7.16022341               13.10425388                1.00000000               -0.10520271               -0.19189424                0.57177763               -0.03184886                0.03427973                0.81581530
               1.63211896                7.12119232               13.01945122                0.62583917               -0.04841143               -0.04380044                0.15541042               -0.01772225                0.13810002               -0.39143178
               2.63220276                7.08156910               12.93667987                0.03090686               -0.32730588                0.10548143               -0.25571790                0.41152406                4.74693400               -1.63765552
               3.62557284                7.05005323               12.94410691                0.00010000               -0.76771014                0.31099876               -0.27615445                0.85577216                9.38505769               -0.95287075
               4.61684855                7.02016958               12.95680167                0.00010000               -0.96181633                0.40930400               -0.22540179                0.85462830                9.71701533               -0.43485749
               5.60633651                6.99091805               12.97384461                0.00010000               -1.11932417                0.43825097               -0.15024780                0.72222436                9.96423478               -0.06812751
               6.59446207                6.96183678               12.99466212                0.00010000               -1.22563566                0.39038175               -0.06499859                0.56154842               10.17309631                0.30462851
               7.58182380                6.93338017               13.01912415                0.00010000               -1.26676868                0.23294870                0.02685222                0.47797965               10.39188757                0.75631555
               8.56912670                6.90680022               13.04738265                0.30020944               -0.63015857               -0.02916996                0.12734879                0.20015621                5.25210574                1.31032893
               9.56922063                6.87681633               12.97168984                0.85161546                0.08337969                0.09761748               -0.31205016                0.00344557                0.03830115                0.41316211
              10.57079429                6.84720575               12.89562783                1.00000000                0.15736616                0.23366359               -0.75502246               -0.02081571                0.02404059               -0.48004724
               0.67114987                8.15856614               13.08696906                1.00000000               -0.06111570               -0.14068293                0.42893883               -0.02976203                0.01737477                0.78067431
               1.67053871                8.12099683               12.99604046                0.60689424                0.00074054                0.00469911               -0.00811077               -0.01278725                0.07654071               -0.42973512
               2.67116468                8.08288782               12.90626545                0.03707526               -0.31958235                0.15565462               -0.44949848                0.43803148                5.57322050               -1.65466894
               3.66414707                8.05327956               12.92536612                0.00010000               -0.84497127                0.36885672               -0.35959196                0.85119326               11.04178963               -0.93386794
               4.65426526                8.02468317               12.94829254                0.00010000               -1.10407983                0.51066728               -0.24077759                0.74653653               11.18573946               -0.42459203
               5.64206547                7.99587762               12.97392379                0.00010000               -1.30495349                0.54398756               -0.12214356                0.55911362               11.30788168               -0.06674425
               6.62816619                7.96620058               13.00311212                0.00010000               -1.43220250                0.50549571                0.00600356                0.32378080               11.51738979                0.25233101
               7.61342142                7.93584589               13.03668822                0.00515906               -1.47265092                0.29714961                0.14885212                0.08847484               11.81169435                0.63776202
               8.59871317                7.90618552               13.07522622                0.32650046               -0.75263895               -0.09019734                0.30938311               -0.03226212                5.97144461                1.20736377
               9.59836864                7.87754150               12.99492068                0.85952032                0.04042243                0.04673421               -0.15711903               -0.00132298                0.02079602                0.37966414
              10.59952162                7.84934106               12.91436261                1.00000000                0.11529755                0.19392440               -0.62234170               -0.02063972                0.01381133               -0.51798031
               0.70771436                9.15740975               13.06945036                1.00000000               -0.01728273               -0.09345452                0.28714297               -0.02738648                0.00568529                0.64995537
               1.70754154                9.12128630               12.97238196                0.62887976                0.04831445                0.05349270               -0.17065695               -0.00632053                0.08949286               -0.38746610
               2.70868065                9.08468219               12.87697813                0.03029814               -0.33700928                0.19982799               -0.63257718                0.48725630                6.50462235               -1.18017141
               3.70080135                9.05743036               12.90834724                0.00010000               -0.97497099                0.54838632               -0.43386536                0.66987154               12.66121002               -0.58291606
               4.68918123                9.03038293               12.94019919                0.00010000               -1.23999844                0.59955087               -0.26640908                0.49896131               12.52880518               -0.25249934
               5.67600138                9.00179780               12.97351089                0.00010000               -1.41059117                0.61056503               -0.10559407                0.33469339               12.55751731               -0.03591843
               6.66096941                8.97194670               13.01019108                0.00010000               -1.61965136                0.59146884                0.06407179                0.11792202               12.78591074                0.15296624
               7.64360835                8.93932316               13.05213630                0.01744200               -1.70917781                0.50491149                0.25435928               -0.20950345               13.22376629                0.37695955
               8.62678585                8.90499627               13.10155948                0.35641492               -0.87848629               -0.13600781                0.47662578               -0.33700994                6.78763567                0.82119722
               9.62603863                8.87775102               13.01805304                0.91567212               -0.00017439               -0.00280934               -0.00461974               -0.00736347                0.05777602                0.32905604
              10.62678237                8.85108424               12.93276768                0.96979229                0.07437366                0.15479593               -0.49192871               -0.02098899               -0.02414144               -0.43915180
               0.74284905               10.15669705               13.04945078                1.00000000                0.02908212               -0.07127042                0.14376856                0.05043188                0.36203772                0.53002645
               1.74313987               10.12206668               12.94985745                0.84512699                0.09583509                0.07803836               -0.32515550                0.06919959                0.66127650               -0.33447411
               2.74476575               10.08688438               12.85626018                0.52043244               -0.56480533                0.22021877               -0.78016957                0.71753994                7.60688702               -0.76343790
               3.73184376               10.06424729               12.89574943                0.35965255               -1.24443535                0.68169306               -0.50391343                0.59373175               13.84956481               -0.25823034
               4.71987704               10.03667419               12.93365003                0.35406947               -1.23240965                0.62912641               -0.30380132                0.26166223               13.58853096               -0.08785522
               5.70719557               10.00808892               12.97269990                0.37560406               -1.34388865                0.62911158               -0.10526061                0.18720688               13.61332305                0.02897917
               6.69299927                9.97802995               13.01520565                0.42157627               -1.55068960                0.60832582                0.10313384                0.09574627               13.88306821                0.13053753
               7.67618178                9.94594412               13.06350418                0.51377563               -1.97270776                0.66209637                0.33448305               -0.47088730               14.46995673                0.25995179
               8.65354511                9.90346536               13.12160365                0.69200332               -1.20241848               -0.15309070                0.60626555               -0.74701470                7.75862711                0.51511313
               9.65213341                9.87748531               13.04016621                0.99380055               -0.05548580               -0.02657074                0.13737892                0.05805863                0.49083275                0.28444872
              10.65243540                9.85243698               12.95288606                1.00000000                0.03019906                0.13527437               -0.35646970                0.06047035                0.20675609               -0.34363070
               0.37643087                0.20826014               14.22576831                1.00000000               -0.37405499               -0.41106565                1.42947083               -0.07350342               -0.60544930                0.64584886
               1.37269032                0.15534932               14.17170458                1.00000000               -0.30877018               -0.32565246                1.14214777               -0.05752124               -0.75372034                0.03188321
               2.37025546                0.10222523               14.11459294                1.00000000               -0.16552617               -0.24218587                0.83422085               -0.04162439               -0.68836028               -0.18847902
               3.36937979                0.05018556               14.06178504                0.61927522                0.31555350               -0.18610619                0.54556990                0.45856908                0.29377759               -0.47072193
               4.37656653                0.00977410               14.02427778                0.68628967                0.48009177               -0.09205665                0.24219480               -0.03155268                0.90212431                0.07055442
               5.37898163               -0.02238966               13.98356289                0.76046249                0.16023389                0.01350810               -0.07387601                0.00774453                0.54047646                0.04230671
               6.37977121               -0.05334217               13.93901534                0.74629820                0.04137007                0.10687794               -0.39745972                0.00947817                0.37073795               -0.02813598
               7.37980903               -0.08600922               13.89497748                0.84693862                0.04210033                0.20807057               -0.73165377                0.05520660                0.14139591                0.03573120
               8.38061322               -0.12301675               13.84581915                1.00000000                0.18891778                0.32310580               -1.05307527                0.04190784               -0.27289220                0.36569265
               9.38358739               -0.16277551               13.79353140                1.00000000                0.36749196                0.39399928               -1.36317620               -0.05048212               -0.43090802                0.01814947
              10.38796306               -0.20274391               13.74134132                1.00000000                0.43756710                0.47788094               -1.65995542               -0.07733675               -0.43298647               -0.45540572
               0.42860665                1.20414948               14.20605984                1.00000000               -0.34740937               -0.39115425                1.29837834               -0.03190513               -0.07353751                0.88060828
               1.42513256                1.15209279               14.15158418                1.00000000               -0.30927773               -0.30322470                1.01179582               -0.01318616               -0.02637124                0.04889631
               2.42242110                1.09980337               14.09799040                0.78261800               -0.24707533               -0.21909668                0.71823703                0.02364619                0.20117615               -0.52926760
               3.42019105                1.04832450               14.04804466                0.10769173               -0.49412393               -0.17769484                0.42587613                0.64401676                1.54011090               -0.83791339
               4.41253862                1.00885353               14.02129452                0.24620875               -0.47869212                0.08248858                0.19788898                0.09619670                2.19021231                0.75652972
               5.41061721                0.97774542               13.98533974                0.32529127               -0.04314228                0.08863370               -0.08627195                0.30235741                1.49589115                0.29837524
               6.41167577                0.94772661               13.94508482                0.23183483                0.22905885                0.00485427               -0.38249746                0.29803965                1.35359698               -0.36816099
               7.41519839                0.91607148               13.90654383                0.39379235                0.38698333                0.21601529               -0.67065140                0.40517064                1.29257021                0.56442731
               8.41941544                0.88021431               13.86539776                1.00000000                0.38738796                0.29936040               -0.94888170                0.16484757                0.65471029                0.49959330
               9.42294615                0.84116448               13.81430880                1.00000000                0.38713277                0.37811293               -1.24163389               -0.00134173                0.09592853                0.07725283
              10.42715809                0.80203490               13.76207759                1.00000000                0.42119496                0.45118487               -1.53770996               -0.03008149                0.03374108               -0.54018133
               0.47990614                2.20043705               14.19093300                1.00000000               -0.31334358               -0.35743923                1.18716530               -0.02739738                0.03006793                1.13332934
               1.47677270                2.14928482               14.13173214                1.00000000               -0.27047295               -0.26465878                0.88501810               -0.00376804                0.13243333                0.02817276
               2.47449668                2.09784330               14.07453409                0.39701260               -0.17813662               -0.18203441                0.59620163                0.04149271                0.71450218               -1.11871947
               3.47320997                2.04663166               14.02695315                0.00010000               -1.27135658               -0.16214909                0.29693961                0.94291302                3.81710172               -1.55964873
               4.44906955                2.01142387               14.03184327                0.00010000               -1.35271349                0.24422028                0.24015305                1.83455276                4.00084342               -1.07211805
               5.44615570                1.97938301               13.99218118                0.00010000               -0.08318044                0.02556023               -0.08113929                1.59170291                1.38785374               -0.47381786
               6.44740594                1.94675491               13.94436604                0.00010000                0.46345215               -0.12444755               -0.36493324                1.48798726                2.58421838                0.09268167
               7.45542474                1.91831108               13.92873783                0.00010000                0.57056146               -0.06967066               -0.60566054                1.05467403                2.89292123                0.48064083
               8.45881717                1.88297046               13.88774698                0.43825406                0.31576086                0.28744809               -0.82491191                0.26890682                1.11560664                0.94293874
               9.46173996                1.84478675               13.83637482                1.00000000                0.34017182                0.36179484               -1.11422938                0.04525776                0.40711059                0.40947866
              10.46562060                1.80627978               13.78124733                1.00000000                0.38806438                0.40200498               -1.42703897               -0.01536155                0.21615241               -0.55339941
               0.53036316                3.19700070               14.17613276                1.00000000               -0.27122075               -0.33249403                1.07529548               -0.02380965                0.03108218                1.13897129
               1.52765095                3.14679962               14.11112064                1.00000000               -0.22295253               -0.23076039                0.75384942               -0.00374957                0.03423850               -0.02930731
               2.52590411                3.09616268               14.04611843                0.19933910               -0.10911061               -0.13524983                0.43517346               -0.00130967                0.91871370               -1.30369914
               3.52546874                3.04508152               13.99875015                0.00010000               -0.47128914               -0.05252982                0.13724596                0.99058600                3.86082881               -1.83513886
               4.51647833                3.01373793               13.99270257                0.00010000               -0.91742589                0.17468953                0.01151543                2.52229284                5.44997840               -2.40435713
               5.50712022                2.97825662               13.97860680                0.00010000               -0.69854403                0.04446420               -0.12980819                2.18456446                4.69486297               -1.16046872
               6.50250745                2.94523765               13.95928819                0.00010000               -0.35219497               -0.01019718               -0.30799910                1.97734375                4.32212237                0.41307054
               7.50007632                2.91467807               13.93888805                0.00010000               -0.20947684               -0.13580200               -0.48528918                1.45530529                4.10924043                0.34769580
               8.49831791                2.88596327               13.91625276                0.25404482                0.02328244                0.28860983               -0.67298675                0.61412453                2.45426878                1.72838074
               9.50054197                2.84840038               13.86387511                1.00000000                0.27734438                0.32987911               -0.95539737                0.06112154                0.48203788                0.63048884
              10.50386480                2.81007500               13.80182085                1.00000000                0.33228248                0.37012123               -1.30585357               -0.02524448               -0.00353762               -0.42192537
               0.57983210                4.19378717               14.16095716                1.00000000               -0.22963780               -0.30832033                0.95745730               -0.02503670                0.02953621                1.08828959
               1.57753572                4.14466962               14.09005306                1.00000000               -0.18217584               -0.19069189                0.61636921               -0.00417561                0.02624260               -0.06017227
               2.57618859                4.09513830               14.01902174                0.10399901               -0.10446428               -0.07461199                0.27453060                0.01480408                1.23029063               -1.15002045
               3.57544644                4.04558107               13.97216436                0.00010000               -0.49241430                0.29485908               -0.15089262                0.73733453                5.01316662               -0.70534052
               4.56634030                4.01491766               13.97650637                0.00010000               -0.85495844                0.15937063               -0.13388022                1.53557889                7.04584202               -0.90254284
               5.55834727                3.98027230               13.97232219                0.00010000               -0.79044660                0.22000309               -0.17629776                1.41654213                6.40178243               -0.55600314
               6.55053137                3.94655097               13.96575073                0.00010000               -0.72710163                0.19212215               -0.26049164                1.36364125                6.16215566                0.08588553
               7.54380524                3.91559504               13.95870497                0.00010000               -0.65770095                0.15598960               -0.36207170                1.34514798                6.18424371                0.87320531
               8.53737735                3.88874265               13.95433808                0.24810068               -0.24772867                0.22232862               -0.46576141                0.63844874                3.26125894                1.94027953
               9.53885066                3.85138433               13.89042626                1.00000000                0.21945693                0.26550661               -0.79732330                0.03662950                0.14178220                0.57664124
              10.54176649                3.81368221               13.82368776                1.00000000                0.29158234                0.34720299               -1.17478959               -0.02222255                0.00041465               -0.35292802
               0.62809754                5.19083429               14.14498692                1.00000000               -0.18812247               -0.27658744                0.83018147               -0.02871862                0.09234412                1.00445913
               1.62621631                5.14298578               14.06878213                0.81756659               -0.14043994               -0.14355586                0.47439661               -0.01022931                0.15418146               -0.16736505
               2.62528874                5.09467044               13.99375570                0.05623808               -0.28901198               -0.01661201                0.13052444                0.24261889                2.64501248               -1.22508260
               3.62043607                5.05097870               13.96733836                0.00010000               -0.63950305                0.49392958               -0.40949223                0.63961120                6.41135084                0.15393917
               4.61249868                5.01692535               13.96766496                0.00010000               -0.83091588                0.25506339               -0.21867347                1.12886175                7.76817689               -0.37850264
               5.60381775                4.98265669               13.97074674                0.00010000               -0.90205770                0.27433513               -0.19270922                1.04847467                7.80877994               -0.19930363
               6.59445752                4.94908010               13.97435244                0.00010000               -0.95150778                0.28070648               -0.20462735                1.02406500                7.78798399                0.26335466
               7.58478760                4.91779786               13.97940140                0.00010000               -0.95799638                0.22921801               -0.23281522                1.07424799                7.88388624                0.90092573
               8.57529760                4.89040984               13.98717702                0.25873819               -0.42262967                0.12192467               -0.26322613                0.53182435                4.01783789                1.58811780
               9.57633501                4.85371051               13.91690226                0.94762054                0.17634995                0.20438707               -0.64517152                0.02126232                0.06689713                0.55490248
              10.57882459                4.81701906               13.84566433                1.00000000                0.24895889                0.31659235               -1.03844661               -0.02195270                0.02056448               -0.36149868
               0.67495475                6.18825542               14.12797574                1.00000000               -0.14597651               -0.23410267                0.69565315               -0.03125768                0.06845038                0.90647038
               1.67349498                6.14179850               14.04553166                0.68897956               -0.09533532               -0.09331171                0.31496980               -0.01553019                0.17759358               -0.32882333
               2.67304804                6.09480606               13.96522100                0.03755718               -0.37556130                0.04321284               -0.05375975                0.38958801                3.96235526               -1.51580688
               3.66598376                6.05545966               13.95847010                0.00010000               -0.79042471                0.38836478               -0.27936244                0.81413216                8.06536546               -0.42435480
               4.65723955                6.02001893               13.96179488                0.00010000               -0.94108728                0.35354238               -0.24509034                0.95633896                8.76993971               -0.28167237
               5.64716201                5.98575900               13.97138848                0.00010000               -1.06840290                0.36324076               -0.18000858                0.87850166                9.10965239               -0.04940982
               6.63587149                5.95216510               13.98414528                0.00010000               -1.16007787                0.34359524               -0.13720806                0.78599451                9.26633309                0.34888840
               7.62396045                5.92017940               13.99963312                0.00010000               -1.18851531                0.23978057               -0.10340761                0.79122251                9.42933544                0.86766774
               8.61210118                5.89118115               14.01827497                0.27535143               -0.56468803                0.04078631               -0.07217502                0.37895705                4.77776753                1.46137775
               9.61266669                5.85547207               13.94304014                0.87297269                0.13045826                0.15135827               -0.48160837                0.00994409                0.06077501                0.50592668
              10.61471035                5.82001406               13.86732587                1.00000000                0.20436550                0.28002414               -0.90411022               -0.02109193                0.03998325               -0.42241013
               0.72038623                7.18615224               14.10988146                1.00000000               -0.10311596               -0.18493591                0.55530790               -0.02985781                0.03311022                0.82921530
               1.71935507                7.14111954               14.02100697                0.61918205               -0.04834473               -0.04412570                0.15520946               -0.01434657                0.13921895               -0.41746027
               2.71941934                7.09553470               13.93421481                0.03527422               -0.39246110                0.09833710               -0.23972857                0.44952895                4.93566018               -1.71096817
               3.71150585                7.05874600               13.94129588                0.00010000               -0.90466092                0.33936249               -0.29252339                0.91345930                9.81676234               -0.92492180
               4.70132612                7.02399619               13.95451971                0.00010000               -1.11321166                0.44862849               -0.23410068                0.90261500               10.21268560               -0.38848698
               5.68924162                6.98992150               13.97234477                0.00010000               -1.27845551                0.48397959               -0.15129550                0.74120045               10.48092495               -0.02713273
               6.67575701                6.95595200               13.99402209                0.00010000               -1.38228070                0.43277132               -0.06415477                0.55348288               10.69909979                0.35076991
               7.66159600                6.92259347               14.01937940                0.00010000               -1.40864705                0.25982361                0.02339819                0.45580340               10.92607762                0.81595881
               8.64758407                6.89122557               14.04858749                0.29682505               -0.69475121               -0.02751355                0.11345513                0.18394478                5.52456842                1.38985300
               9.64770098                6.85673768               13.96849669                0.83719576                0.08673635                0.10175901               -0.32705927                0.00301467                0.04154343                0.44077333
              10.64931879                6.82261954               13.88799375                1.00000000                0.16178159                0.24120427               -0.77214340               -0.02018177                0.02540827               -0.49670591
               0.76442297                8.18455670               14.09117687                1.00000000               -0.05973854               -0.13529928                0.41416379               -0.02805380                0.01598986                0.79341775
               1.76382559                8.14091598               13.99598468                0.60105861               -0.00054014                0.00338232               -0.00395977               -0.00998952                0.07301999               -0.45493903
               2.76441217                8.09677280               13.90190641                0.03870050               -0.40170699                0.14688890               -0.42561517                0.49659966                5.82302657               -1.72225275
               3.75579145                8.06224691               13.92177926                0.00010000               -1.01479141                0.40462907               -0.36155659                0.94270725               11.57987953               -0.92411138
               4.74411634                8.02899150               13.94588538                0.00010000               -1.28806176                0.57151570               -0.24256281                0.80688405               11.75309170               -0.39302280
               5.73003021                7.99543859               13.97270836                0.00010000               -1.49235841                0.60931953               -0.12215698                0.57921578               11.88649454               -0.03178531
               6.71426917                7.96082052               14.00317370                0.00010000               -1.61136268                0.56679973                0.00534477                0.30648469               12.11130338                0.28939546
               7.69780296                7.92537588               14.03814990                0.00508724               -1.63166500                0.33716347                0.14275740                0.04050310               12.42303567                0.68410154
               8.68163587                7.89063087               14.07823456                0.32369601               -0.82349722               -0.08736999                0.29203580               -0.06610503                6.28171874                1.27588977
               9.68133302                7.85750725               13.99325748                0.84470919                0.04535602                0.05175336               -0.17596441               -0.00272920                0.02057729                0.40472778
              10.68254300                7.82483814               13.90803245                1.00000000                0.12099798                0.20271568               -0.64429145               -0.02001623                0.01406299               -0.53768982
               0.80710659                9.18344625               14.07225061                1.00000000               -0.01674106               -0.08934314                0.27436914               -0.02612987                0.00313094                0.66193140
               1.80693918                9.14118719               13.97072665                0.62296289                0.04569048                0.05096234               -0.16178226               -0.00475900                0.08518744               -0.40783375
               2.80802040                9.09847248               13.87083268                0.02849038               -0.43989419                0.18992975               -0.60076281                0.57472045                6.81667545               -1.22428746
               3.79814130                9.06683858               13.90403854                0.00010000               -1.18741426                0.62060808               -0.42852073                0.76414520               13.29490949               -0.56858206
               4.78427212                9.03542651               13.93754498                0.00010000               -1.45721984                0.67898850               -0.26472835                0.54874844               13.16259759               -0.23463967
               5.76899690                9.00210789               13.97246066                0.00010000               -1.61613514                0.68984818               -0.10500100                0.34788298               13.20119639               -0.01625293
               6.75194942                8.96728800               14.01082600                0.00010000               -1.82005945                0.66782703                0.06215920                0.09919965               13.44820553                0.17322247
               7.73259571                8.92933674               14.05464020                0.01804493               -1.89094138                0.57308497                0.24576304               -0.26721806               13.91237944                0.40105750
               8.71413059                8.88947817               14.10622723                0.35445560               -0.95782934               -0.13009002                0.45624862               -0.39368241                7.14276105                0.86328134
               9.71343913                8.85777275               14.01789903                0.89994148                0.00630540                0.00351098               -0.02709732               -0.01003931                0.05999226                0.34895905
              10.71425670                8.82667385               13.92771061                0.97172149                0.08175688                0.16444361               -0.51972890               -0.02066893               -0.02545319               -0.45811170
               0.84841849               10.18276984               14.05083137                1.00000000                0.02856875               -0.06764087                0.13364569                0.04772894                0.36579523                0.54056679
               1.84870418               10.14193523               13.94667891                0.84267785                0.09183506                0.07480397               -0.31227889                0.06657751                0.67196961               -0.35014550
               2.85025519               10.10057140               13.84865841                0.51888375               -0.72919298                0.20989187               -0.74475592                0.85967115                7.97747002               -0.78851014
               3.83412032               10.07465907               13.89074832                0.36041521               -1.52165988                0.78204949               -0.49522979                0.69789565               14.56495276               -0.24910720
               4.81982200               10.04257127               13.93062794                0.35433384               -1.44969684                0.71447566               -0.30021724                0.28381199               14.28720293               -0.08039210
               5.80512638               10.00923555               13.97165607                0.37549631               -1.53988406                0.71276624               -0.10389241                0.19323815               14.32632032                0.03800091
               6.78902432                9.97417706               14.01622858                0.42127830               -1.74289774                0.68890675                0.10055583                0.08759112               14.61665278                0.14053261
               7.77026843                9.93683758               14.06679965                0.51439310               -2.18490459                0.75008323                0.32362393               -0.54012793               15.23267214                0.27258874
               8.74532622                9.88802907               14.12754363                0.69157758               -1.31659432               -0.14490921                0.58079765               -0.84344148                8.16594012                0.53792163
               9.74393654                9.85757747               14.04142705                0.98583898               -0.04994093               -0.01952723                0.11192546                0.05463860                0.51828631                0.30080486
              10.74432741                9.82812701               13.94915242                1.00000000                0.03908618                0.14531612               -0.39042847                0.06202486                0.21964588               -0.35987516
               0.42573333                0.23521713               15.23998163                1.00000000               -0.37009238               -0.40569799                1.41378608               -0.07319330               -0.63251429                0.67173879
               1.42203241                0.17646740               15.18306845                1.00000000               -0.30555147               -0.32215340                1.13082041               -0.05789787               -0.79076915                0.03695955
               2.41962230                0.11751044               15.12291188                1.00000000               -0.16346407               -0.24021792                0.82938058               -0.04144683               -0.72642532               -0.19124085
               3.41876312                0.05966765               15.06723704                0.62051845                0.31810376               -0.18550026                0.54452248                0.47120460                0.25643154               -0.49916287
               4.42598438                0.01375555               15.02671270                0.69103508                0.47742987               -0.08375800                0.24470334               -0.03846480                0.84969866                0.08473293
               5.42831172               -0.02364428               14.98285237                0.76792519                0.15441434                0.01604903               -0.06885458                0.00815880                0.47987185                0.04976413
               6.42907266               -0.05979061               14.93509596                0.75258205                0.04106068                0.10632489               -0.38733521                0.00993069                0.30313640               -0.03271596
               7.42913294               -0.09750905               14.88774227                0.85147444                0.04300875                0.20557707               -0.71618850                0.05223663                0.07632322                0.03878837
               8.42993284               -0.13940067               14.83538328                1.00000000                0.18577546                0.31842409               -1.03457268                0.03919356               -0.32413191                0.37738056
               9.43284845               -0.18398461               14.78000528                1.00000000                0.36114889                0.38875857               -1.34232995               -0.04984665               -0.46866429                0.01710935
              10.43715582               -0.22879442               14.72486174                1.00000000                0.43073703                0.47161598               -1.63609077               -0.07578942               -0.46361332               -0.48527558
               0.48375113                1.23116015               15.21896911                1.00000000               -0.34443570               -0.38503632                1.28411728               -0.03208877               -0.07867940                0.91556971
               1.48030677                1.17324586               15.16164964                1.00000000               -0.30717104               -0.29962674                1.00152016               -0.01380515               -0.03494695                0.05555040
               2.47760771                1.11510826               15.10514617                0.79175162               -0.24770768               -0.21744139                0.71274360                0.02440984                0.19027448               -0.53508998
               3.47535262                1.05781265               15.05230313                0.11635468               -0.51760065               -0.17662982                0.42551549                0.66454208                1.56176301               -0.87136304
               4.46725569                1.01291797               15.02326739                0.25962802               -0.50931137                0.07717299                0.19695358                0.04757155                2.22520390                0.80570515
               5.46516639                0.97651621               14.98448584                0.34186181               -0.05756699                0.08787642               -0.08475154                0.27676740                1.50283333                0.31378294
               6.46610435                0.94127264               14.94129290                0.24533804                0.21469715                0.01326877               -0.37652743                0.28199623                1.36066413               -0.37123587
               7.46946033                0.90454672               14.89989353                0.40480638                0.37291011                0.20890543               -0.66003933                0.38477074                1.30745030                0.56948296
               8.47356256                0.86378357               14.85597331                1.00000000                0.37932616                0.29552151               -0.93645664                0.16024796                0.66505271                0.52106715
               9.47704686                0.81990297               14.80196996                1.00000000                0.38225860                0.37359676               -1.22649114               -0.00108900                0.09750528                0.07944327
              10.48120773                0.77592174               14.74679271                1.00000000                0.41608725                0.44583318               -1.51950362               -0.02909562                0.03370295               -0.57537887
               0.54092012                2.22751640               15.20272973                1.00000000               -0.31119352               -0.35023384                1.17295401               -0.02660378                0.03083194                1.17674222
               1.53780819                2.17047486               15.14053449                1.00000000               -0.26882044               -0.26124529                0.87567142               -0.00232322                0.13921348                0.03424088
               2.53554371                2.11316161               15.08046522                0.41046286               -0.17819645               -0.18263322                0.58968418                0.04715297                0.72258447               -1.14533539
               3.53424426                2.05613505               15.02991333                0.00010000               -1.36557346               -0.16170865                0.29425666                0.95967705                3.93433992               -1.61276696
               4.50823225                2.01529901               15.03409502                0.00010000               -1.43759298                0.23454848                0.21626957                1.87191356                4.15943673               -1.10441600
               5.50549240                1.97811325               14.99135296                0.00010000               -0.07750852                0.00777877               -0.08391264                1.62601526                1.43382564               -0.47461125
               6.50668207                1.94047477               14.94072900                0.00010000                0.44125097               -0.13435085               -0.36311657                1.48939288                2.66337099                0.11053926
               7.51431742                1.90666906               14.92270514                0.00010000                0.55497360               -0.08229043               -0.60128778                1.05082083                2.99315384                0.51934921
               8.51778155                1.86650976               14.87953060                0.44508934                0.31855405                0.28504780               -0.81884207                0.26915674                1.18653814                0.98902853
               9.52068850                1.82348732               14.82528352                1.00000000                0.33774107                0.35820696               -1.10454770                0.04527879                0.43174689                0.43097129
              10.52453637                1.78012224               14.76704256                1.00000000                0.38478683                0.39856777               -1.41437104               -0.01461172                0.22873571               -0.58772382
               0.59730213                3.22415547               15.18680978                1.00000000               -0.26870363               -0.32507237                1.06098147               -0.02226287                0.03347581                1.17787189
               1.59461509                3.16802096               15.11861727                1.00000000               -0.22057767               -0.22820513                0.74593519               -0.00152820                0.03797289               -0.02877104
               2.59289058                3.11145560               15.05046593                0.21174323               -0.11031654               -0.13842628                0.43396521                0.00816833                0.93242057               -1.34757529
               3.59240876                3.05457847               15.00012274                0.00010000               -0.50874023               -0.07066271                0.13670031                1.02287286                3.97034933               -1.96120825
               4.58271577                3.01760894               14.99280187                0.00010000               -0.99489125                0.16680392                0.00959262                2.61798670                5.64610241               -2.53327774
               5.57251094                2.97667178               14.97729397                0.00010000               -0.76896859                0.02962802               -0.13169101                2.25176607                4.88055308               -1.18653458
               6.56733640                2.93858562               14.95622583                0.00010000               -0.40345914               -0.03486239               -0.30471950                2.01734310                4.49334470                0.45016846
               7.56444175                2.90290091               14.93406142                0.00010000               -0.26044850               -0.14397071               -0.48087641                1.48981644                4.27568823                0.41815351
               8.56212743                2.86948453               14.90953871                0.25351039               -0.00509014                0.28455951               -0.67088184                0.61982006                2.57033402                1.81594693
               9.56433995                2.82706711               14.85434965                1.00000000                0.27591105                0.32679381               -0.95019144                0.06003672                0.51811154                0.66736137
              10.56764565                2.78389309               14.78880082                1.00000000                0.33056985                0.36864382               -1.29839072               -0.02444635               -0.00161039               -0.44436412
               0.65274389                4.22101495               15.17045268                1.00000000               -0.22663963               -0.30086909                0.94288791               -0.02403461                0.03195239                1.11808792
               1.65047750                4.16591076               15.09617912                1.00000000               -0.17971638               -0.18869540                0.60873072               -0.00298954                0.02827577               -0.06533225
               2.64914957                4.11039309               15.02177428                0.11428303               -0.09645607               -0.07789182                0.27635040                0.00955862                1.19362182               -1.18503133
               3.64854837                4.05472180               14.97078085                0.00010000               -0.53254481                0.25941113               -0.12655510                0.76814564                5.14582540               -0.89637539
               4.63849867                4.01863509               14.97514552                0.00010000               -0.94986691                0.15563453               -0.13689430                1.58317476                7.37875568               -0.97167543
               5.62955104                3.97870581               14.97056243                0.00010000               -0.88494303                0.22574481               -0.17527564                1.45613153                6.69850511               -0.57122629
               6.62079981                3.93977752               14.96316509                0.00010000               -0.81680970                0.19092010               -0.25712204                1.38536317                6.43481542                0.12026969
               7.61321484                3.90378964               14.95510359                0.00010000               -0.73940290                0.15740250               -0.35917805                1.35867091                6.45090193                0.94538129
               8.60601175                3.87220095               14.94967633                0.24557813               -0.28670865                0.21713415               -0.46727277                0.64180018                3.41892924                2.04996352
               9.60748067                3.83002320               14.88245631                1.00000000                0.21918620                0.26343219               -0.79655415                0.03603886                0.16473256                0.60904818
              10.61039547                3.78749512               14.81194658                1.00000000                0.29148046                0.34784569               -1.17298846               -0.02142340               -0.00000400               -0.36702647
               0.70702982                5.21813809               15.15320642                1.00000000               -0.18526575               -0.26880316                0.81530361               -0.02720703                0.09813842                1.02525946
               1.70517717                5.16424705               15.07349082                0.80826786               -0.13795576               -0.14196137                0.46639924               -0.00861826                0.16548781               -0.18318498
               2.70427071                5.10989776               14.99507376                0.06492176               -0.28237458               -0.01950720                0.13010313                0.22369289                2.54693201               -1.27041194
               3.69952968                5.05976670               14.96294738                0.00010000               -0.69377255                0.49465885               -0.45745512                0.63205162                6.61385999                0.15160709
               4.69039526                5.02072163               14.96542997                0.00010000               -0.95192695                0.26869050               -0.22770468                1.17196201                8.26927649               -0.39048571
               5.68049114                4.98118668               14.96881791                0.00010000               -1.02177165                0.29102848               -0.19318648                1.06310933                8.20051631               -0.18820824
               6.66995983                4.94240403               14.97232216                0.00010000               -1.06496981                0.29617717               -0.20227723                1.02709177                8.15543866                0.30459344
               7.65919174                4.90604896               14.97708052                0.00010000               -1.06149721                0.23863141               -0.23234781                1.07453175                8.24638388                0.97316470
               8.64872988                4.87382721               14.98451646                0.25558897               -0.47125887                0.11925253               -0.26903801                0.52847919                4.21034664                1.68688770
               9.64976656                4.83233575               14.91041659                0.93097515                0.17717286                0.20450271               -0.65151420                0.02059916                0.08036377                0.58939279
              10.65227334                4.79085001               14.83525031                1.00000000                0.25067754                0.31975237               -1.04339647               -0.02110009                0.02856388               -0.37395181
               0.75998183                6.21563889               15.13485211                1.00000000               -0.14363734               -0.22657488                0.68080837               -0.02911819                0.06824545                0.92063768
               1.75854546                6.16307153               15.04865910                0.68154144               -0.09390275               -0.09284767                0.31048606               -0.01215606                0.18304046               -0.35314871
               2.75810378                6.11000294               14.96471691                0.04437146               -0.40899595                0.03832805               -0.04799310                0.39498894                4.02820780               -1.58138264
               3.75036554                6.06461498               14.95540790                0.00010000               -0.87929255                0.42394659               -0.33909019                0.80397310                8.36269916               -0.28069382
               4.74051793                6.02400890               14.95925684                0.00010000               -1.06173557                0.37938547               -0.26286041                0.97847631                9.23515124               -0.24222574
               5.72913083                5.98452638               14.96957738                0.00010000               -1.20192819                0.39344206               -0.18307638                0.88268313                9.57370591               -0.01554966
               6.71647936                5.94570106               14.98278036                0.00010000               -1.29242679                0.37098702               -0.13683634                0.77427500                9.71555604                0.39693388
               7.70328229                5.90856227               14.99859206                0.00010000               -1.30924094                0.25667996               -0.10582546                0.77365775                9.87633552                0.93635215
               8.69029454                5.87458600               15.01750121                0.27213430               -0.62062171                0.04052338               -0.08295409                0.36609367                5.01013698                1.55042492
               9.69086986                5.83411325               14.93816746                0.85789290                0.13252116                0.15393542               -0.49288548                0.00914194                0.06870001                0.54160414
              10.69294497                5.79389017               14.85822284                1.00000000                0.20751081                0.28575210               -0.91593482               -0.02055798                0.04120884               -0.43666595
               0.81158218                7.21360659               15.11536004                1.00000000               -0.10121851               -0.17867720                0.54162899               -0.02803870                0.03219832                0.83968845
               1.81056999                7.16239010               15.02255541                0.61306643               -0.04775659               -0.04465822                0.15400719               -0.01090771                0.14078336               -0.44170563
               2.81062704                7.11066432               14.93188530                0.03986738               -0.44834039                0.09109736               -0.22810988                0.47911933                5.09925220               -1.77718125
               3.80160318                7.06824563               14.93825644                0.00010000               -1.02868306                0.37198522               -0.32153105                0.95225835               10.22486855               -0.87357656
               4.79005338                7.02830934               14.95211965                0.00010000               -1.25752748                0.48942745               -0.24846513                0.93449808               10.70889741               -0.33472410
               5.77645263                6.98905552               14.97081870                0.00010000               -1.43219772                0.52998204               -0.15522963                0.74453212               10.99578575                0.01612813
               6.76140943                6.94982377               14.99337902                0.00010000               -1.53363394                0.47417567               -0.06563902                0.52991942               11.21954801                0.39884337
               7.74577996                6.91118256               15.01959211                0.00010000               -1.54543263                0.28524259                0.01809084                0.41764444               11.45186731                0.87813351
               8.73050078                6.87463768               15.04965175                0.29381342               -0.75673583               -0.02612166                0.09866114                0.15886654                5.79316382                1.47263310
               9.73064524                6.83541446               14.96514866                0.82276495                0.09037859                0.10602350               -0.34314008                0.00199061                0.04501524                0.47038540
              10.73230835                6.79656505               14.88018496                1.00000000                0.16631094                0.24901202               -0.78978283               -0.01954340                0.02661443               -0.51358441
               0.86185405                8.21206535               15.09525234                1.00000000               -0.05844762               -0.13063544                0.40201472               -0.02656161                0.01490112                0.80367470
               1.86126957                8.16217837               14.99596126                0.59580061               -0.00117086                0.00226484               -0.00151684               -0.00736148                0.07034252               -0.47803387
               2.86183063                8.11182489               14.89775314                0.04077627               -0.47519415                0.13900605               -0.40767880                0.54757686                6.05195406               -1.78260294
               3.85176569                8.07205468               14.91813498                0.00010000               -1.17163187                0.44220168               -0.37154834                1.01783044               12.09242671               -0.90165752
               4.83839799                8.03379745               14.94344128                0.00010000               -1.46293229                0.63191170               -0.24850750                0.85145093               12.31220010               -0.35537638
               5.82250704                7.99512602               14.97148065                0.00010000               -1.67236422                0.67347560               -0.12477824                0.58393922               12.45877662                0.00520243
               6.80495071                7.95518458               15.00321902                0.00010000               -1.78428879                0.62662472                0.00254379                0.27428263               12.69837465                0.32788691
               7.78682127                7.91426712               15.03954337                0.00512021               -1.78553684                0.37559990                0.13481825               -0.02231267               13.02584297                0.73292787
               8.76923997                7.87406357               15.08106694                0.32108114               -0.89194837               -0.08424226                0.27344454               -0.10759631                6.58878961                1.34836905
               9.76898230                7.83623372               14.99140139                0.82982458                0.05064756                0.05730830               -0.19614795               -0.00416508                0.02120881                0.43222846
              10.77025292                7.79887041               14.90147678                1.00000000                0.12706236                0.21184938               -0.66732776               -0.01924203                0.01448548               -0.55789451
               0.91082490                9.21099388               15.07493774                1.00000000               -0.01616846               -0.08592398                0.26402090               -0.02505832                0.00103697                0.67202309
               1.91066322                9.16243539               14.96914632                0.61765904                0.04386844                0.04904399               -0.15546315               -0.00333950                0.08206657               -0.42626342
               2.91170227                9.11344444               14.86496288                0.02733945               -0.53379898                0.18189111               -0.57657054                0.65346896                7.10873004               -1.26325567
               3.89998724                9.07708966               14.89977682                0.00010000               -1.38456026                0.68954545               -0.42588122                0.84553628               13.90010426               -0.54792032
               4.88401106                9.04094757               14.93490462                0.00010000               -1.66214738                0.75514921               -0.26473615                0.58753642               13.78279959               -0.21436392
               5.86674429                9.00252503               14.97141087                0.00010000               -1.81285452                0.76660502               -0.10609852                0.35114868               13.83528582                0.00413623
               6.84775397                8.96235626               15.01143426                0.00010000               -2.01447904                0.74254326                0.05834359                0.07037773               14.10196475                0.19404501
               7.82645471                8.91869456               15.05705157                0.01867775               -2.06858602                0.64049374                0.23530141               -0.33522604               14.59231072                0.42724017
               8.80638225                8.87295283               15.11068446                0.35230637               -1.03498039               -0.12362798                0.43377469               -0.45686890                7.49565563                0.90905397
               9.80575510                8.83656063               15.01751110                0.88319819                0.01339412                0.01058235               -0.05167967               -0.01213775                0.06391135                0.37087132
              10.80665014                8.80080204               14.92237310                0.97344559                0.08950356                0.17427253               -0.54832947               -0.01962691               -0.02629793               -0.47749668
               0.95846986               10.21034687               15.05212369                1.00000000                0.02823588               -0.06470159                0.12561666                0.04573421                0.36930181                0.54978964
               1.95875222               10.16315925               14.94361187                0.84050972                0.08879398                0.07238553               -0.30259687                0.06469279                0.68234681               -0.36430493
               2.96024574               10.11546271               14.84136506                0.51768553               -0.87894680                0.20182700               -0.71753243                0.98866421                8.32687632               -0.81078888
               3.94117329               10.08584559               14.88584483                0.36112359               -1.77661955                0.87559277               -0.48643963                0.79049067               15.25094471               -0.23678203
               4.92471335               10.04890043               14.92764568                0.35458366               -1.65259774                0.79528577               -0.29728894                0.30085499               14.96981835               -0.07227548
               5.90812133               10.01045812               14.97062205                0.37536665               -1.72623064                0.79330846               -0.10406288                0.19445460               15.02728539                0.04670132
               6.89018874                9.97003544               15.01721677                0.42091313               -1.93005785                0.76791809                0.09574180                0.07442040               15.33876451                0.15004724
               7.86952017                9.92707700               15.06997666                0.51501695               -2.39761059                0.83824398                0.31029776               -0.61567510               15.98332247                0.28547183
               8.84223653                9.87159101               15.13321961                0.69095347               -1.43149153               -0.13618241                0.55265735               -0.94615440                8.57208955                0.56417673
               9.84089034                9.83644537               15.04240472                0.97676541               -0.04294787               -0.01152606                0.08196403                0.05176652                0.54846925                0.31850382
              10.84137757                9.80235586               14.94507749                0.98754627                0.04872256                0.15538198               -0.42543820                0.06379211                0.23285924               -0.37678790
               0.47760696                0.26371996               16.25404403                1.00000000               -0.36622754               -0.40071857                1.39896317               -0.07288203               -0.65717619                0.69577377
               1.47394468                0.19892611               16.19432098                1.00000000               -0.30242999               -0.31883584                1.11981228               -0.05821779               -0.82413947                0.04135983
               2.47155836                0.13393185               16.13118055                1.00000000               -0.16185372               -0.23836106                0.82439033               -0.04132475               -0.76072579               -0.19450459
               3.47070761                0.07007013               16.07267549                0.62066356                0.31934112               -0.18491812                0.54349888                0.48112442                0.22159563               -0.52430722
               4.47794518                0.01835938               16.02917185                0.69467819                0.47440980               -0.07740655                0.24675193               -0.04509340                0.79749922                0.09909655
               5.48019581               -0.02466134               15.98218580                0.77407121                0.14994267                0.01818240               -0.06539701                0.00776803                0.41949998                0.05730730
               6.48094404               -0.06639037               15.93126863                0.75778669                0.04261841                0.10592217               -0.37899800                0.01000127                0.23757069               -0.03724352
               7.48104817               -0.10953598               15.88065371                0.85544654                0.04617674                0.20342460               -0.70222898                0.04894043                0.01245454                0.04241214
               8.48186757               -0.15664919               15.82512770                1.00000000                0.18437348                0.31375205               -1.01700584                0.03591384               -0.37607332                0.38891013
               9.48473564               -0.20636269               15.76668480                1.00000000                0.35551519                0.38377960               -1.32205580               -0.04898874               -0.50732630                0.01597723
              10.48897787               -0.25631137               15.70861951                1.00000000                0.42422309                0.46578681               -1.61251405               -0.07399053               -0.49482859               -0.51559620
               0.54167199                1.25971278               16.23174218                1.00000000               -0.34154300               -0.37943717                1.27091253               -0.03218804               -0.08330310                0.94819925
               1.53825656                1.19573775               16.17161458                1.00000000               -0.30494453               -0.29620490                0.99167428               -0.01438670               -0.04252858                0.06140308
               2.53557310                1.13154824               16.11224527                0.79868604               -0.24757363               -0.21575114                0.70713812                0.02471849                0.18103058               -0.54195722
               3.53330509                1.06822095               16.05655497                0.12359328               -0.53565604               -0.17567061                0.42545475                0.67982147                1.58246367               -0.90380141
               4.52485998                1.01758531               16.02523359                0.27149451               -0.53283638                0.07208436                0.19681549                0.00865081                2.25775150                0.84835948
               5.52264836                0.97552049               15.98364471                0.35691145               -0.06893062                0.08719970               -0.08373919                0.25429800                1.50917570                0.32933179
               6.52348137                0.93466885               15.93755428                0.25786848                0.20093121                0.02115719               -0.37172927                0.26774583                1.36795075               -0.37438650
               7.52666699                0.89249827               15.89334304                0.41539078                0.35793473                0.20330761               -0.65067270                0.36287646                1.32146624                0.57437608
               8.53064006                0.84648833               15.84666863                1.00000000                0.37049297                0.29174058               -0.92499331                0.15394134                0.67417941                0.54228547
               9.53407685                0.79747511               15.78977898                1.00000000                0.37732959                0.36945884               -1.21213659               -0.00072680                0.09858024                0.08162447
              10.53818665                0.74834650               15.73168751                1.00000000                0.41098092                0.44142872               -1.50185611               -0.02789325                0.03344281               -0.61104323
               0.60491325                2.25613122               16.21439208                1.00000000               -0.30917631               -0.34387947                1.16014230               -0.02563549                0.03155838                1.21718958
               1.60182149                2.19300201               16.14924557                1.00000000               -0.26718596               -0.25790924                0.86681322               -0.00083429                0.14493135                0.03977545
               2.59956953                2.12961683               16.08632777                0.42350577               -0.17772609               -0.18230638                0.58250650                0.05143313                0.72905365               -1.17036139
               3.59826697                2.06655672               16.03283829                0.00010000               -1.43754363               -0.16155561                0.28983882                0.97094660                4.04116676               -1.66451241
               4.57081866                2.01980107               16.03616866                0.00010000               -1.50343675                0.22182836                0.20218009                1.89475489                4.30862084               -1.13432120
               5.56819823                1.97708266               15.99050293                0.00010000               -0.07487439               -0.01020138               -0.08634723                1.64453333                1.48306369               -0.47325929
               6.56932117                1.93403277               15.93710371                0.00010000                0.41439950               -0.14319568               -0.36242436                1.47865191                2.73989602                0.13155243
               7.57648622                1.89453018               15.91671207                0.00010000                0.53241925               -0.09277889               -0.59803966                1.03815344                3.09201402                0.56009393
               8.57996956                1.84918562               15.87137014                0.45199665                0.31883593                0.28240756               -0.81384275                0.26463096                1.25691513                1.03571146
               9.58286294                1.80102649               15.81428386                1.00000000                0.33538407                0.35498515               -1.09610812                0.04484182                0.45662983                0.45319358
              10.58667724                1.75251720               15.75295991                1.00000000                0.38142978                0.39685977               -1.40288085               -0.01374906                0.24140825               -0.62215950
               0.66741770                3.25283519               16.19735239                1.00000000               -0.26634296               -0.31894639                1.04838940               -0.02031197                0.03648471                1.21378971
               1.66475427                3.19057957               16.12603934                1.00000000               -0.21853204               -0.22562946                0.73870733                0.00125358                0.04234108               -0.02935744
               2.66304706                3.12790211               16.05479773                0.22417632               -0.11072426               -0.13934968                0.43219133                0.01500185                0.94398052               -1.38760951
               3.66253978                3.06498984               16.00148416                0.00010000               -0.54089597               -0.08638984                0.13597978                1.04222550                4.07571876               -2.07423373
               4.65222914                3.02202188               15.99289443                0.00010000               -1.06162295                0.15274938                0.01000514                2.68208992                5.83789363               -2.64976757
               5.64130732                2.97531646               15.97597298                0.00010000               -0.83111244                0.01205859               -0.13139781                2.29413108                5.06111477               -1.20584304
               6.63560689                2.93180493               15.95319380                0.00010000               -0.45150604               -0.05863709               -0.30224740                2.03457850                4.66100179                0.49305509
               7.63227720                2.89064269               15.92927052                0.00010000               -0.30852614               -0.15233035               -0.47826045                1.50786835                4.43682789                0.49339399
               8.62943637                2.85213648               15.90283513                0.25314522               -0.03175524                0.27892753               -0.67100620                0.61828888                2.68433459                1.90580311
               9.63164210                2.80457481               15.84487128                1.00000000                0.27469420                0.32359303               -0.94641375                0.05796664                0.55496975                0.70632245
              10.63493025                2.75628369               15.77585304                1.00000000                0.32881515                0.36874925               -1.29162359               -0.02368037                0.00066564               -0.46611418
               0.72901825                4.24975229               16.17981492                1.00000000               -0.22386192               -0.29475709                0.93008936               -0.02259657                0.03407907                1.14481590
               1.72677963                4.18848942               16.10222767                0.99234386               -0.17794783               -0.18687332                0.60277004               -0.00090012                0.03205098               -0.07326391
               2.72545930                4.12682983               16.02454875                0.12433726               -0.08939634               -0.07912670                0.28084996                0.00316325                1.16604524               -1.22219066
               3.72499171                4.06482892               15.96963326                0.00010000               -0.56627320                0.21969736               -0.10423975                0.79217534                5.27275741               -1.10998617
               4.71413383                4.02285605               15.97376848                0.00010000               -1.03469547                0.14912145               -0.13578704                1.61397200                7.69213972               -1.03800563
               5.70429780                3.97732383               15.96881668                0.00010000               -0.97236618                0.22805552               -0.17328687                1.48162664                6.98943715               -0.58056135
               6.69468651                3.93286003               15.96060829                0.00010000               -0.89928788                0.18758814               -0.25496508                1.39282667                6.70169068                0.15939928
               7.68631204                3.89148357               15.95152140                0.00010000               -0.81416492                0.15649984               -0.35857925                1.35739577                6.71108371                1.02159743
               8.67840321                3.85476417               15.94499263                0.24328502               -0.32184904                0.20931129               -0.47081722                0.63734391                3.57475072                2.16281148
               9.67987506                3.80749835               15.87449517                1.00000000                0.21913309                0.26062047               -0.79512560                0.03471782                0.18883723                0.64268552
              10.68278587                3.75989219               15.80022799                1.00000000                0.29108131                0.34900323               -1.16943097               -0.02070691               -0.00079898               -0.38091964
               0.78949151                5.24694005               16.16129299                1.00000000               -0.18327812               -0.26188656                0.80270419               -0.02542398                0.10163473                1.04238493
               1.78765872                5.18684210               16.07811011                0.79923951               -0.13603411               -0.14092461                0.45872373               -0.00545542                0.17510333               -0.19989631
               2.78677082                5.12631958               15.99635776                0.07337275               -0.26508266               -0.02314821                0.12716005                0.19728919                2.42731089               -1.31645733
               3.78235707                5.06938378               15.95818926                0.00010000               -0.73785770                0.48538989               -0.48151382                0.61954134                6.79783719                0.10942356
               4.77201367                5.02500431               15.96311087                0.00010000               -1.07105941                0.28143352               -0.23390431                1.20665275                8.77552112               -0.40619077
               5.76093588                4.97987757               15.96688301                0.00010000               -1.13549926                0.30616931               -0.19378251                1.06835999                8.58824132               -0.17472233
               6.74930368                4.93555670               15.97030690                0.00010000               -1.17074536                0.30934451               -0.20170688                1.01882672                8.51701019                0.34945526
               7.73752098                4.89377269               15.97475445                0.00010000               -1.15676113                0.24556438               -0.23423135                1.06101410                8.60166451                1.04899961
               8.72616846                4.85632271               15.98179626                0.25273872               -0.51562689                0.11450907               -0.27579793                0.51699235                4.39957161                1.78821743
               9.72720844                4.80978722               15.90387198                0.91398238                0.17799894                0.20368680               -0.65619173                0.01925280                0.09427689                0.62394046
              10.72972844                4.76326376               15.82479640                1.00000000                0.25200022                0.32269480               -1.04540089               -0.02045233                0.03702093               -0.38803891
               0.84870567                6.24451456               16.14159191                1.00000000               -0.14146723               -0.21971363                0.66805723               -0.02696632                0.06862277                0.93134777
               1.84729099                6.18567093               16.05174138                0.67448992               -0.09211350               -0.09294129                0.30580404               -0.00804716                0.18924532               -0.37627916
               2.84686340                6.12636687               15.96426114                0.05110830               -0.42965952                0.03176293               -0.04402351                0.38991600                4.05446153               -1.64208805
               3.83869780                6.07453672               15.95168829                0.00010000               -0.95451477                0.45818001               -0.40582977                0.77648253                8.63949189               -0.13387891
               4.82777310                6.02848472               15.95653767                0.00010000               -1.17925965                0.40564812               -0.28000200                0.99193160                9.72080987               -0.20459223
               5.81511261                5.98344722               15.96772696                0.00010000               -1.33025873                0.42316070               -0.18751255                0.87621369               10.03826833                0.01951883
               6.80116793                5.93904692               15.98140856                0.00010000               -1.41731488                0.39667591               -0.13858312                0.75092550               10.15966360                0.44775264
               7.78676631                5.89639486               15.99751661                0.00010000               -1.42197015                0.27160712               -0.11046219                0.74235361               10.31537486                1.00838422
               8.77272852                5.85705435               16.01661588                0.26925397               -0.67236240                0.03948992               -0.09493638                0.34497838                5.23818465                1.64239010
               9.77331907                5.81157209               15.93318243                0.84262872                0.13476179                0.15621177               -0.50439826                0.00756862                0.07615046                0.57807994
              10.77542376                5.76634608               15.84900717                1.00000000                0.21046944                0.29150784               -0.92702500               -0.02009827                0.04216088               -0.45264146
               0.90663944                7.24254577               16.12071404                1.00000000               -0.09939674               -0.17310346                0.52988110               -0.02637572                0.03156660                0.84758546
               1.90564547                7.18498327               16.02408711                0.60740596               -0.04680428               -0.04532644                0.15200576               -0.00751489                0.14299104               -0.46490058
               2.90570335                7.12695484               15.92965261                0.04459110               -0.49383022                0.08381484               -0.21980950                0.49891215                5.23522515               -1.83884355
               3.89576887                7.07854738               15.93486526                0.00010000               -1.13807751                0.40783287               -0.36161215                0.97082363               10.61074990               -0.79655396
               4.88294180                7.03311727               15.94955041                0.00010000               -1.39354528                0.53071376               -0.26689369                0.95174869               11.21148631               -0.27476244
               5.86789796                6.98834079               15.96924017                0.00010000               -1.57836251                0.57516248               -0.16145190                0.73441722               11.51074347                0.06174399
               6.85137455                6.94349021               15.99270931                0.00010000               -1.67686745                0.51380526               -0.06946626                0.49350335               11.73494697                0.44941123
               7.83436061                6.89920483               16.01974122                0.00010000               -1.67418782                0.30900628                0.01050020                0.36639379               11.96948146                0.94364647
               8.81789080                6.85711250               16.05056071                0.29110230               -0.81462675               -0.02443989                0.08206015                0.12658779                6.05752486                1.55939104
               9.81806808                6.81291146               15.96163389                0.80829321                0.09438427                0.11086477               -0.36079504                0.00048467                0.04834042                0.50221380
              10.81977848                6.76909391               15.87219809                1.00000000                0.17104047                0.25730103               -0.80816789               -0.01884642                0.02771020               -0.53079031
               0.96330315                8.24105249               16.09921716                1.00000000               -0.05715174               -0.12652097                0.39156388               -0.02527211                0.01409755                0.81180010
               1.96273163                8.18476440               15.99595434                0.59105903               -0.00128108                0.00140181               -0.00053446               -0.00497093                0.06849461               -0.49959332
               2.96327753                8.12804317               15.89375283                0.04317887               -0.53898958                0.13203029               -0.39437407                0.58950607                6.26021822               -1.83767282
               3.95195184                8.08269338               15.91434829                0.00010000               -1.31314274                0.48114683               -0.38971908                1.07443013               12.58250362               -0.86209946
               4.93701467                8.03909900               15.94091523                0.00010000               -1.62619149                0.69087796               -0.25873077                0.88046717               12.86742785               -0.30987144
               5.91942801                7.99495047               15.97021279                0.00010000               -1.84203631                0.73542146               -0.13012664                0.57495214               13.02659562                0.04508927
               6.90017395                7.94932302               16.00322457                0.00010000               -1.94780564                0.68404640               -0.00269789                0.22989902               13.27922661                0.36860324
               7.88047190                7.90257498               16.04084627                0.00525804               -1.93101481                0.41217163                0.12442647               -0.09631750               13.62017757                0.78500679
               8.86155365                7.85656555               16.08370345                0.31860178               -0.95622749               -0.08029650                0.25250242               -0.15461148                6.89217875                1.42524795
               9.86134735                7.81378938               15.98933452                0.81481737                0.05641349                0.06376928               -0.21825862               -0.00564113                0.02238361                0.46253391
              10.86268192                7.77149210               15.89468590                1.00000000                0.13345723                0.22146475               -0.69139584               -0.01831575                0.01500931               -0.57777286
               1.01871018                9.24001535               16.07753102                1.00000000               -0.01547987               -0.08293827                0.25512916               -0.02415321               -0.00068408                0.68061302
               2.01855538                9.18501131               15.96761738                0.61288686                0.04271614                0.04768114               -0.15131294               -0.00208988                0.07997139               -0.44327211
               3.01956450                9.12959544               15.85930126                0.02668688               -0.61768703                0.17540380               -0.55831967                0.72206215                7.38409339               -1.29846144
               4.00620164                9.08817032               15.89552091                0.00010000               -1.56352213                0.75470168               -0.42767307                0.91230712               14.48169490               -0.51749217
               4.98829406                9.04693483               15.93225026                0.00010000               -1.85143290                0.82723172               -0.26786389                0.61526802               14.39182814               -0.18994435
               5.96917298                9.00304921               15.97033869                0.00010000               -1.99730200                0.83983760               -0.10973257                0.34546519               14.46077008                0.02619095
               6.94834802                8.95717114               16.01199287                0.00010000               -2.19906244                0.81449816                0.05201273                0.03350528               14.74746499                0.21610102
               7.92519173                8.90744826               16.05934623                0.01938388               -2.23819257                0.70609247                0.22218967               -0.41022123               15.26307581                0.45601375
               8.90358417                8.85550657               16.11490273                0.34995357               -1.10815132               -0.11616250                0.40831086               -0.52375583                7.84520910                0.95851626
               9.90302871                8.81418684               16.01686543                0.86570405                0.02112796                0.01854663               -0.07865065               -0.01413338                0.06887381                0.39495658
              10.90400673                8.77352321               15.91674402                0.97498901                0.09780206                0.18451909               -0.57812018               -0.01850744               -0.02678311               -0.49701449
               1.07282817               10.23939373               16.05334370                1.00000000                0.02815736               -0.06216278                0.11870817                0.04422941                0.37271799                0.55803207
               2.07310975               10.18571802               15.94062697                0.83860180                0.08657937                0.07067140               -0.29563752                0.06331262                0.69268023               -0.37735505
               3.07455976               10.13155124               15.83430776                0.51675557               -1.01255757                0.19557999               -0.69673835                1.10299534                8.66032645               -0.83111538
               4.05285860               10.09778741               15.88101953                0.36178023               -2.00593099                0.96170891               -0.48025721                0.87031525               15.91293888               -0.21914096
               5.03444114               10.05564363               15.92468216                0.35482199               -1.83787961                0.87088021               -0.29702947                0.31269870               15.63745078               -0.06253947
               6.01610100               10.01174722               15.96957481                0.37522098               -1.89980684                0.86980033               -0.10688544                0.19126997               15.71647176                0.05565762
               6.99644500                9.96561299               16.01814342                0.42049232               -2.10844805                0.84418433                0.08805462                0.05717933               16.04931500                0.15950744
               7.97393204                9.91669683               16.07300561                0.51568376               -2.60525251                0.92485681                0.29389124               -0.69450298               16.72124608                0.29899603
               8.94433995                9.85424230               16.13859678                0.69013369               -1.54419976               -0.12642700                0.52111567               -1.05124700                8.97525552                0.59354133
               9.94304805                9.81416032               16.04306633                0.96697929               -0.03504551               -0.00265281                0.04894591                0.04894333                0.58042302                0.33772061
              10.94363904                9.77518249               15.94064365                0.98739533                0.05909966                0.16592779               -0.46212665                0.06544886                0.24647933               -0.39421168
               0.53203591                0.29373631               17.26796090                1.00000000               -0.36228042               -0.39602153                1.38452359               -0.07245367               -0.68015718                0.71853806
               1.52841310                0.22270740               17.20546469                1.00000000               -0.29913148               -0.31580614                1.10903703               -0.05826966               -0.85460846                0.04499931
               2.52605328                0.15149090               17.13939969                1.00000000               -0.16046801               -0.23690045                0.81914536               -0.04077672               -0.79169563               -0.19853247
               3.52520374                0.08142256               17.07810702                0.62009081                0.31853904               -0.18487331                0.54252779                0.48713800                0.18881448               -0.54533528
               4.53242406                0.02361399               17.03164774                0.69787519                0.47005955               -0.07256507                0.24696151               -0.05223453                0.74404265                0.11323952
               5.53460493               -0.02541597               16.98154443                0.77933453                0.14660547                0.02016849               -0.06384280                0.00639071                0.35924283                0.06441630
               6.53535617               -0.07310676               16.92751600                0.76210418                0.04590160                0.10565929               -0.37206499                0.00971254                0.17456127               -0.04178134
               7.53552296               -0.12203947               16.87369769                0.85887904                0.05120583                0.20153478               -0.68942818                0.04535579               -0.04978203                0.04660550
               8.53638028               -0.17470433               16.81504316                1.00000000                0.18435720                0.30911633               -1.00020508                0.03229436               -0.42839105                0.40017479
               9.53921011               -0.22985343               16.75356416                1.00000000                0.35047683                0.37898254               -1.30220753               -0.04795499               -0.54677846                0.01456302
              10.54338982               -0.28524236               16.69261146                1.00000000                0.41797109                0.46028269               -1.58913841               -0.07192317               -0.52662631               -0.54657118
               0.60234027                1.28977609               17.24438736                1.00000000               -0.33871642               -0.37431612                1.25847140               -0.03225471               -0.08754425                0.97895764
               1.59895311                1.21954934               17.18148313                1.00000000               -0.30261701               -0.29308967                0.98241513               -0.01480876               -0.04935405                0.06634687
               2.59628793                1.14912190               17.11928893                0.80264390               -0.24697661               -0.21444859                0.70215750                0.02516379                0.17366564               -0.55060130
               3.59401357                1.07957383               17.06081222                0.12946080               -0.54834777               -0.17534734                0.42872675                0.68947043                1.60220681               -0.93608814
               4.58532098                1.02288834               17.02720370                0.28241989               -0.54921792                0.06688774                0.19752067               -0.02360729                2.28743847                0.88677393
               5.58302922                0.97478571               16.98281106                0.37101137               -0.07779665                0.08678848               -0.08325089                0.23375896                1.51346874                0.34380871
               6.58376504                0.92794983               16.93385832                0.26972938                0.18730443                0.02865237               -0.36793614                0.25524209                1.37465003               -0.37803761
               7.58677531                0.87997588               16.88688008                0.42560538                0.34225820                0.19914631               -0.64254247                0.34026552                1.33437978                0.57889486
               8.59061021                0.82838684               16.83747344                1.00000000                0.36121345                0.28809098               -0.91455960                0.14641468                0.68198012                0.56303519
               9.59399957                0.77393639               16.77772723                1.00000000                0.37246522                0.36561625               -1.19863435               -0.00025745                0.09906188                0.08331781
              10.59805951                0.71936047               16.71675559                1.00000000                0.40599372                0.43779415               -1.48486632               -0.02646132                0.03292932               -0.64776126
               0.67184431                2.28624998               17.22593258                1.00000000               -0.30731884               -0.33838326                1.14871329               -0.02455470                0.03233304                1.25492988
               1.66877112                2.21684561               17.15787076                1.00000000               -0.26561201               -0.25488182                0.85877135                0.00077072                0.14909546                0.04437152
               2.66653207                2.14720193               17.09211535                0.43699231               -0.17722084               -0.18197351                0.57458840                0.05537192                0.73304429               -1.19476158
               3.66522670                2.07791561               17.03571011                0.00010000               -1.48960233               -0.16374996                0.28481152                0.97813429                4.14254601               -1.71649548
               4.63674002                2.02495175               17.03813862                0.00010000               -1.55040406                0.20627131                0.19291210                1.90340195                4.45129650               -1.16209420
               5.63421862                1.97631980               16.98962601                0.00010000               -0.07345872               -0.02722711               -0.09036417                1.64595881                1.53148234               -0.46966928
               6.63527085                1.92746629               16.93348051                0.00010000                0.38363241               -0.15038405               -0.36248405                1.45587493                2.81280418                0.15479061
               7.64189127                1.88194345               16.91074435                0.00010000                0.50386062               -0.10082066               -0.59636414                1.01764461                3.18849581                0.60205030
               8.64534806                1.83105749               16.86325375                0.45891920                0.31700283                0.27956346               -0.81020797                0.25592989                1.32637347                1.08228753
               9.64823133                1.77745889               16.80336136                1.00000000                0.33321888                0.35229287               -1.08916808                0.04389450                0.48125082                0.47522693
              10.65201244                1.72351353               16.73898494                1.00000000                0.37811104                0.39711296               -1.39271036               -0.01274024                0.25393401               -0.65736164
               0.74065792                3.28300843               17.20777757                1.00000000               -0.26413491               -0.31396553                1.03737248               -0.01788917                0.03947000                1.24636884
               1.73801658                3.21445171               17.13339142                1.00000000               -0.21662784               -0.22354490                0.73213489                0.00437801                0.04678438               -0.03038124
               2.73632537                3.14548243               17.05910975                0.23743205               -0.10950668               -0.14063428                0.43079402                0.01899670                0.95432718               -1.42267109
               3.73582644                3.07629883               17.00284233                0.00010000               -0.56702702               -0.10493198                0.13634853                1.05442172                4.18455265               -2.18006636
               4.72498483                3.02701377               16.99300197                0.00010000               -1.11962937                0.13533919                0.01491371                2.71801846                6.02118832               -2.75128497
               5.71343385                2.97424117               16.97466602                0.00010000               -0.88629702               -0.00676276               -0.13049977                2.31048669                5.23321780               -1.21877686
               6.70725889                2.92494215               16.95018088                0.00010000               -0.49484315               -0.08069373               -0.30145239                2.02881684                4.82279572                0.54096247
               7.70353699                2.87795946               16.92449621                0.00010000               -0.35227600               -0.16028910               -0.47769704                1.50984307                4.59151727                0.57229396
               8.70021337                2.83397811               16.89611859                0.25287629               -0.05577797                0.27192794               -0.67344248                0.61038613                2.79546993                1.99706632
               9.70242143                2.78098225               16.83542137                1.00000000                0.27410356                0.32086568               -0.94526010                0.05576719                0.59242346                0.74709135
              10.70569544                2.72730273               16.76296834                1.00000000                0.32740061                0.37099220               -1.28707536               -0.02288108                0.00379322               -0.48639225
               0.80859996                4.27997067               17.18905446                1.00000000               -0.22152857               -0.28998152                0.91854694               -0.02107843                0.03862161                1.16843402
               1.80638468                4.21237471               17.10823452                0.98089749               -0.17675416               -0.18581469                0.59908615                0.00082288                0.03970004               -0.08377855
               2.80506488                4.14438924               17.02739128                0.13406936               -0.08004422               -0.08130979                0.28720800               -0.00726660                1.14609849               -1.26330329
               3.80478379                4.07581697               16.96869605                0.00010000               -0.59534183                0.18006526               -0.08808334                0.80880792                5.38555889               -1.32218651
               4.79315804                4.02765853               16.97242978                0.00010000               -1.11419105                0.14074285               -0.12850773                1.62973379                7.98271639               -1.09827576
               5.78249997                3.97618454               16.96709669                0.00010000               -1.05145751                0.22703913               -0.17144762                1.49099805                7.27050370               -0.58600122
               6.77212889                3.92585241               16.95806579                0.00010000               -0.97238982                0.18253550               -0.25464008                1.38614182                6.96085382                0.20254753
               7.76305218                3.87873767               16.94793201                0.00010000               -0.87979497                0.15371431               -0.36061331                1.34211601                6.96330496                1.10138572
               8.75453300                3.83649605               16.94025998                0.24114192               -0.35150644                0.19950991               -0.47816636                0.62644725                3.72762862                2.27904520
               9.75602205                3.78387621               16.86655380                1.00000000                0.21904305                0.25725300               -0.79349702                0.03339227                0.21461962                0.67778065
              10.75891386                3.73093337               16.78855796                1.00000000                0.28918079                0.35036601               -1.16218268               -0.02080926               -0.00083931               -0.39263087
               0.87542828                5.27720879               17.16926051                1.00000000               -0.18138162               -0.25629377                0.79122285               -0.02456955                0.10487106                1.05670057
               1.87361446                5.21073541               17.08266530                0.79026400               -0.13452513               -0.14028807                0.45303165               -0.00380539                0.18419622               -0.21970382
               2.87273778                5.14385623               16.99761697                0.08137143               -0.24405751               -0.02614530                0.12614074                0.16729663                2.29990036               -1.36859315
               3.86873331                5.07990013               16.95331710                0.00010000               -0.77629220                0.47222132               -0.47465779                0.60337229                6.95840932                0.03786764
               4.85721193                5.02982863               16.96075188                0.00010000               -1.18366883                0.29094918               -0.23632367                1.23096201                9.27299741               -0.42614892
               5.84505993                4.97878195               16.96494226                0.00010000               -1.23916680                0.31875240               -0.19487933                1.06447846                8.96937368               -0.16015558
               6.83242860                4.92859286               16.96828803                0.00010000               -1.26621315                0.32006458               -0.20313350                1.00029382                8.87142134                0.39766461
               7.81973567                4.88103375               16.97239590                0.00010000               -1.24124085                0.25027548               -0.23881447                1.03528640                8.94899403                1.12891228
               8.80760378                4.83796830               16.97900050                0.25010285               -0.55418561                0.10866487               -0.28589314                0.49764923                4.58566388                1.89358011
               9.80865196                4.78612731               16.89729276                0.89679448                0.17805724                0.20183661               -0.65721200                0.01606366                0.10881250                0.65775258
              10.81116492                4.73431005               16.81434229                1.00000000                0.25129636                0.32511359               -1.04267872               -0.02048417                0.04633005               -0.40335549
               0.94105534                6.27484480               17.14821325                1.00000000               -0.13942049               -0.21378737                0.65655615               -0.02563024                0.06922823                0.93919800
               1.93966114                6.20956895               17.05477518                0.66773806               -0.09046229               -0.09281430                0.30104827               -0.00508388                0.19623895               -0.39964964
               2.93924609                6.14386634               16.96383644                0.05764852               -0.43911453                0.02697627               -0.04160089                0.37540345                4.04195315               -1.70039804
               3.93087884                6.08526140               16.94729131                0.00010000               -1.01753163                0.48772091               -0.46797103                0.73991243                8.89612390                0.00227536
               4.91889546                6.03347752               16.95365680                0.00010000               -1.29267687                0.43039528               -0.29427207                0.99972300               10.22766640               -0.17118344
               5.90502531                5.98255959               16.96582712                0.00010000               -1.45062419                0.45113042               -0.19278940                0.86124276               10.50179297                0.05522909
               6.88988298                5.93225370               16.98000870                0.00010000               -1.53214224                0.42015565               -0.14240841                0.71811574               10.59800768                0.50153193
               7.87438246                5.88374318               16.99638282                0.00010000               -1.52452796                0.28460427               -0.11764339                0.69990780               10.74610666                1.08451991
               8.85939242                5.83866935               17.01560249                0.26663001               -0.71904428                0.03848122               -0.10865337                0.31622899                5.46168334                1.73819960
               9.86000158                5.78791294               16.92807949                0.82724525                0.13731371                0.15896705               -0.51773918                0.00444994                0.08287042                0.61518844
              10.86213869                5.73743564               16.83968234                1.00000000                0.21371159                0.29802352               -0.93962430               -0.01926808                0.04276994               -0.47095269
               1.00546737                7.27293305               17.12595766                1.00000000               -0.09761234               -0.16802173                0.51908544               -0.02507713                0.03127286                0.85325241
               2.00449124                7.20887913               17.02559553                0.60213558               -0.04569853               -0.04563616                0.14941827               -0.00473170                0.14586360               -0.48733999
               3.00455340                7.14439576               16.92748911                0.04934625               -0.52854306                0.07782203               -0.21381404                0.50851863                5.34113255               -1.89746856
               3.99392038                7.08965455               16.93102420                0.00010000               -1.23225990                0.44478195               -0.40903503                0.97076490               10.97519930               -0.69550910
               4.97990820                7.03843653               16.94678178                0.00010000               -1.52058901                0.57113270               -0.28694672                0.95683016               11.72480601               -0.21070218
               5.96350860                6.98780456               16.96758966                0.00010000               -1.71504387                0.61848477               -0.16921743                0.71318736               12.02639144                0.10953615
               6.94560732                6.93699597               16.99198970                0.00010000               -1.80952097                0.55096873               -0.07552298                0.44700292               12.24496553                0.50282223
               7.92731818                6.88672583               17.01980212                0.00010000               -1.79243592                0.33095334                0.00040548                0.30527144               12.47853541                1.01297367
               8.90975860                6.83873793               17.05129296                0.28862810               -0.86717579               -0.02214192                0.06314751                0.08918490                6.31700951                1.65052760
               9.90997467                6.78930665               16.95793276                0.79377803                0.09877754                0.11699609               -0.38035408               -0.00107280                0.05119141                0.53694220
              10.91173415                6.74027052               16.86402160                1.00000000                0.17594864                0.26666903               -0.82786278               -0.01803029                0.02884155               -0.54761268
               1.06866164                8.27148436               17.10308362                1.00000000               -0.05578488               -0.12267206                0.38190546               -0.02425686                0.01352141                0.81822868
               2.06810379                8.20865623               16.99595057                0.58675414               -0.00102993                0.00090964               -0.00075297               -0.00302114                0.06735634               -0.52003628
               3.06864104                8.14542278               16.88986566                0.04579885               -0.59252130                0.12622680               -0.38449574                0.62140108                6.44705756               -1.88890440
               4.05625337                8.09415704               16.91034060                0.00010000               -1.43794958                0.52070182               -0.41462156                1.11145763               13.05158865               -0.80244721
               5.03988205                8.04490017               16.93826667                0.00010000               -1.77618775                0.74726125               -0.27230286                0.89469528               13.42211576               -0.25612446
               6.02072961                7.99492929               16.96887812                0.00010000               -1.99901425                0.79411356               -0.13782796                0.55406914               13.59091970                0.08805423
               6.99990177                7.94327308               17.00316506                0.00010000               -2.09918372                0.73817308               -0.01041305                0.17606848               13.85366673                0.41188822
               7.97874594                7.89036225               17.04203190                0.00551202               -2.06532331                0.44648298                0.11130859               -0.17791913               14.20538571                0.84062147
               8.95859530                7.83822651               17.08611699                0.31622855               -1.01492034               -0.07540447                0.22881785               -0.20503771                7.19122365                1.50645927
               9.95844753                7.79025286               16.98703621                0.79969291                0.06275243                0.07106501               -0.24236316               -0.00704344                0.02391272                0.49617593
              10.95985035                7.74276902               16.88764886                1.00000000                0.14028181                0.23167349               -0.71656891               -0.01722630                0.01567949               -0.59636149
               1.13063850                9.27047961               17.08004032                1.00000000               -0.01460959               -0.08011011                0.24682229               -0.02342719               -0.00210728                0.68805336
               2.13049240                9.20889732               16.96612006                0.60860428                0.04210535                0.04683713               -0.14897402               -0.00106696                0.07871379               -0.45919801
               3.13148061                9.14692029               16.85379648                0.02641345               -0.69101305                0.17023218               -0.54452560                0.77949715                7.64429366               -1.33089506
               4.11667214                9.10006859               16.89122336                0.00010000               -1.72253767                0.81542555               -0.43381479                0.96328795               15.04254610               -0.47481688
               5.09702985                9.05338176               16.92954734                0.00010000               -2.02275340                0.89428337               -0.27420449                0.63216393               14.99163059               -0.16055616
               6.07621708                9.00368683               16.96921622                0.00010000               -2.16670621                0.90848695               -0.11606601                0.33187868               15.07825126                0.05027679
               7.05369573                8.95175944               17.01247451                0.00010000               -2.37053540                0.88257093                0.04294655               -0.00944349               15.38437934                0.23965811
               8.02880637                8.89565549               17.06149536                0.02021314               -2.39642463                0.76879589                0.20617046               -0.48918982               15.92366055                0.48746170
               9.00576724                8.83722984               17.11885067                0.34746388               -1.17575403               -0.10763837                0.37968190               -0.59209611                8.19046148                1.01143905
              10.00529129                8.79072795               17.01593809                0.84768433                0.02950319                0.02725666               -0.10792278               -0.01607285                0.07469632                0.42119466
              11.00635730                8.74490399               16.91081070                0.97639314                0.10660140                0.19516644               -0.60904101               -0.01728869               -0.02700505               -0.51605415
               1.19135767               10.26988216               17.05449786                1.00000000                0.02840943               -0.05974457                0.11204273                0.04299823                0.37614122                0.56556232
               2.19164177               10.20959297               16.93769912                0.83692091                0.08510225                0.06956515               -0.29100792                0.06219939                0.70307936               -0.38956092
               3.19305972               10.14882742               16.82743030                0.51603660               -1.12920534                0.19071301               -0.68083607                1.20154002                8.98072059               -0.85005326
               4.16905766               10.11046555               16.87623969                0.36238988               -2.20763185                1.03969626               -0.47729123                0.93647248               16.55426232               -0.19460547
               5.14890708               10.06278584               16.92170509                0.35504933               -2.00340774                0.94040803               -0.29993979                0.31939658               16.29118830               -0.05066562
               6.12898951               10.01309903               16.96848435                0.37506482               -2.05814215                0.94121915               -0.11266988                0.18417603               16.39414925                0.06512892
               7.10774424                9.96092450               17.01897786                0.42002507               -2.27488841                0.91650610                0.07734549                0.03680781               16.74790589                0.16911062
               8.08349174                9.90573817               17.07585448                0.51643147               -2.80316587                1.00826728                0.27441106               -0.77400067               17.44546455                0.31325562
               9.05168092                9.83607374               17.14364192                0.68918142               -1.65199071               -0.11560956                0.48628459               -1.15564034                9.37387372                0.62562347
              10.05045192                9.79079799               17.04338363                0.95676128               -0.02642118                0.00700420                0.01329078                0.04599401                0.61375480                0.35834586
              11.05115250                9.74667235               16.93583495                0.98725333                0.07005732                0.17683615               -0.50010072                0.06695544                0.26040508               -0.41193827
               0.58899623                0.32523780               18.28173450                1.00000000               -0.35825084               -0.39175498                1.37040045               -0.07152472               -0.70264940                0.74115285
               1.58541372                0.24778922               18.21650172                1.00000000               -0.29570560               -0.31305964                1.09863140               -0.05733450               -0.88410587                0.04794579
               2.58308212                0.17018273               18.14756346                1.00000000               -0.15889346               -0.23621687                0.81274102               -0.03828976               -0.82168514               -0.20406579
               3.58223585                0.09375302               18.08352605                0.61980972                0.31532554               -0.18569185                0.53762656                0.48633659                0.15458446               -0.56226064
               4.58938863                0.02951225               18.03411108                0.70111565                0.46382740               -0.06823417                0.24374964               -0.06083623                0.68793384                0.12587693
               5.59151240               -0.02590628               17.98090894                0.78391309                0.14466840                0.02213563               -0.06371018                0.00392773                0.30057519                0.07083406
               6.59228200               -0.07991063               17.92382733                0.76564271                0.05064841                0.10542131               -0.36580186                0.00921757                0.11486938               -0.04619765
               7.59252537               -0.13496864               17.86686514                0.86179974                0.05756398                0.19981466               -0.67729690                0.04162814               -0.11014817                0.05138125
               8.59343328               -0.19350625               17.80512360                1.00000000                0.18532066                0.30446985               -0.98384185                0.02847783               -0.48077174                0.41119976
               9.59623178               -0.25439756               17.74064065                1.00000000                0.34587428                0.37418312               -1.28250110               -0.04682530               -0.58678212                0.01288994
              10.60035076               -0.31553106               17.67683674                1.00000000                0.41189801                0.45488445               -1.56578005               -0.06957401               -0.55882593               -0.57803411
               0.66572957                1.32132025               18.25691161                1.00000000               -0.33616530               -0.36990983                1.24645152               -0.03179710               -0.09139504                1.00901082
               1.66236791                1.24465862               18.19126288                1.00000000               -0.30061228               -0.29040326                0.97419577               -0.01463930               -0.05487863                0.07022261
               2.65971732                1.16782056               18.12628842                0.80269930               -0.24667282               -0.21409783                0.69917329                0.02732134                0.17037604               -0.56243934
               3.65743446                1.09189610               18.06512950                0.13495075               -0.55537034               -0.17781580                0.43762125                0.69340545                1.61872275               -0.96844014
               4.64860991                1.02882991               18.02918400                0.29328582               -0.55856689                0.06243280                0.19780732               -0.05204812                2.30912241                0.91762849
               5.64626312                0.97431508               17.98197970                0.38465058               -0.08522805                0.08702977               -0.08367532                0.21436281                1.51343230                0.35501417
               6.64690535                0.92114358               17.93019555                0.28113535                0.17381692                0.03583241               -0.36522582                0.24456739                1.37976985               -0.38198122
               7.64973946                0.86702951               17.88049219                0.43546475                0.32635801                0.19618421               -0.63570302                0.31762040                1.34600452                0.58299177
               8.65343251                0.80953845               17.82837744                1.00000000                0.35182388                0.28462348               -0.90511264                0.13807552                0.68847649                0.58326977
               9.65677593                0.74934427               17.76580629                1.00000000                0.36780052                0.36172228               -1.18593229                0.00021556                0.09894235                0.08447768
              10.66078852                0.68901779               17.70199019                1.00000000                0.40125889                0.43441372               -1.46853939               -0.02474968                0.03212407               -0.68531803
               0.74168355                2.31783960               18.23736634                1.00000000               -0.30629202               -0.33397863                1.13803422               -0.02335334                0.03361620                1.29054504
               1.73862063                2.24198115               18.16642099                1.00000000               -0.26462402               -0.25252226                0.85272127                0.00255151                0.15233590                0.04740957
               2.73639107                2.16590077               18.09781954                0.45424301               -0.17630082               -0.18239011                0.56656901                0.05904587                0.73470316               -1.21906513
               3.73509461                2.09019670               18.03853452                0.00010000               -1.52311906               -0.17467663                0.28394346                0.98821482                4.22835729               -1.75768199
               4.70592869                2.03076091               18.04002690                0.00010000               -1.58043135                0.19375572                0.18182923                1.89284614                4.58408200               -1.18872946
               5.70348598                1.97583432               17.98869564                0.00010000               -0.07348856               -0.04224162               -0.09756628                1.62873817                1.57534186               -0.46602008
               6.70445891                1.92080602               17.92985403                0.00010000                0.34984606               -0.15523370               -0.36325414                1.42239906                2.88004095                0.17963870
               7.71048291                1.86895505               17.90478479                0.00010000                0.47105521               -0.10642964               -0.59642964                0.99052958                3.28134857                0.64485112
               8.71388002                1.81218622               17.85516598                0.46578314                0.31369267                0.27665593               -0.80819023                0.24349697                1.39461072                1.12852023
               9.71675676                1.75283689               17.79250050                1.00000000                0.33143629                0.34899607               -1.08372235                0.04179355                0.50529872                0.49627286
              10.72050875                1.69315722               17.72510571                1.00000000                0.37519864                0.39825216               -1.38366292               -0.01178498                0.26627651               -0.69405633
               0.81697940                3.31464068               18.21809984                1.00000000               -0.26216268               -0.31007824                1.02732778               -0.01589947                0.04285518                1.27551191
               1.81435778                3.23960818               18.14068204                1.00000000               -0.21483570               -0.22205880                0.72655878                0.00741349                0.05213580               -0.03212445
               2.81268269                3.16417276               18.06341361                0.25093229               -0.10095795               -0.14221082                0.42980155                0.01615308                0.96360216               -1.45275047
               3.81233862                3.08840257               18.00421113                0.00010000               -0.59267346               -0.11431381                0.13663303                1.05510215                4.25345781               -2.23176127
               4.80082922                3.03270502               17.99319270                0.00010000               -1.17729225                0.11898620                0.01820117                2.72632593                6.18552135               -2.84427014
               5.78879277                2.97347025               17.97336298                0.00010000               -0.92983069               -0.02533783               -0.13283130                2.29598801                5.39388976               -1.22590097
               6.78223261                2.91803891               17.94716476                0.00010000               -0.53114652               -0.10010917               -0.30310904                2.00200109                4.97882860                0.59261608
               7.77816984                2.86490091               17.91971658                0.00010000               -0.39059989               -0.16717221               -0.47933787                1.49668534                4.73958749                0.65418286
               8.77442061                2.81507157               17.88936628                0.25263766               -0.07645145                0.26384674               -0.67827979                0.59386258                2.90271534                2.08862134
               9.77664081                2.75632420               17.82596608                1.00000000                0.27457809                0.31728458               -0.94695721                0.05119866                0.62898359                0.78977186
              10.77991217                2.69698283               17.75011153                1.00000000                0.32713574                0.37542052               -1.28548994               -0.02153550                0.00669611               -0.50279862
               0.89143056                4.31163804               18.19818585                1.00000000               -0.21937444               -0.28627050                0.90802238               -0.01980916                0.04541046                1.18857245
               1.88923682                4.23753998               18.11420939                0.96845825               -0.17554123               -0.18504057                0.59563493                0.00234637                0.05055574               -0.09600106
               2.88791974                4.16305656               18.03029291                0.14232403               -0.07862158               -0.08350988                0.29212084               -0.00976067                1.12858934               -1.30474403
               3.88766439                4.08791042               17.96787159                0.00010000               -0.62661072                0.15716576               -0.06527026                0.80679014                5.47562605               -1.48247265
               4.87538752                4.03314063               17.97119833                0.00010000               -1.17962635                0.12746412               -0.12072928                1.62181853                8.25584330               -1.16213299
               5.86407186                3.97532756               17.96538772                0.00010000               -1.11596283                0.22368892               -0.17216827                1.48288202                7.53962605               -0.58918465
               6.85306827                3.91880383               17.95551549                0.00010000               -1.03439561                0.17640860               -0.25664935                1.36649551                7.21296199                0.24963115
               7.84338395                3.86561160               17.94430914                0.00010000               -0.93671393                0.14996056               -0.36518358                1.31389302                7.20642164                1.18451696
               8.83433399                3.81746316               17.93542930                0.23907694               -0.37572376                0.18901166               -0.48890073                0.60676260                3.87664954                2.39767289
               9.83586947                3.75918258               17.85862523                0.99006147                0.22133895                0.25461932               -0.79974611                0.03022801                0.24447760                0.71869958
              10.83876077                3.70066563               17.77698434                1.00000000                0.28912952                0.35447182               -1.16037636               -0.01950516                0.00533692               -0.39887385
               0.96477935                5.30891527               18.17711745                1.00000000               -0.17931580               -0.25183356                0.78028180               -0.02400018                0.10810773                1.06821843
               1.96298619                5.23590736               18.08717074                0.78138082               -0.13311596               -0.13961362                0.44824001               -0.00284693                0.19306685               -0.24192867
               2.96211703                5.16250256               17.99888058                0.08862522               -0.22979221               -0.02848957                0.12725663                0.14525560                2.18172575               -1.42301516
               3.95839034                5.09154588               17.94869611                0.00010000               -0.81342864                0.44823522               -0.43108664                0.59436370                7.10032792               -0.04843034
               4.94584845                5.03525431               17.95838440                0.00010000               -1.28015670                0.29452621               -0.23779597                1.24006160                9.75082292               -0.45385245
               5.93278721                4.97794402               17.96298542                0.00010000               -1.32849891                0.32884184               -0.19695967                1.05187431                9.34385321               -0.14484045
               6.91927848                4.92156708               17.96624423                0.00010000               -1.34994166                0.32860266               -0.20664832                0.97301113                9.21876459                0.44940719
               7.90578838                4.86790013               17.96997816                0.00010000               -1.31467979                0.25337165               -0.24597418                0.99977180                9.28699789                1.21308196
               8.89298488                4.81885180               17.97607839                0.24760496               -0.58727362                0.10313666               -0.29990778                0.47239897                4.77004281                2.00517353
               9.89404290                4.76141658               17.89072774                0.87950869                0.17855477                0.20266370               -0.66123482                0.01238028                0.12762951                0.69199854
              10.89655598                4.70407227               17.80394282                1.00000000                0.25130713                0.32910462               -1.04630915               -0.01879700                0.05874595               -0.42260208
               1.03696637                6.30660137               18.15472303                1.00000000               -0.13737781               -0.20874053                0.64538992               -0.02487608                0.06972691                0.94491612
               2.03559259                6.23474770               18.05776235                0.66127304               -0.08900168               -0.09231389                0.29652942               -0.00347511                0.20319362               -0.42344014
               3.03518633                6.16248676               17.96342912                0.06388845               -0.43963376                0.02368400               -0.03964482                0.35538681                3.99693021               -1.75729120
               4.02679991                6.09687513               17.94232887                0.00010000               -1.06978605                0.50210144               -0.51466827                0.70671166                9.13702222                0.10867452
               5.01379061                6.03903115               17.95065223                0.00010000               -1.40016707                0.45195281               -0.30406819                1.00266361               10.75205555               -0.14330154
               5.99879657                5.98190440               17.96387117                0.00010000               -1.56091121                0.47682442               -0.19849067                0.83876980               10.96272113                0.09196842
               6.98257239                5.92537589               17.97856039                0.00010000               -1.63509568                0.44116100               -0.14810147                0.67787849               11.02998654                0.55852307
               7.96609466                5.87067903               17.99516374                0.00010000               -1.61534385                0.29575464               -0.12740775                0.64948437               11.16845272                1.16507589
               8.95026551                5.81952589               18.01444282                0.26418580               -0.75990213                0.03783768               -0.12481657                0.28361442                5.68015220                1.83951740
               9.95089662                5.76323585               17.92282764                0.81179094                0.14039748                0.16384999               -0.53403092                0.00210936                0.08851522                0.65177815
              10.95307346                5.70724772               17.83021469                1.00000000                0.21768449                0.30514376               -0.95505672               -0.01773094                0.04310645               -0.49273003
               1.10798915                7.30474046               18.13109575                1.00000000               -0.09578628               -0.16334851                0.50846979               -0.02427217                0.03115350                0.85742045
               2.10703129                7.23406109               18.02707548                0.59719759               -0.04459079               -0.04542794                0.14638194               -0.00300474                0.14908654               -0.50919427
               3.10709734                7.16297624               17.92537633                0.05402515               -0.55255525                0.07354714               -0.20931306                0.50845693                5.41579005               -1.95346300
               4.09598019                7.10158791               17.92668456                0.00010000               -1.31124401                0.47850696               -0.45808021                0.95499081               11.31853509               -0.57767708
               5.08087246                7.04429336               17.94381147                0.00010000               -1.63811557                0.60898947               -0.30598411                0.95107301               12.25066834               -0.14504936
               6.06321787                6.98748051               17.96585582                0.00010000               -1.84055242                0.65902970               -0.17764235                0.68241895               12.54184587                0.15931336
               7.04406141                6.93039030               17.99119885                0.00010000               -1.92949077                0.58500409               -0.08354130                0.39279090               12.74878467                0.55920329
               8.02462806                6.87381522               18.01974933                0.00010000               -1.89805308                0.35075687               -0.01223334                0.23756430               12.97850246                1.08614599
               9.00610035                6.81960856               18.05182366                0.28632844               -0.91323975               -0.01944331                0.04177750                0.04933316                6.57147812                1.74548887
              10.00636326                6.76469358               17.95402681                0.77922271                0.10386407                0.12358601               -0.40152906               -0.00181533                0.05372705                0.57555298
              11.00817763                6.71017514               17.85564084                1.00000000                0.18143652                0.27640282               -0.84897905               -0.01700634                0.03030447               -0.56204354
               1.17783967                8.30333440               18.10685527                1.00000000               -0.05429535               -0.11891397                0.37230495               -0.02355495                0.01310337                0.82357597
               2.17729671                8.23383915               17.99593928                0.58284891               -0.00055088                0.00088563               -0.00194069               -0.00172432                0.06665835               -0.53956152
               3.17782865                8.16395771               17.88606292                0.04852302               -0.63570528                0.12183332               -0.37703228                0.64279292                6.61164252               -1.93714183
               4.16458261                8.10644527               17.90605586                0.00010000               -1.54545896                0.55934938               -0.44336229                1.12873757               13.50033801               -0.72167798
               5.14691947                8.05121094               17.93546917                0.00010000               -1.91172966                0.79959599               -0.28745531                0.89505371               13.97805114               -0.19509225
               6.12634802                7.99508499               17.96745623                0.00010000               -2.14129846                0.84840064               -0.14712828                0.52289924               14.15162394                0.13372231
               7.10409350                7.93707597               18.00301631                0.00010000               -2.23601638                0.78806005               -0.02039433                0.11521192               14.42086495                0.45765008
               8.08162769                7.87769417               18.04307244                0.00589861               -2.18598448                0.47798504                0.09542747               -0.26391089               14.78060727                0.89952320
               9.06037381                7.81913703               18.08827981                0.31394998               -1.06669803               -0.06990688                0.20237164               -0.25681373                7.48549050                1.59123204
              10.06029373                7.76570758               17.98448725                0.78444870                0.06982030                0.07848685               -0.26826303               -0.00809550                0.02582164                0.53295155
              11.06177022                7.71277577               17.88035452                1.00000000                0.14764907                0.24204460               -0.74265871               -0.01599173                0.01646971               -0.61295687
               1.24650856                9.30236218               18.08246747                1.00000000               -0.01350646               -0.07722466                0.23840731               -0.02289777               -0.00330875                0.69475750
               2.24637350                9.23407880               17.96463790                0.60475825                0.04192561                0.04647684               -0.14814082               -0.00035455                0.07804794               -0.47424060
               3.24734707                9.16541291               17.84841075                0.02641182               -0.75358985                0.16624210               -0.53395821                0.82505278                7.88997847               -1.36113811
               4.23130170                9.11277490               17.88684462                0.00010000               -1.86066324                0.87086890               -0.44302115                0.99794068               15.58415396               -0.41840818
               5.21013381                9.06028528               17.92676617                0.00010000               -2.17454321                0.95519382               -0.28292281                0.63872038               15.58325618               -0.12613897
               6.18781084                9.00444853               17.96801737                0.00010000               -2.31886701                0.97142788               -0.12469860                0.31147111               15.68767615                0.07624781
               7.16375647                8.94615150               18.01285180                0.00010000               -2.52610255                0.94562656                0.03126580               -0.05670599               16.01195173                0.26461547
               8.13728878                8.88337492               18.06346964                0.02121768               -2.54028994                0.82747648                0.18727524               -0.56957455               16.57283432                0.52134925
               9.11295067                8.81821042               18.12249637                0.34492113               -1.23630901               -0.09823735                0.34782395               -0.65985683                8.53052991                1.06702222
              10.11256260                8.76626332               18.01470698                0.82932085                0.03853627                0.03642810               -0.13931892               -0.01790022                0.08124838                0.44926773
              11.11372140                8.71501603               17.90456320                0.97768183                0.11587909                0.20597185               -0.64075931               -0.01601435               -0.02697112               -0.53427648
               1.31394847               10.30178991               18.05558455                1.00000000                0.02904252               -0.05722734                0.10492795                0.04186860                0.37963202                0.57263191
               2.31423890               10.23476868               17.93480681                0.83545638                0.08425685                0.06898826               -0.28837626                0.06117206                0.71356655               -0.40107672
               3.31563361               10.16728255               17.82069104                0.51547712               -1.22849249                0.18696427               -0.66858228                1.28335161                9.28962974               -0.86786491
               4.28966905               10.12386265               17.87147370                0.36295725               -2.38066787                1.10877488               -0.47704050                0.98834822               17.17678592               -0.16213818
               5.26802025               10.07031482               17.91868336                0.35527025               -2.14789136                1.00295387               -0.30554744                0.32118928               16.93166286               -0.03653158
               6.24671122               10.01451355               17.96732141                0.37490046               -2.19936311                1.00650238               -0.12111854                0.17372226               17.06028514                0.07510628
               7.22403299                9.95598850               18.01969033                0.41951898               -2.42669708                0.98369990                0.06382271                0.01415951               17.43398897                0.17884351
               8.19817728                9.89424370               18.07849383                0.51729550               -2.98723561                1.08687815                0.25214580               -0.85196182               18.15482891                0.32819923
               9.16428828                9.81717228               18.14832247                0.68817266               -1.75235837               -0.10381418                0.44822734               -1.25661761                9.76650905                0.65975317
              10.16313011                9.76643614               18.04333214                0.94627109               -0.01718861                0.01728180               -0.02460827                0.04289723                0.64804616                0.38006899
              11.16394450                9.71689521               17.93064164                0.98713900                0.08143937                0.18791790               -0.53870557                0.06821829                0.27455929               -0.42971629
               0.64844848                0.35820515               19.29536891                1.00000000               -0.35464463               -0.38806824                1.35707888               -0.06998006               -0.72570558                0.76399536
               1.64490203                0.27414400               19.22743732                1.00000000               -0.29266153               -0.31094800                1.08938394               -0.05460631               -0.91562988                0.05085141
               2.64259525                0.18995965               19.15565451                1.00000000               -0.15771109               -0.23426237                0.80535823               -0.03531981               -0.85818767               -0.21125651
               3.64174781                0.10697044               19.08885955                0.61959810                0.31022963               -0.17738860                0.52994263                0.47576536                0.11377124               -0.57588111
               4.64879984                0.03598568               19.03652273                0.70414785                0.45761826               -0.06605942                0.23914201               -0.07022331                0.63575763                0.13542816
               5.65090018               -0.02614080               18.98027022                0.78776615                0.14487547                0.02400956               -0.06354263                0.00097213                0.24630209                0.07695478
               6.65169735               -0.08676715               18.92019996                0.76849466                0.05617818                0.10506603               -0.35945468                0.00880235                0.05890523               -0.05038442
               7.65202374               -0.14826594               18.86015175                0.86423781                0.06459977                0.19820045               -0.66543985                0.03793417               -0.16861989                0.05670509
               8.65298935               -0.21298801               18.79536633                1.00000000                0.18687908                0.29978564               -0.96770386                0.02457988               -0.53291600                0.42215940
               9.65576132               -0.27992693               18.72791414                1.00000000                0.34158824                0.36930135               -1.26284687               -0.04566144               -0.62701994                0.01121853
              10.65982111               -0.34710993               18.66129586                1.00000000                0.40597894                0.44950789               -1.54250444               -0.06699222               -0.59113602               -0.60942245
               0.73180983                1.35432447               19.26931639                1.00000000               -0.33311063               -0.36662499                1.23464961               -0.03105220               -0.09452367                1.03873204
               1.72847872                1.27103452               19.20096705                1.00000000               -0.29904975               -0.28846801                0.96667747               -0.01224180               -0.05856873                0.07470719
               2.72582883                1.18761703               19.13327239                0.78779224               -0.24931351               -0.21321056                0.69969922                0.03396954                0.17443296               -0.58174865
               3.72349245                1.10519656               19.06956465                0.14098878               -0.55878018               -0.16450489                0.44535555                0.67733650                1.63668695               -1.01589213
               4.71465323                1.03532508               19.03115984                0.30437283               -0.56030696                0.05913914                0.19422360               -0.08182829                2.31900659                0.93724511
               5.71228631                0.97409930               18.98113755                0.39790133               -0.09026418                0.08784569               -0.08586869                0.19782906                1.50899583                0.36220316
               6.71284795                0.91428351               18.92655380                0.29212568                0.16136005                0.04285032               -0.36385339                0.23509670                1.38349844               -0.38536425
               7.71551351                0.85371606               18.87416602                0.44492775                0.31088458                0.19410129               -0.63016586                0.29544423                1.35659083                0.58687903
               8.71906564                0.79000985               18.81937119                1.00000000                0.34260782                0.28135343               -0.89656026                0.12926212                0.69398840                0.60318706
               9.72236567                0.72376609               18.75400858                1.00000000                0.36342808                0.35757444               -1.17401548                0.00057782                0.09833652                0.08555679
              10.72633420                0.65738514               18.68738480                1.00000000                0.39685291                0.43104942               -1.45298219               -0.02277181                0.03105460               -0.72279430
               0.81440733                2.35087265               19.24869326                1.00000000               -0.30426871               -0.33126601                1.12693882               -0.02276062                0.03748933                1.32491687
               1.81136464                2.26837464               19.17492518                1.00000000               -0.26473593               -0.25068536                0.84718002                0.00447933                0.15592896                0.04944428
               2.80911261                2.18569544               19.10344673                0.45519566               -0.18890783               -0.18314919                0.56715002                0.07725930                0.74264897               -1.24972589
               3.80758648                2.10368034               19.04138898                0.00010000               -1.54260371               -0.14350149                0.30831846                0.95485396                4.32916797               -1.83973976
               4.77826053                2.03716846               19.04177521                0.00010000               -1.58440765                0.18159299                0.16084394                1.84129728                4.70579128               -1.21900808
               5.77589833                1.97561611               18.98767469                0.00010000               -0.07390086               -0.05341122               -0.10688533                1.59873384                1.61622499               -0.46420969
               6.77678252                1.91408986               18.92621543                0.00010000                0.31539798               -0.15752456               -0.36556388                1.38169405                2.94179578                0.20634016
               7.78220629                1.85561608               18.89881576                0.00010000                0.43710227               -0.10986452               -0.59825475                0.95814546                3.36989992                0.68892039
               8.78552456                1.79263906               18.84708994                0.47249139                0.30956444                0.27386854               -0.80778339                0.22805117                1.46155314                1.17440317
               9.78839758                1.72722456               18.78168691                1.00000000                0.33014999                0.34434337               -1.07966353                0.03810867                0.52883384                0.51716612
              10.79212756                1.66151105               18.71131168                1.00000000                0.37299835                0.39914888               -1.37580473               -0.01113862                0.27825133               -0.73105787
               0.89635063                3.34769915               19.22832413                1.00000000               -0.26051114               -0.30740689                1.01686094               -0.01514490                0.04722733                1.30234924
               1.89374552                3.26602082               19.14792260                1.00000000               -0.21411565               -0.22043295                0.72185620                0.00894939                0.05887621               -0.03594159
               2.89206832                3.18395404               19.06770578                0.25872102               -0.13145065               -0.14340211                0.42810278                0.05837842                0.97179438               -1.48044790
               3.89111651                3.10232653               19.00557499                0.00010000               -0.62624579               -0.09989005                0.14158100                1.04036592                4.32579679               -2.29693542
               4.87954340                3.03895694               18.99336600                0.00010000               -1.18884577                0.10278578                0.00948393                2.66013945                6.35222537               -2.93211279
               5.86733959                2.97303107               18.97200939                0.00010000               -0.95307739               -0.04188538               -0.13923283                2.26265399                5.55344720               -1.22738786
               6.86048186                2.91113302               18.94411870                0.00010000               -0.56061856               -0.11621460               -0.30683868                1.95859520                5.13225266                0.64746206
               7.85612722                2.85151877               18.91490946                0.00010000               -0.42318378               -0.17248228               -0.48313172                1.47073506                4.88184105                0.73951733
               8.85201818                2.79548722               18.88255299                0.25236292               -0.09356875                0.25491680               -0.68529854                0.56797553                3.00596123                2.18103114
               9.85425585                2.73065296               18.81648223                1.00000000                0.27601324                0.31319847               -0.95118562                0.04199432                0.66463454                0.83124273
              10.85753845                2.66536812               18.73725854                1.00000000                0.32825988                0.38067752               -1.28632458               -0.01974243                0.00859800               -0.51931652
               0.97746110                4.34472452               19.20721491                1.00000000               -0.21723608               -0.28315820                0.89741869               -0.01919269                0.05367709                1.20578042
               1.97528874                4.26396599               19.12014722                0.95572543               -0.17433134               -0.18384666                0.59152952                0.00350147                0.06362696               -0.10981987
               2.97397447                4.18282740               19.03323370                0.14817936               -0.09489170               -0.08471615                0.29526889                0.02475823                1.12509279               -1.34607231
               3.97339090                4.10168254               18.96739065                0.00010000               -0.66078458                0.10738588               -0.02789356                0.82581610                5.57159525               -1.63935691
               4.96075878                4.03922418               18.97001519                0.00010000               -1.22077832                0.11703657               -0.11952068                1.57457658                8.51610088               -1.23164252
               5.94897534                3.97477841               18.96365332                0.00010000               -1.16460287                0.21853159               -0.17492882                1.46394817                7.80424766               -0.58692005
               6.93746672                3.91176557               18.95293280                0.00010000               -1.08542698                0.17015415               -0.26076911                1.33586662                7.46056516                0.30125678
               7.92726680                3.85216644               18.94062834                0.00010000               -0.98584150                0.14610050               -0.37199335                1.27430355                7.44212555                1.27120901
               8.91774989                3.79773739               18.93048197                0.23702197               -0.39551176                0.17855215               -0.50207375                0.57794825                4.01965627                2.51940913
               9.91935656                3.73348853               18.85055888                0.97073551                0.22762457                0.25559569               -0.81909629                0.02357423                0.27427225                0.76584985
              10.92230238                3.66912460               18.76535043                1.00000000                0.29458217                0.36297694               -1.17417885               -0.01783125                0.01600069               -0.40575769
               1.05748384                5.34203599               19.18486614                1.00000000               -0.17711703               -0.24798481                0.76912228               -0.02370272                0.11128452                1.07732089
               2.05571267                5.26234388               19.09163010                0.77287746               -0.13184559               -0.13852845                0.44367887               -0.00230412                0.20204719               -0.26570588
               3.05484693                5.18225972               19.00016210                0.09524083               -0.22383091               -0.03013167                0.12944888                0.13870305                2.09082205               -1.47896610
               4.05123605                5.10447424               18.94469537                0.00010000               -0.84539279                0.38819463               -0.37560826                0.60216170                7.25655853               -0.18917662
               5.03793907                5.04129768               18.95599596                0.00010000               -1.35794413                0.29801157               -0.23710974                1.22814806               10.19875506               -0.48664301
               6.02407717                4.97740170               18.96100307                0.00010000               -1.40639576                0.33750774               -0.19947096                1.03173309                9.71380424               -0.12646744
               7.00981116                4.91453610               18.96415506                0.00010000               -1.42178518                0.33519891               -0.21186183                0.93812457                9.55965078                0.50539678
               7.99564146                4.85444078               18.96747641                0.00010000               -1.37780528                0.25535431               -0.25557933                0.95622250                9.61659384                1.30138974
               8.98225505                4.79905826               18.97300235                0.24516866               -0.61506719                0.09885179               -0.31668651                0.44528790                4.95181030                2.12157449
               9.98334012                4.73576487               18.88406806                0.86218097                0.18273135                0.20804483               -0.67849087                0.01064254                0.14733653                0.73397629
              10.98590968                4.67262766               18.79341611                1.00000000                0.25695571                0.33792115               -1.06747874               -0.01750320                0.06809054               -0.44117890
               1.13637125                6.33976482               19.16112105                1.00000000               -0.13523275               -0.20433847                0.63404977               -0.02458319                0.07008252                0.94909945
               2.13501892                6.26119542               19.06070577                0.65508904               -0.08765375               -0.09127890                0.29208548               -0.00301646                0.20993392               -0.44743191
               3.13461817                6.18222476               18.96304354                0.06974781               -0.43113695                0.02164883               -0.03748957                0.33321013                3.92875000               -1.81307720
               4.12639618                6.10944643               18.93699794                0.00010000               -1.11119464                0.49498885               -0.54334683                0.67897659                9.36167240                0.16113097
               5.11239428                6.04518441               18.94757544                0.00010000               -1.50123053                0.47104630               -0.30972536                0.99466779               11.28465805               -0.12003590
               6.09637157                5.98152856               18.96185731                0.00010000               -1.66020731                0.50020306               -0.20381148                0.80830548               11.41831197                0.13041616
               7.07919013                5.91846954               18.97704667                0.00010000               -1.72512402                0.45940071               -0.15530762                0.63116576               11.45487246                0.61898861
               8.06186909                5.85727352               18.99383466                0.00010000               -1.69292856                0.30496370               -0.13963122                0.59334208               11.58226489                1.24959362
               9.04533156                5.79971443               19.01310615                0.26184825               -0.79345396                0.03762256               -0.14462391                0.25157694                5.89433220                1.94511652
              10.04600001                5.73764943               18.91739888                0.79627759                0.14475872                0.16966159               -0.55313860                0.00302549                0.09479791                0.69009865
              11.04822674                5.67588303               18.82058121                1.00000000                0.22267260                0.31310784               -0.97286024               -0.01651454                0.04485923               -0.51181341
               1.21413098                7.33794922               19.13612705                1.00000000               -0.09385866               -0.15903300                0.49759377               -0.02386903                0.03102002                0.86081125
               2.21319239                7.26051831               19.02852317                0.59251667               -0.04354351               -0.04464240                0.14297785               -0.00230638                0.15219371               -0.53051765
               3.21326011                7.18269270               18.92330285                0.05853283               -0.56682285                0.07103763               -0.20569130                0.49974269                5.46045444               -2.00731610
               4.20185594                7.11437402               18.92186259                0.00010000               -1.37549050                0.50584925               -0.50284702                0.92417992               11.64191616               -0.45387940
               5.18575030                7.05071860               18.94066210                0.00010000               -1.74488976                0.64296117               -0.32183353                0.93400839               12.78715781               -0.08104949
               6.16695814                6.98740576               18.96403682                0.00010000               -1.95303966                0.69568144               -0.18595896                0.64244479               13.05465131                0.21071746
               7.14668951                6.92372412               18.99031887                0.00010000               -2.03473613                0.61517920               -0.09319998                0.33235090               13.24496390                0.61830698
               8.12626342                6.86054006               19.01955745                0.00010000               -1.98894118                0.36794379               -0.02747326                0.16560434               13.46882874                1.16251536
               9.10691068                6.79981071               19.05212851                0.28415141               -0.95156937               -0.01679913                0.01777323                0.00883902                6.82146987                1.84289124
              10.10723203                6.73915810               18.94990218                0.76458718                0.11007535                0.12911474               -0.42428473               -0.00158236                0.05653957                0.61692795
              11.10911219                6.67888982               18.84704202                1.00000000                0.18801588                0.28522475               -0.87120513               -0.01590464                0.03177157               -0.57406914
               1.29075569                8.33658416               19.11052971                1.00000000               -0.05263762               -0.11518717                0.36232385               -0.02313524                0.01275029                0.82846220
               2.29022931                8.26030257               18.99591176                0.57927262                0.00008121                0.00133335               -0.00394329               -0.00104782                0.06606954               -0.55826162
               3.29075731                8.18364552               18.88232502                0.05123551               -0.66877188                0.11883582               -0.37124222                0.65371007                6.75403211               -1.98285957
               4.27685387                8.11956342               18.90147336                0.00010000               -1.63573049                0.59542821               -0.47186444                1.12709933               13.92897271               -0.62117180
               5.25804270                8.05804363               18.93251756                0.00010000               -2.03194621                0.84630925               -0.30210581                0.88253483               14.53515977               -0.12863890
               6.23621495                7.99544219               18.96593555                0.00010000               -2.26699218                0.89704239               -0.15715806                0.48281576               14.70728638                0.18123487
               7.21270286                7.93077313               19.00275717                0.00010000               -2.35601836                0.83268064               -0.03235914                0.04915965               14.97936375                0.50541897
               8.18909458                7.86463240               19.04394045                0.00643223               -2.29062807                0.50605154                0.07678311               -0.35198056               15.34477502                0.96100347
               9.16689030                7.79937845               19.09016442                0.31175884               -1.11026633               -0.06415408                0.17301203               -0.30854298                7.77467027                1.67787781
              10.16688926                7.74023172               18.98167095                0.76909162                0.07774569                0.08551577               -0.29586087               -0.00867673                0.02822815                0.57163204
              11.16844521                7.68158752               18.87279569                1.00000000                0.15559549                0.25207604               -0.76930646               -0.01475805                0.01735162               -0.62753119
               1.36623146                9.33564547               19.08480847                1.00000000               -0.01213774               -0.07417630                0.22943413               -0.02254490               -0.00435553                0.70112163
               2.36611008                9.26054497               18.96315724                0.60132645                0.04210014                0.04655228               -0.14857663                0.00006222                0.07771891               -0.48850697
               3.36707346                9.18506941               18.84311732                0.02656765               -0.80551359                0.16320211               -0.52569440                0.85828626                8.12170560               -1.38954391
               4.34999981                9.12628258               18.88236294                0.00010000               -1.97756166                0.92006009               -0.45321791                1.01612754               16.10732668               -0.34800743
               5.32752223                9.06764479               18.92388889                0.00010000               -2.30574235                1.00885904               -0.29265843                0.63569760               16.16667059               -0.08736487
               6.30388496                9.00534661               18.96672225                0.00010000               -2.45198689                1.02754366               -0.13494229                0.28531185               16.28822088                0.10359929
               7.27848249                8.94037773               19.01309983                0.00010000               -2.66332362                1.00255948                0.01724862               -0.10683923               16.62896794                0.29060873
               8.25061849                8.87066109               19.06524086                0.02244734               -2.66709947                0.88106861                0.16561265               -0.64942536               17.20905336                0.55717853
               9.22514050                8.79852763               19.12580715                0.34239974               -1.28845336               -0.08809200                0.31259766               -0.72550882                8.86436351                1.12399127
              10.22484942                8.74086842               19.01315171                0.81073143                0.04824668                0.04586590               -0.17272745               -0.01959369                0.08843254                0.47836921
              11.22610543                8.68393134               18.89799551                0.97885386                0.12560120                0.21668095               -0.67288262               -0.01473419               -0.02669424               -0.55166302
               1.44050579               10.33510063               19.05659642                1.00000000                0.03008255               -0.05448404                0.09692810                0.04073131                0.38321122                0.57945459
               2.44080662               10.26123361               18.93193160                0.83420196                0.08398178                0.06886408               -0.28745587                0.06009980                0.72403961               -0.41198741
               3.44218543               10.18690956               18.81405865                0.51503253               -1.31027823                0.18401453               -0.65900853                1.34774690                9.58796763               -0.88470600
               4.41460105               10.13796462               18.86669888                0.36348699               -2.52464002                1.16820378               -0.47848113                1.02568694               17.78163468               -0.12144418
               5.39169263               10.07822081               18.91559414                0.35548353               -2.27064041                1.05760260               -0.31286686                0.31846186               17.55893857               -0.02035615
               6.36918824               10.01599306               18.96606197                0.37473073               -2.32205136                1.06464507               -0.13164828                0.16050334               17.71437186                0.08537991
               7.34525160                9.95082432               19.02025432                0.41897980               -2.56160333                1.04465870                0.04780685               -0.01005366               18.10677844                0.18856950
               8.31795618                9.88225377               19.08089740                0.51831146               -3.15394038                1.15926854                0.22737783               -0.92661681               18.84793043                0.34368220
               9.28217279                9.79761661               19.15260647                0.68716990               -1.84312518               -0.09110222                0.40691877               -1.35200747               10.15152231                0.69501951
              10.28109367                9.74114904               19.04289147                0.93563106               -0.00740534                0.02806256               -0.06444438                0.03965179                0.68288507                0.40236479
              11.28202468                9.68592114               18.92506084                0.98704884                0.09310112                0.19898031               -0.57735899                0.06913488                0.28887658               -0.44737446
               0.71034529                0.39262274               20.30887608                1.00000000               -0.35297753               -0.38522047                1.34568336               -0.06834630               -0.74826416                0.78582322
               1.70681552                0.30174679               20.23828940                1.00000000               -0.29245811               -0.30818926                1.08172848               -0.05254390               -0.94871309                0.05296892
               2.70449613                0.21072183               20.16367062                1.00000000               -0.15862306               -0.23284620                0.80055257               -0.03485530               -0.89863840               -0.21204117
               3.70364306                0.12082520               20.09412490                0.62022301                0.30984887               -0.17763693                0.53059694                0.47500652                0.06973003               -0.58604058
               4.71069311                0.04294659               20.03889392                0.70695176                0.45590762               -0.06242515                0.23584295               -0.07394913                0.58673676                0.14210886
               5.71276121               -0.02610185               19.97963809                0.79103575                0.14427309                0.02565245               -0.06180232                0.00015794                0.19522341                0.08323643
               6.71357857               -0.09362599               19.91663824                0.77078498                0.06126977                0.10468202               -0.35255885                0.00876779                0.00565148               -0.05444073
               7.71398661               -0.16186307               19.85355635                0.86623728                0.07169979                0.19661488               -0.65366167                0.03438873               -0.22559234                0.06248915
               8.71501257               -0.23307278               19.78576952                1.00000000                0.18876244                0.29513575               -0.95187042                0.02076446               -0.58464710                0.43326576
               9.71776185               -0.30636207               19.71538371                1.00000000                0.33760231                0.36447130               -1.24352248               -0.04451132               -0.66720350                0.00980751
              10.72176461               -0.37989740               19.64598665                1.00000000                0.40027588                0.44434694               -1.51976781               -0.06427589               -0.62328037               -0.64020366
               0.80053778                1.38877054               20.28160460                1.00000000               -0.32972468               -0.36462695                1.22349062               -0.02935407               -0.09833279                1.06697581
               1.79724053                1.29866490               20.21059643                1.00000000               -0.29647027               -0.28661523                0.95971908               -0.01034717               -0.06075921                0.07888012
               2.79460838                1.20839337               20.14028241                0.79072543               -0.24798945               -0.21244849                0.69731538                0.03340254                0.17938367               -0.59625481
               3.79228075                1.11904883               20.07403661                0.15026658               -0.55956178               -0.17168182                0.43471198                0.68176996                1.65133577               -1.05043357
               4.78341714                1.04232234               20.03306847                0.31502421               -0.56158327                0.06140025                0.18502705               -0.09142279                2.32216328                0.94594984
               5.78104908                0.97415468               19.98026232                0.41061808               -0.09351406                0.08900664               -0.09029164                0.18537693                1.50395563                0.36830820
               6.78154686                0.90742083               19.92291849                0.30257640                0.15024027                0.04969557               -0.36359416                0.22617957                1.38699279               -0.38768542
               7.78405389                0.84010308               19.86788887                0.45390353                0.29614274                0.19265393               -0.62575142                0.27387704                1.36672892                0.59076777
               8.78746971                0.76987858               19.81044623                1.00000000                0.33375828                0.27826295               -0.88881732                0.12034615                0.69894939                0.62304684
               9.79072905                0.69728264               19.74232598                1.00000000                0.35937338                0.35343195               -1.16300246                0.00086651                0.09738297                0.08706023
              10.79465718                0.62454607               19.67293054                1.00000000                0.39281305                0.42798562               -1.43852299               -0.02067662                0.02976750               -0.75937639
               0.88996949                2.38533020               20.25990512                1.00000000               -0.29837467               -0.33022619                1.11537142               -0.02210990                0.04049684                1.35803637
               1.88698574                2.29601449               20.18336459                1.00000000               -0.25946178               -0.24987974                0.83968438                0.00278855                0.16295001                0.05249240
               2.88478025                2.20647286               20.10916254                0.44928228               -0.18181253               -0.18082715                0.57738913                0.06174393                0.77148289               -1.28388271
               3.88334949                2.11739156               20.04470089                0.00010000               -1.55107246               -0.12933208                0.33660899                0.93076627                4.42546108               -1.94319840
               4.85375880                2.04417459               20.04324378                0.00010000               -1.59896168                0.17502218                0.13288030                1.81544570                4.79725194               -1.25094032
               5.85137026                1.97567829               19.98655794                0.00010000               -0.08025228               -0.06054143               -0.11725606                1.56266288                1.66235383               -0.46094807
               6.85215376                1.90736792               19.92254275                0.00010000                0.28180680               -0.15750255               -0.36823325                1.33712299                3.00110242                0.23632411
               7.85700639                1.84199001               19.89281970                0.00010000                0.40430859               -0.11121999               -0.60250195                0.92215237                3.45578866                0.73506172
               8.86023993                1.77249248               19.83901032                0.47892510                0.30526492                0.27107939               -0.80865572                0.21069525                1.52746093                1.22026312
               9.86311169                1.70070657               19.77090723                1.00000000                0.32921460                0.33972189               -1.07697128                0.03343668                0.55203177                0.53849617
              10.86682422                1.62866232               19.69758961                1.00000000                0.37125301                0.40058387               -1.36945080               -0.01070972                0.28968879               -0.76739425
               0.97872701                3.38216601               20.23843706                1.00000000               -0.25733694               -0.30592842                1.00523582               -0.01637131                0.05227181                1.32842058
               1.97615365                3.29366731               20.15511916                1.00000000               -0.21304175               -0.21892045                0.71688062                0.00578225                0.06459514               -0.03900385
               2.97446618                3.20477683               20.07197567                0.26133452               -0.14796521               -0.13970349                0.42727704                0.05964001                0.98379803               -1.51175324
               3.97319434                3.11646219               20.00704275                0.00010000               -0.65134253               -0.06943247                0.15623166                1.00056285                4.47366678               -2.46703714
               4.96143933                3.04582278               19.99338238                0.00010000               -1.20426646                0.08516112                0.00451796                2.60848623                6.53578036               -3.00182428
               5.94910901                2.97294385               19.97057832                0.00010000               -0.97308680               -0.05414028               -0.14546296                2.21584708                5.71921038               -1.22231089
               6.94197759                2.90427078               19.94102798                0.00010000               -0.58683210               -0.12876549               -0.31162692                1.90428169                5.28363343                0.70672034
               7.93737237                2.83787868               19.91005395                0.00010000               -0.45052651               -0.17605941               -0.48854481                1.43501463                5.01866779                0.82919092
               8.93296706                2.77530017               19.87566031                0.25198073               -0.10722095                0.24547511               -0.69382019                0.53775193                3.10529025                2.27427692
               9.93522795                2.70407708               19.80694236                1.00000000                0.27822157                0.31035885               -0.95827023                0.03161705                0.69983090                0.86935601
              10.93853149                2.63255775               19.72438504                1.00000000                0.33035436                0.38652985               -1.28994678               -0.01826057                0.01013746               -0.54016324
               1.06663948                4.37921164               20.21613423                1.00000000               -0.21489078               -0.28052337                0.88609962               -0.02004996                0.06233363                1.22178796
               2.06449057                4.29163608               20.12603998                0.94464740               -0.17306549               -0.18163036                0.58638776                0.00223445                0.07753186               -0.12416109
               3.06317817                4.20367879               20.03619829                0.15459763               -0.10878880               -0.08317170                0.29650263                0.03844261                1.13813812               -1.38508606
               4.06231480                4.11600291               19.96731372                0.00010000               -0.68656523                0.08464324               -0.01484085                0.83461670                5.70621491               -1.87141547
               5.04944687                4.04587782               19.96880791                0.00010000               -1.25377967                0.10692094               -0.11586495                1.53345464                8.76467503               -1.28488616
               6.03723920                3.97459548               19.96188915                0.00010000               -1.20711533                0.21334187               -0.17699767                1.43549886                8.06814361               -0.57674444
               7.02530456                3.90479261               19.95030010                0.00010000               -1.12809538                0.16451855               -0.26595743                1.29469485                7.70319399                0.35795856
               8.01467730                3.83846883               19.93686927                0.00010000               -1.02539940                0.14214560               -0.38086351                1.22549840                7.67070822                1.36165746
               9.00479657                3.77740198               19.92538783                0.23490950               -0.40954221                0.16794691               -0.51946194                0.54536494                4.15492484                2.64457792
              10.00648645                3.70691375               19.84224331                0.95133939                0.23505511                0.25895154               -0.84244788                0.01694284                0.30057854                0.81340107
              11.00949767                3.63639291               19.75350076                1.00000000                0.30112221                0.37300819               -1.19391754               -0.01757338                0.02646642               -0.41746796
               1.15347713                5.37655555               20.19249989                1.00000000               -0.17459523               -0.24445950                0.75743790               -0.02413011                0.11461970                1.08509724
               2.15173118                5.29003470               20.09604432                0.76475504               -0.13044649               -0.13650427                0.43869077               -0.00319724                0.21122002               -0.28982716
               3.15086820                5.20311339               20.00146955                0.10139019               -0.20217610               -0.02971630                0.13154244                0.12056735                2.01993592               -1.53440308
               4.14768765                5.11815505               19.94118394                0.00010000               -0.86761724                0.34638047               -0.34558334                0.60172356                7.41015195               -0.39019565
               5.13351585                5.04796120               19.95364220                0.00010000               -1.43917288                0.30432420               -0.23184789                1.21165880               10.61511565               -0.51886843
               6.11890420                4.97721069               19.95899601                0.00010000               -1.47588530                0.34417459               -0.20138866                1.00261635               10.07556046               -0.10317281
               7.10399815                4.90756115               19.96200699                0.00010000               -1.48156161                0.33996194               -0.21821207                0.89494185                9.89299564                0.56592908
               8.08927296                4.84072160               19.96486657                0.00010000               -1.42843532                0.25605218               -0.26763266                0.90505680                9.93782690                1.39335714
               9.07542944                4.77865911               19.96974466                0.24272359               -0.63485421                0.09500397               -0.33785574                0.41629432                5.12792873                2.24131845
              10.07657588                4.70925611               19.87715792                0.84480997                0.18961268                0.21449821               -0.70406715                0.00949389                0.16294321                0.78431439
              11.07922169                4.64001791               19.78259325                1.00000000                0.26458151                0.34963122               -1.09416421               -0.01840438                0.07093139               -0.45338072
               1.23919858                6.37432245               20.16740403                1.00000000               -0.13297957               -0.20037640                0.62237263               -0.02463529                0.07010909                0.95257097
               2.23786878                6.28890599               20.06360406                0.64910580               -0.08647062               -0.08949750                0.28744198               -0.00348917                0.21619294               -0.47127767
               3.23746916                6.20308447               19.96267933                0.07520812               -0.41836582                0.02175228               -0.03551123                0.30616670                3.84536855               -1.86770960
               4.22950146                6.12293052               19.93146194                0.00010000               -1.14223782                0.49399284               -0.55992888                0.63257205                9.57269257                0.16611314
               5.21462441                6.05196430               19.94445772                0.00010000               -1.59049408                0.48845247               -0.31276930                0.97369943               11.81537977               -0.10382943
               6.19769158                5.98147897               19.95979494                0.00010000               -1.74659588                0.52029653               -0.20824818                0.76887403               11.86506138                0.17065901
               7.17969249                5.91159185               19.97545424                0.00010000               -1.80055542                0.47423942               -0.16380505                0.57764000               11.87075597                0.68277901
               8.16168047                5.84358987               19.99237112                0.00010000               -1.75522737                0.31190700               -0.15450564                0.53161237               11.98631358                1.33725515
               9.14458794                5.77930206               20.01155034                0.25954237               -0.81814757                0.03745063               -0.16853596                0.21847104                6.10447902                2.05299000
              10.14531752                5.71120371               19.91176487                0.78070448                0.15090204                0.17519756               -0.57579725                0.00440692                0.10228775                0.73348852
              11.14760598                5.64338554               19.81075748                1.00000000                0.22884604                0.32306825               -0.99357578               -0.01623329                0.04764719               -0.52337790
               1.32381733                7.37254802               20.14104762                1.00000000               -0.09179562               -0.15501101                0.48634264               -0.02372647                0.03078172                0.86396261
               2.32289937                7.28824475               20.02993503                0.58803381               -0.04251612               -0.04330783                0.13916244               -0.00227774                0.15493011               -0.55121317
               3.32296700                7.20354844               19.92126250                0.06275512               -0.57200533                0.07007890               -0.20267911                0.48343462                5.47875279               -2.05918813
               4.31145926                7.12803491               19.91662762                0.00010000               -1.42628061                0.52954821               -0.53809541                0.88249310               11.94592544               -0.33111686
               5.29444139                7.05773025               19.93737480                0.00010000               -1.84025672                0.67235375               -0.33327770                0.90588847               13.33004225               -0.01973466
               6.27465413                6.98761662               19.96213665                0.00010000               -2.05006691                0.72726406               -0.19374576                0.59391190               13.56117348                0.26293311
               7.25344005                6.91704594               19.98933485                0.00010000               -2.12295661                0.64057692               -0.10434621                0.26632539               13.73135391                0.67959549
               8.23219500                6.84695974               20.01919987                0.00010000               -2.06275161                0.38204800               -0.04547844                0.08988261               13.94831959                1.24115240
               9.21218502                6.77940812               20.05217913                0.28204300               -0.98072257               -0.01430630               -0.00951494               -0.03254499                7.06685163                1.94153947
              10.21258054                6.71276006               19.94554112                0.74986214                0.11741779                0.13434877               -0.44919797               -0.00096707                0.05996216                0.65971380
              11.21453338                6.64647928               19.83821673                1.00000000                0.19528315                0.29430600               -0.89412650               -0.01498835                0.03304866               -0.58420421
               1.40733059                8.37122223               20.11410175                1.00000000               -0.05077841               -0.11150552                0.35180095               -0.02290981                0.01238989                0.83330442
               2.40682280                8.28803984               19.99586042                0.57597029                0.00085533                0.00220362               -0.00668587               -0.00082604                0.06530656               -0.57618852
               3.40734769                8.20448605               19.87863807                0.05381130               -0.69266433                0.11699758               -0.36665371                0.65450693                6.87613204               -2.02637614
               4.39296952                8.13352149               19.89661857                0.00010000               -1.70936135                0.62771586               -0.49544317                1.10713653               14.33810071               -0.50378490
               5.37316047                8.06541138               19.92942706                0.00010000               -2.13576922                0.88655763               -0.31431253                0.85846429               15.09116691               -0.05882128
               6.35025413                7.99602426               19.96431307                0.00010000               -2.37422935                0.93887365               -0.16719846                0.43510969               15.25548262                0.22978037
               7.32567588                7.92440339               20.00236913                0.00010000               -2.45690947                0.87102965               -0.04609877               -0.02081324               15.52708880                0.55458398
               8.30111594                7.85123083               20.04460810                0.00712954               -2.37695829                0.53009050                0.05527866               -0.44099574               15.89628103                1.02431249
               9.27813671                7.77901594               20.09174005                0.30964621               -1.14444611               -0.05799616                0.14032329               -0.35990333                8.05806925                1.76469029
              10.27822702                7.71389069               19.97857004                0.75360647                0.08655348                0.09250634               -0.32537181               -0.00909660                0.03116929                0.61097988
              11.27986778                7.64927166               19.86496839                1.00000000                0.16407632                0.26191691               -0.79626676               -0.01357689                0.01825401               -0.64050133
               1.48972390                9.37031791               20.08705615                1.00000000               -0.01048777               -0.07095606                0.21969335               -0.02232138               -0.00530420                0.70739866
               2.48961903                9.28828882               19.96166637                0.59824867                0.04257934                0.04701949               -0.15012340                0.00025670                0.07749993               -0.50206085
               3.49057549                9.20588839               19.83789686                0.02677701               -0.84711814                0.16098582               -0.51914127                0.87891959                8.34061058               -1.41625800
               4.47267666                9.14058923               19.87778026                0.00010000               -2.07337917                0.96201977               -0.46188774                1.01848694               16.61280219               -0.26494292
               5.44910791                9.07546140               19.92091300                0.00010000               -2.41561769                1.05429039               -0.30187826                0.62401612               16.74076600               -0.04527422
               6.42436431                9.00639409               19.96531852                0.00010000               -2.56453472                1.07587216               -0.14607213                0.25447393               16.87828680                0.13172908
               7.39781721                8.93446653               20.01319677                0.00010000               -2.78008901                1.05237635                0.00118579               -0.15876456               17.23376233                0.31724979
               8.36876253                8.85756155               20.06678190                0.02394699               -2.77450587                0.92867253                0.14129904               -0.72752700               17.83031079                0.59450588
               9.34232710                8.77824820               20.12874832                0.33996615               -1.33098187               -0.07709503                0.27374992               -0.78817100                9.19058449                1.18103370
              10.34214289                8.71461019               20.01125243                0.79197658                0.05864000                0.05566124               -0.20817038               -0.02120822                0.09613344                0.50763292
              11.34349990                8.65171762               19.89110555                0.97990709                0.13570033                0.22727036               -0.70511507               -0.01348227               -0.02615530               -0.56837432
               1.57094234               10.36980310               20.05752312                1.00000000                0.03151181               -0.05148047                0.08786276                0.03955538                0.38686580                0.58615212
               2.57125745               10.28898023               19.92905770                0.83315376                0.08416720                0.06914064               -0.28800881                0.05897559                0.73440500               -0.42233678
               3.57262568               10.20770576               19.80751086                0.51465386               -1.37456038                0.18173706               -0.65142505                1.39410154                9.87650272               -0.90053313
               4.54376625               10.15276188               19.86190408                0.36398378               -2.63948774                1.21726556               -0.48041512                1.04852918               18.36957315               -0.07326783
               5.51983592               10.08649718               19.91242603                0.35569438               -2.37138816                1.10357814               -0.32075419                0.31179242               18.17256089               -0.00260621
               6.49633848               10.01754170               19.96468845                0.37455559               -2.42513947                1.11476066               -0.14365399                0.14510377               18.35537020                0.09569958
               7.47133314                9.94545091               20.02064646                0.41841269               -2.67773732                1.09843843                0.02956258               -0.03527883               18.76519665                0.19815935
               8.44278374                9.86980428               20.08304139                0.51950867               -3.30042426                1.22427339                0.20033985               -0.99672325               19.52297715                0.35965121
               9.40532465                9.77747404               20.15646084                0.68622494               -1.92251506               -0.07741591                0.36211092               -1.44026309               10.52697990                0.73047185
              10.40433344                9.71500391               20.04204325                0.92490045                0.00293173                0.03937208               -0.10617145                0.03620558                0.71788392                0.42469156
              11.40538328                9.65381706               19.91909446                0.98698901                0.10498492                0.20994471               -0.61574717                0.06965414                0.30332401               -0.46486257
               0.77465656                0.42846458               21.32228257                1.00000000               -0.35233221               -0.38296267                1.33680727               -0.06722926               -0.76891087                0.80454283
               1.77113323                0.33058933               21.24907189                1.00000000               -0.29347864               -0.30523912                1.07499741               -0.05321645               -0.97776323                0.05593254
               2.76878698                0.23249525               21.17166556                1.00000000               -0.16070582               -0.22952407                0.79822102               -0.03922175               -0.92857553               -0.21005217
               3.76791912                0.13542621               21.09947149                0.62178186                0.31172035               -0.18143083                0.53557786                0.48057258                0.02893902               -0.60708636
               4.77502139                0.05047874               21.04123959                0.70988587                0.45706010               -0.05845243                0.23314183               -0.07259792                0.52844287                0.15287740
               5.77706032               -0.02572454               20.97903418                0.79395816                0.14353662                0.02701511               -0.05881901                0.00074993                0.14429118                0.08911992
               6.77789212               -0.10041645               20.91314879                0.77263644                0.06601486                0.10417411               -0.34523407                0.00907910               -0.04685309               -0.05819559
               7.77838062               -0.17568121               20.84707852                0.86783186                0.07884604                0.19492811               -0.64211635                0.03098950               -0.28166306                0.06853386
               8.77946904               -0.25367612               20.77632892                1.00000000                0.19097514                0.29061057               -0.93669534                0.01714198               -0.63592035                0.44462662
               9.78220012               -0.33361532               20.70304369                1.00000000                0.33402870                0.35990901               -1.22506421               -0.04339401               -0.70711058                0.00873007
              10.78614962               -0.41380179               20.63090050                1.00000000                0.39494979                0.43964504               -1.49825374               -0.06156661               -0.65505431               -0.67017819
               0.87185951                1.42463495               21.29378620                1.00000000               -0.32737829               -0.36318277                1.21390471               -0.02771377               -0.10232733                1.09222024
               1.86858573                1.32753694               21.22016143                1.00000000               -0.29415947               -0.28437831                0.95343313               -0.01009765               -0.06613541                0.08197149
               2.86597632                1.23020001               21.14721870                0.81252584               -0.24263157               -0.20853632                0.68714595                0.02469783                0.16904695               -0.59497719
               3.86373310                1.13361190               21.07825889                0.16053234               -0.55527703               -0.18079852                0.41050904                0.68947734                1.65299751               -1.05311689
               4.85487078                1.04989421               21.03486038                0.32533505               -0.56088434                0.06785058                0.17295650               -0.08695775                2.33128537                0.95315979
               5.85251541                0.97454561               20.97933172                0.42234046               -0.09547673                0.09028455               -0.09587993                0.17585961                1.50087664                0.37518798
               6.85296125                0.90062529               20.91928192                0.31335309                0.14024662                0.05616464               -0.36369064                0.21865704                1.39104003               -0.38710602
               7.85532035                0.82626807               20.86165099                0.46229569                0.28231337                0.19167281               -0.62207246                0.25392912                1.37671388                0.59382661
               8.85860752                0.74922999               20.80159484                1.00000000                0.32543348                0.27531829               -0.88182683                0.11164518                0.70367028                0.64299372
               9.86182902                0.66998377               20.73074854                1.00000000                0.35564528                0.34967131               -1.15305753                0.00117361                0.09617116                0.08906883
              10.86572042                0.59059466               20.65861434                1.00000000                0.38914072                0.42552322               -1.42549697               -0.01856289                0.02830446               -0.79487704
               0.96829831                2.42120092               21.27100069                1.00000000               -0.29320922               -0.32982500                1.10448896               -0.02129875                0.03982873                1.38930818
               1.96536622                2.32490176               21.19171887                1.00000000               -0.25461680               -0.24857924                0.83251246                0.00183449                0.17120947                0.05650477
               2.96320598                2.22832453               21.11499451                0.45924581               -0.16758787               -0.17583925                0.58118221                0.03764223                0.79309106               -1.30431083
               3.96201446                2.13181024               21.04812116                0.00010000               -1.54287264               -0.16194761                0.32329678                0.94806274                4.45387999               -1.96031760
               4.93234852                2.05183575               21.04443281                0.00010000               -1.60840131                0.17310571                0.10903291                1.80617835                4.86375047               -1.27077870
               5.92984644                1.97608115               20.98532956                0.00010000               -0.09028584               -0.06459850               -0.12866382                1.52169370                1.71463695               -0.45069474
               6.93054281                1.90070684               20.91885077                0.00010000                0.25040336               -0.15576061               -0.36964396                1.28943710                3.05677005                0.27157832
               7.93485450                1.82815224               20.88676572                0.00010000                0.37217200               -0.11075261               -0.60824215                0.88356567                3.53692112                0.78325466
               8.93798625                1.75183025               20.83091683                0.48495373                0.30022082                0.26826297               -0.81033017                0.19269574                1.59347088                1.26636182
               9.94085892                1.67337810               20.76014748                1.00000000                0.32851679                0.33601158               -1.07558239                0.02885692                0.57486574                0.55958317
              10.94455658                1.59470867               20.68392267                1.00000000                0.36976624                0.40295237               -1.36474841               -0.01017259                0.30074866               -0.80367670
               1.06403186                3.41803845               21.24842884                1.00000000               -0.25330461               -0.30517407                0.99372631               -0.01741274                0.05630309                1.35429379
               2.06149882                3.32256535               21.16226021                1.00000000               -0.21055853               -0.21720781                0.71107708                0.00269333                0.06775843               -0.03891296
               3.05982069                3.22668323               21.07625132                0.26841475               -0.11578431               -0.13463693                0.42839965                0.00325576                0.99938918               -1.54321570
               4.05918313                3.13037295               21.00869963                0.00010000               -0.65486277               -0.08485981                0.16464948                0.97821080                4.56809082               -2.55675834
               5.04672344                3.05335633               20.99345635                0.00010000               -1.25524676                0.07154406                0.01139238                2.60045111                6.69247549               -3.05369511
               6.03407820                2.97325364               20.96910013                0.00010000               -1.00222689               -0.06276580               -0.14892252                2.15766649                5.87269295               -1.20691235
               7.02667890                2.89751008               20.93788616                0.00010000               -0.61049705               -0.13805563               -0.31698001                1.84035230                5.42966665                0.77075808
               8.02186826                2.82405302               20.90513856                0.00010000               -0.47216645               -0.17826383               -0.49517478                1.39119514                5.14981638                0.92367610
               9.01723557                2.75459524               20.86867659                0.25141900               -0.11702635                0.23571747               -0.70344508                0.50695445                3.20022431                2.36677572
              10.01952773                2.67670400               20.79731682                1.00000000                0.28101337                0.30814455               -0.96712951                0.02273668                0.73387514                0.90507560
              11.02285584                2.59865370               20.71145961                1.00000000                0.33281097                0.39291843               -1.29535236               -0.01701865                0.01143743               -0.56349918
               1.15889626                4.41509744               21.22493690                1.00000000               -0.21209480               -0.27851595                0.87455451               -0.02120804                0.06983678                1.23792813
               2.15677531                4.32055760               21.13187498                0.93413737               -0.17163819               -0.17910417                0.58063612                0.00014683                0.09018523               -0.13743092
               3.15546349                4.22563179               21.03916375                0.16135537               -0.09348667               -0.07963033                0.29655369               -0.00796156                1.13994910               -1.42123561
               4.15490558                4.13011304               20.96709383                0.00010000               -0.69933219                0.10745830               -0.02518172                0.78590773                5.82523893               -2.05193553
               5.14147685                4.05326663               20.96769789                0.00010000               -1.30297803                0.09570852               -0.10667411                1.52093385                9.01028228               -1.33291863
               6.12884602                3.97482584               20.96011337                0.00010000               -1.24631867                0.20894080               -0.17761764                1.39122446                8.31845252               -0.56011493
               7.11655048                3.89794573               20.94761365                0.00010000               -1.16263890                0.15952374               -0.27172923                1.24413687                7.93702778                0.41972792
               8.10559324                3.82458697               20.93301107                0.00010000               -1.05380633                0.13765308               -0.39185436                1.16954707                7.88888598                1.45524376
               9.09547435                3.75654459               20.92009273                0.23267627               -0.41690226                0.15634354               -0.54043886                0.51203653                4.28220750                2.77043051
              10.09725519                3.67954100               20.83370992                0.93186023                0.24212246                0.26127964               -0.86328983                0.01225581                0.32567654                0.86026736
              11.10031680                3.60256704               20.74147208                1.00000000                0.30616068                0.38248111               -1.21026742               -0.01730474                0.03786933               -0.42991839
               1.25268738                5.41246813               21.20001490                1.00000000               -0.17199689               -0.24144666                0.74566083               -0.02463102                0.11731332                1.09245978
               2.25096741                5.31898327               21.10040391                0.75686205               -0.12906756               -0.13392265                0.43305979               -0.00426729                0.21995337               -0.31311657
               3.25010603                5.22509062               21.00279295                0.10724193               -0.18504825               -0.02770814                0.13262067                0.08715067                1.95015259               -1.58730571
               4.24726644                5.13252211               20.93778370                0.00010000               -0.88383525                0.36059888               -0.33317130                0.56729698                7.53966778               -0.57118188
               5.23242932                5.05527050               20.95135900                0.00010000               -1.50214274                0.30542938               -0.22666235                1.19011833               11.01385646               -0.55159209
               6.21722359                4.97743246               20.95697530                0.00010000               -1.53144074                0.34876332               -0.20260381                0.96301596               10.42387030               -0.07621572
               7.20180051                4.90070055               20.95979082                0.00010000               -1.52816286                0.34257680               -0.22566667                0.84261070               10.21556280                0.63022586
               8.18666033                4.82680608               20.96212376                0.00010000               -1.46391166                0.25491824               -0.28228375                0.84637919               10.24724949                1.48837554
               9.17252227                4.75772212               20.96624523                0.24019622               -0.64549653                0.08975856               -0.36361790                0.38382766                5.29640346                2.36472371
              10.17375040                4.68192959               20.86998672                0.82738878                0.19676915                0.21975054               -0.72944542                0.00823190                0.17636351                0.83913228
              11.17645766                4.60630333               20.77153282                1.00000000                0.27072553                0.36124719               -1.11618646               -0.01874366                0.07264139               -0.46080502
               1.34537337                6.41026851               21.17356850                1.00000000               -0.13058920               -0.19686923                0.61052921               -0.02471463                0.06987468                0.95580221
               2.34406748                6.31787915               21.06645461                0.64318267               -0.08528531               -0.08727917                0.28246198               -0.00410859                0.22195715               -0.49444314
               3.34366766                6.22507763               20.96233331                0.08019630               -0.39979189                0.02297837               -0.03392957                0.27412102                3.75088556               -1.92084355
               4.33607164                6.13732502               20.92579937                0.00010000               -1.16493944                0.50364664               -0.56516638                0.58466482                9.77104489                0.15531859
               5.32036887                6.05937522               20.94132005                0.00010000               -1.66976782                0.50420378               -0.31313404                0.94444421               12.33987187               -0.09193728
               6.30267628                5.98180110               20.95769235                0.00010000               -1.81699012                0.53569173               -0.21217528                0.72100114               12.30036824                0.21250195
               7.28402907                5.90479726               20.97377057                0.00010000               -1.85885117                0.48502908               -0.17368886                0.51685451               12.27489652                0.74921544
               8.26549926                5.82968533               20.99074455                0.00010000               -1.80008412                0.31600217               -0.17223798                0.46338533               12.37822545                1.42744373
               9.24802739                5.75833977               21.00973544                0.25720940               -0.83303193                0.03648349               -0.19624684                0.18174346                6.30832752                2.16363683
              10.24883862                5.68393601               20.90588293                0.76504831                0.15835354                0.18088106               -0.60163175                0.00477427                0.10913886                0.78206497
              11.25119446                5.60979198               20.80070969                1.00000000                0.23558390                0.33457498               -1.01584824               -0.01618857                0.04988217               -0.52920677
               1.43697180                7.40853075               21.14585391                1.00000000               -0.08956785               -0.15133955                0.47480278               -0.02366735                0.03039814                0.86711425
               2.43607612                7.31723768               21.03130642                0.58362475               -0.04146093               -0.04158464                0.13485763               -0.00244602                0.15722823               -0.57126608
               3.43614258                7.22555019               20.91924927                0.06658163               -0.57069868                0.07030025               -0.20032514                0.46057473                5.47705584               -2.10939041
               4.42466215                7.14259505               20.91110068                0.00010000               -1.46502286                0.55050313               -0.55908423                0.82798273               12.23184794               -0.20870197
               5.40684212                7.06535457               20.93399654                0.00010000               -1.92202903                0.69768961               -0.33957070                0.86769567               13.87318881                0.04039845
               6.38622156                6.98814629               20.96016190                0.00010000               -2.12943777                0.75274089               -0.20077514                0.53764028               14.05782330                0.31587517
               7.36425337                6.91040113               20.98823195                0.00010000               -2.19180145                0.66028086               -0.11702344                0.19501814               14.20543332                0.74261156
               8.34238554                6.83312612               21.01864788                0.00010000               -2.11734498                0.39256443               -0.06640756                0.01003362               14.41476466                1.32148866
               9.32190647                6.75845179               21.05193821                0.27995691               -0.99959337               -0.01183538               -0.04055957               -0.07582732                7.30607661                2.04094373
              10.32239367                6.68554721               20.94091822                0.73500871                0.12577317                0.14020019               -0.47669338               -0.00056375                0.06359563                0.70480565
              11.32442193                6.61299483               20.82915949                1.00000000                0.20282616                0.30483498               -0.91759750               -0.01428261                0.03433101               -0.59116114
               1.52748615                8.40724172               21.11756573                1.00000000               -0.04870339               -0.10793344                0.34074451               -0.02276882                0.01199474                0.83820571
               2.52699912                8.31704746               20.99577804                0.57283696                0.00178224                0.00343953               -0.01015521               -0.00074190                0.06425958               -0.59338247
               3.52752179                8.22648363               20.87499194                0.05613014               -0.70861044                0.11606374               -0.36307230                0.64584135                6.98210925               -2.06801304
               4.51282691                8.14833508               20.89156449                0.00010000               -1.76751268                0.65515874               -0.50938907                1.07114778               14.72908777               -0.37336092
               5.49217154                8.07332901               20.92623131                0.00010000               -2.22221894                0.91928788               -0.32240236                0.82390014               15.64194189                0.01312242
               6.46838253                7.99685592               20.96259159                0.00010000               -2.46109681                0.97297636               -0.17674602                0.38096135               15.79309532                0.27900306
               7.44294960                7.91800288               21.00183520                0.00010000               -2.53666242                0.90221283               -0.06147255               -0.09391507               16.06155255                0.60481488
               8.41764928                7.83753662               21.04504602                0.00800503               -2.44299278                0.54958992                0.03081260               -0.53060994               16.43286975                1.08910935
               9.39408975                7.75810306               21.09297088                0.30759772               -1.16824876               -0.05121362                0.10393460               -0.41107089                8.33428234                1.85084970
              10.39428430                7.68674001               20.97516352                0.73796418                0.09619169                0.10003213               -0.35706828               -0.00965895                0.03446963                0.65070031
              11.39601358                7.61588868               20.85687035                1.00000000                0.17292782                0.27214772               -0.82339200               -0.01242467                0.01915505               -0.65195699
               1.61690494                9.40637208               21.08920234                1.00000000               -0.00855701               -0.06759829                0.20914237               -0.02217084               -0.00619582                0.71364187
               2.61681937                9.31730647               20.96015478                0.59547558                0.04334225                0.04783839               -0.15268741                0.00036173                0.07723529               -0.51495823
               3.61777178                9.22787146               20.83273449                0.02691801               -0.87898241                0.15936329               -0.51397365                0.88695257                8.54887159               -1.44145081
               4.59923972                9.15569822               20.87312518                0.00010000               -2.14862485                0.99582746               -0.46636601                1.00596576               17.10162687               -0.17209181
               5.57479929                9.08374033               20.91785132                0.00010000               -2.50363996                1.09068106               -0.30917412                0.60477659               17.30344049               -0.00099806
               6.54916692                9.00760582               20.96380081                0.00010000               -2.65524611                1.11556427               -0.15745619                0.21988691               17.45568400                0.16024091
               7.52169436                8.92844539               21.01312355                0.00010000               -2.87468801                1.09426211               -0.01665030               -0.21174566               17.82434137                0.34436642
               8.49167316                8.84411792               21.06806684                0.02575482               -2.86063527                0.96955957                0.11453629               -0.80329076               18.43411489                0.63329946
               9.46448166                8.75742751               21.13128215                0.33767080               -1.36291477               -0.06510299                0.23101620               -0.84746444                9.50736469                1.23722830
              10.46441487                8.68754786               21.00898830                0.77310867                0.06972163                0.06606052               -0.24576114               -0.02281521                0.10414391                0.53657380
              11.46587609                8.61843778               20.88389321                0.98083384                0.14612261                0.23786888               -0.73729599               -0.01224922               -0.02535099               -0.58444138
               1.70517394               10.40588975               21.05835367                1.00000000                0.03330239               -0.04823277                0.07772666                0.03834795                0.39054276                0.59273283
               2.70550697               10.31800423               20.92617142                0.83230102                0.08475785                0.06977521               -0.28985637                0.05781708                0.74454626               -0.43215733
               3.70686910               10.22967090               20.80103015                0.51428710               -1.42148066                0.17994329               -0.64541864                1.42210185               10.15624617               -0.91534122
               4.67707735               10.16825163               20.85709058                0.36445107               -2.72548125                1.25534097               -0.48169388                1.05735018               18.94145854               -0.01954722
               5.65235947               10.09514263               20.90917906                0.35590015               -2.45010728                1.14023003               -0.32813575                0.30179757               18.77165374                0.01612534
               6.62807521               10.01916720               20.96318889                0.37437874               -2.50784418                1.15613859               -0.15663815                0.12810333               18.98178497                0.10591801
               7.60220259                9.93988812               21.02084557                0.41781666               -2.77369329                1.14427338                0.00929708               -0.06114696               19.40796272                0.20763246
               8.57260134                9.85692781               21.08490419                0.52091264               -3.42460340                1.28098922                0.17133655               -1.06153812               20.17773095                0.37635469
               9.53371052                9.75680100               21.15984869                0.68538321               -1.98918045               -0.06265144                0.31339759               -1.52044310               10.89056040                0.76531148
              10.53281773                9.68806122               21.04076804                0.91414615                0.01391139                0.05133640               -0.14997933                0.03253990                0.75268146                0.44665018
              11.53398875                9.62064606               20.91274590                0.98692522                0.11710178                0.22082800               -0.65380202                0.06974996                0.31786498               -0.48208785
               0.84138845                0.46570634               22.33561223                1.00000000               -0.35111828               -0.38095159                1.32951119               -0.06676404               -0.78714031                0.82067836
               1.83787727                0.36068637               22.25978935                1.00000000               -0.29317143               -0.30290196                1.06848475               -0.05378533               -1.00228501                0.06074624
               2.83552502                0.25541451               22.17963504                1.00000000               -0.16147271               -0.22496314                0.79360206               -0.04220126               -0.95123238               -0.20993744
               3.83464781                0.15110867               22.10483646                0.62361842                0.30871303               -0.17718499                0.53169587                0.47252175               -0.00833307               -0.63499002
               4.84169928                0.05876255               22.04355675                0.71255643                0.45450131               -0.05702354                0.22977219               -0.07408714                0.46620653                0.16697897
               5.84373784               -0.02491454               21.97846171                0.79642199                0.14489431                0.02775885               -0.05621946               -0.00021117                0.09392284                0.09509019
               6.84459717               -0.10705616               21.90973356                0.77406457                0.07176866                0.10328910               -0.33823587                0.00898318               -0.09880237               -0.06151675
               7.84517321               -0.18963733               21.84071402                0.86901447                0.08659103                0.19297429               -0.63131024                0.02740651               -0.33697059                0.07468823
               8.84632899               -0.27471209               21.76703561                1.00000000                0.19374256                0.28626351               -0.92267211                0.01366727               -0.68653454                0.45621038
               9.84904806               -0.36159715               21.69088242                1.00000000                0.33104624                0.35573816               -1.20800961               -0.04233665               -0.74646687                0.00792075
              10.85294991               -0.44872864               21.61602158                1.00000000                0.39018498                0.43550069               -1.47856619               -0.05897447               -0.68627055               -0.69929545
               0.94574078                1.46189683               22.30588270                1.00000000               -0.32554579               -0.36163091                1.20618476               -0.02688554               -0.10573680                1.11472807
               1.94248533                1.35765735               22.22966509                1.00000000               -0.29244660               -0.28202819                0.94690406               -0.00965492               -0.07490148                0.08669304
               2.93989185                1.25316488               22.15402533                0.82708692               -0.23931574               -0.20302448                0.67711848                0.01971233                0.14886298               -0.58786633
               3.93769901                1.14933682               22.08224679                0.16992085               -0.54609192               -0.16821004                0.39684543                0.66842033                1.64884484               -1.05622440
               4.92897001                1.05819231               22.03652760                0.33475277               -0.55269654                0.07002513                0.16213657               -0.09238234                2.34569065                0.96432161
               5.92664508                0.97536305               21.97834472                0.43280222               -0.09608109                0.09052601               -0.10065089                0.16458097                1.50042039                0.38326415
               6.92704839                0.89397673               21.91564467                0.32363572                0.13150781                0.06257021               -0.36358596                0.20926019                1.39594704               -0.38285502
               7.92927524                0.81229242               21.85544742                0.47001231                0.26985902                0.19024303               -0.61877835                0.23396826                1.38673086                0.59631928
               8.93244557                0.72815055               21.79280969                1.00000000                0.31788678                0.27250292               -0.87556532                0.10332036                0.70831534                0.66296932
               9.93563297                0.64196023               21.71926483                1.00000000                0.35230422                0.34635491               -1.14427874                0.00154596                0.09479643                0.09137193
              10.93949166                0.55562636               21.64442060                1.00000000                0.38586841                0.42360787               -1.41405665               -0.01644076                0.02678164               -0.82941911
               1.04932970                2.45847373               22.28199490                1.00000000               -0.29135867               -0.32905755                1.09548539               -0.02031404                0.03906616                1.41829147
               2.04641611                2.35504580               22.20001484                1.00000000               -0.25449553               -0.24622037                0.82695836                0.00406531                0.17832247                0.06152283
               3.04423979                2.25135402               22.12078618                0.46874449               -0.17136617               -0.17108040                0.57463455                0.04106818                0.79570304               -1.31462728
               4.04298879                2.14774447               22.05116682                0.00010000               -1.52071909               -0.14912381                0.29606445                0.92305702                4.46627038               -1.95452182
               5.01382541                2.06016305               22.04542444                0.00010000               -1.58718736                0.16457424                0.09300451                1.75349139                4.93128528               -1.27563527
               6.01124504                1.97689598               21.98398466                0.00010000               -0.09862008               -0.06706268               -0.13856705                1.47600866                1.77064432               -0.43129116
               7.01185300                1.89419524               21.91514988                0.00010000                0.22168571               -0.15268382               -0.37196127                1.23778277                3.10954174                0.31189707
               8.01567876                1.81416753               21.88065485                0.00010000                0.34372887               -0.10927788               -0.61294487                0.84228816                3.61316387                0.83352119
               9.01872758                1.73073797               21.82280371                0.49044699                0.29622048                0.26546169               -0.81246194                0.17550626                1.65938078                1.31240200
              10.02160317                1.64532994               21.74939558                1.00000000                0.32806222                0.33279636               -1.07511034                0.02475012                0.59723184                0.58012624
              11.02528883                1.55974351               21.67029464                1.00000000                0.36856614                0.40559943               -1.36128213               -0.00949253                0.31150657               -0.83981073
               1.15219035                3.45531568               22.25831159                1.00000000               -0.25040152               -0.30447910                0.98374869               -0.01675540                0.05945573                1.37901415
               2.14968633                3.35273294               22.16934070                1.00000000               -0.20879019               -0.21510225                0.70521228                0.00394583                0.07083011               -0.03811917
               3.14801455                3.24974327               22.08054366                0.27572229               -0.11676034               -0.13207825                0.42886535                0.00699604                1.00979781               -1.57023690
               4.14735113                3.14635435               22.01033574                0.00010000               -0.65631062               -0.09321724                0.16345384                0.95185819                4.61540857               -2.57631126
               5.13488833                3.06148380               21.99361023                0.00010000               -1.26090314                0.05768731                0.01049936                2.52375072                6.82258273               -3.08415172
               6.12213306                2.97402180               21.96759987                0.00010000               -1.01779181               -0.06889816               -0.15207810                2.09433526                6.00910500               -1.18038594
               7.11453250                2.89092305               21.93468838                0.00010000               -0.62773970               -0.14563642               -0.32282986                1.76897378                5.56783448                0.83916821
               8.10957827                2.81010686               21.90015045                0.00010000               -0.48696047               -0.17895166               -0.50315681                1.34169579                5.27473285                1.02184633
               9.10479329                2.73345978               21.86159140                0.25059995               -0.12279187                0.22519887               -0.71371714                0.47617895                3.29092005                2.45765343
              10.10712243                2.64861616               21.78759977                1.00000000                0.28406911                0.30596273               -0.97610666                0.01480163                0.76664224                0.93848171
              11.11047467                2.56373835               21.69847799                1.00000000                0.33522368                0.39889095               -1.30069542               -0.01568482                0.01252463               -0.58788744
               1.25416007                4.45238414               22.23362532                1.00000000               -0.20926343               -0.27712671                0.86366956               -0.02128754                0.07678658                1.25341349
               2.25206743                4.35074376               22.13765271                0.92381803               -0.17008825               -0.17701030                0.57504573               -0.00029116                0.10201932               -0.15000204
               3.25075830                4.24871246               22.04212936                0.16737103               -0.08910001               -0.07727796                0.29641939               -0.01933564                1.13512042               -1.45643940
               4.25028543                4.14588013               21.96681009                0.00010000               -0.70626643                0.08357657               -0.01835729                0.75840817                5.91532622               -2.16447599
               5.23663297                4.06131680               21.96667443                0.00010000               -1.32964692                0.09117010               -0.10187643                1.46754720                9.24290548               -1.37784677
               6.22369249                3.97551802               21.95833680                0.00010000               -1.27427761                0.20427993               -0.17872265                1.33912187                8.55222767               -0.53812657
               7.21114742                3.89128251               21.94486552                0.00010000               -1.18582756                0.15428499               -0.27872426                1.18494613                8.15899014                0.48598279
               8.19997594                3.81058850               21.92903218                0.00010000               -1.07027773                0.13243824               -0.40471073                1.10723512                8.09483749                1.55107405
               9.18974186                3.73524195               21.91457905                0.23025691               -0.41776570                0.14255462               -0.56237260                0.47809826                4.40117236                2.89512476
              10.19162063                3.65144920               21.82497751                0.91229131                0.24944364                0.26247964               -0.88262364                0.00862572                0.34991714                0.90712677
              11.19473074                3.56772133               21.72929541                1.00000000                0.31101104                0.39129261               -1.22415784               -0.01740458                0.05067133               -0.44186055
               1.35504537                5.44977314               22.20741311                1.00000000               -0.16931751               -0.23923305                0.73423352               -0.02485156                0.11938547                1.09932743
               2.35335219                5.34919273               22.10470552                0.74890935               -0.12769543               -0.13145662                0.42730724               -0.00498735                0.22831824               -0.33597669
               3.35249146                5.24819772               22.00412197                0.11258312               -0.17186204               -0.02505913                0.13304763                0.06084828                1.88377027               -1.63916815
               4.34991495                5.14802588               21.93452052                0.00010000               -0.89450376                0.34198904               -0.31164533                0.53798375                7.66791623               -0.72742268
               5.33460139                5.06330720               21.94910895                0.00010000               -1.54825839                0.30856089               -0.22237286                1.14887035               11.39771571               -0.57967100
               6.31894979                4.97810740               21.95494393                0.00010000               -1.57202239                0.35121939               -0.20428122                0.91287450               10.75863037               -0.04652241
               7.30316094                4.89400875               21.95749366                0.00010000               -1.55931249                0.34262589               -0.23462922                0.78195132               10.52468170                0.69758517
               8.28776354                4.81275562               21.95922089                0.00010000               -1.48331921                0.25130600               -0.29935807                0.78031487               10.54230209                1.58582993
               9.27349455                4.73631087               21.96247230                0.23752252               -0.64739867                0.08199387               -0.39153080                0.34921844                5.45593473                2.49078139
              10.27481556                4.65386575               21.86256901                0.80990193                0.20438790                0.22321544               -0.75350497                0.00793726                0.18828902                0.89825828
              11.27758231                4.57156420               21.76026952                1.00000000                0.27667493                0.37267002               -1.13539233               -0.01918619                0.07434806               -0.46376550
               1.45482385                6.44759948               22.17961461                1.00000000               -0.12807406               -0.19400347                0.59879010               -0.02474085                0.06943137                0.95864829
               2.45354311                6.34811463               22.06925330                0.63720724               -0.08408660               -0.08483679                0.27707274               -0.00459140                0.22744839               -0.51701911
               3.45314212                6.24821128               21.96200074                0.08462777               -0.38037443                0.02521447               -0.03304393                0.24138379                3.65328598               -1.97288300
               4.44593562                6.15271991               21.92015861                0.00010000               -1.18066288                0.50349320               -0.55348904                0.53553647                9.95566289                0.13897944
               5.42952886                6.06748801               21.93819504                0.00010000               -1.73435963                0.51598804               -0.30964257                0.90325309               12.85238228               -0.07689518
               6.41124843                5.98254241               21.95555143                0.00010000               -1.86953217                0.54637438               -0.21583095                0.66362105               12.72217678                0.25639631
               7.39213822                5.89813503               21.97198046                0.00010000               -1.89841572                0.49123944               -0.18515938                0.44870060               12.66498052                0.81783535
               8.37328012                5.81561462               21.98892636                0.00010000               -1.82610548                0.31662043               -0.19266773                0.38836425               12.75549516                1.51979578
               9.35561611                5.73688183               22.00762540                0.25477629               -0.83770369                0.03403359               -0.22701730                0.14202753                6.50388858                2.27715036
              10.35652604                5.65591351               21.89973224                0.74927070                0.16669968                0.18549202               -0.62864193                0.00542606                0.11491157                0.83557874
              11.35895010                5.57517473               21.79044052                1.00000000                0.24240608                0.34655960               -1.03733985               -0.01612054                0.05183257               -0.52923983
               1.55352027                7.44589307               22.15054368                1.00000000               -0.08716947               -0.14807872                0.46307789               -0.02360666                0.02990685                0.87010230
               2.55264857                7.34749600               22.03263218                0.57922289               -0.04032073               -0.03953983                0.13001603               -0.00261965                0.15915282               -0.59070551
               3.55271385                7.24870200               21.91725600                0.06990509               -0.56498131                0.07146415               -0.19875139                0.43305263                5.46410478               -2.15832021
               4.54134895                7.15809574               21.90544594                0.00010000               -1.49349511                0.56549299               -0.56208494                0.76506171               12.50337748               -0.08679369
               5.52284395                7.07362696               21.93058339                0.00010000               -1.98868775                0.71655150               -0.33965622                0.81912448               14.40905489                0.10103423
               6.50157519                6.98903488               21.95812114                0.00010000               -2.18906067                0.77115009               -0.20684371                0.47351514               14.54107602                0.37023047
               7.47906274                6.90383354               21.98699438                0.00010000               -2.23955830                0.67365269               -0.13124548                0.11837108               14.66465125                0.80723902
               8.45678403                6.81908803               22.01787171                0.00010000               -2.15132598                0.39897164               -0.09022167               -0.07422295               14.86568647                1.40325178
               9.43603622                6.73699155               22.05136793                0.27783621               -1.00764244               -0.00964178               -0.07506049               -0.12118426                7.53716667                2.14111006
              10.43663118                6.65757559               21.93600725                0.71999250                0.13506174                0.14605508               -0.50629714               -0.00026233                0.06672473                0.75294632
              11.43873745                6.57849540               21.81986478                1.00000000                0.21062757                0.31620304               -0.94116370               -0.01366360                0.03552027               -0.59417546
               1.65114587                8.44463791               22.12091664                1.00000000               -0.04640825               -0.10451331                0.32920921               -0.02266566                0.01155890                0.84301525
               2.65068179                8.34732383               21.99565731                0.56980969                0.00287787                0.00501386               -0.01436096               -0.00071716                0.06289236               -0.60989866
               3.65120343                8.24964056               21.87137663                0.05805733               -0.71849421                0.11595811               -0.36046293                0.62873026                7.07851667               -2.10797537
               4.63631190                8.16402977               21.88643079                0.00010000               -1.81156076                0.67627819               -0.50962015                1.02109551               15.10436158               -0.23446939
               5.61497221                8.08181904               21.92297901                0.00010000               -2.28998749                0.94333657               -0.32514689                0.77963915               16.18187084                0.08641205
               6.59051215                7.99796541               21.96077815                0.00010000               -2.52598597                0.99833584               -0.18541164                0.32098075               16.31663260                0.32890315
               7.56445249                7.91160808               22.00113968                0.00010000               -2.59372508                0.92549728               -0.07832025               -0.16980441               16.58011780                0.65617335
               8.53863765                7.82359405               22.04522435                0.00906369               -2.48738123                0.56406669                0.00346442               -0.62084472               16.95194850                1.15556134
               9.51470487                7.73668899               22.09381874                0.30560168               -1.18103533               -0.04382928                0.06384592               -0.46213631                8.60146599                1.93602425
              10.51501694                7.65883461               21.97142867                0.72217005                0.10661745                0.10807781               -0.39089959               -0.01033318                0.03773608                0.69111971
              11.51683722                7.58149879               21.84850055                1.00000000                0.18202719                0.28289228               -0.85047482               -0.01130172                0.02004384               -0.66135151
               1.74769511                9.44380281               22.09123900                1.00000000               -0.00635349               -0.06414087                0.19781378               -0.02206192               -0.00705457                0.71974097
               2.74763158                9.34759628               21.95861262                0.59293221                0.04437022                0.04899808               -0.15621616                0.00042372                0.07683711               -0.52724217
               3.74858252                9.25102117               21.82761739                0.02687069               -0.90196024                0.15835319               -0.51000379                0.88265270                8.74990536               -1.46512576
               4.72959237                9.17162131               21.86845294                0.00010000               -2.20407116                1.02051914               -0.46430898                0.98035635               17.57560409               -0.07397910
               5.70450109                9.09249369               21.91472952                0.00010000               -2.56933028                1.11725841               -0.31345067                0.57893809               17.85177625                0.04434006
               6.67820577                9.00900160               21.96216940                0.00010000               -2.72315445                1.14592369               -0.16862194                0.18226578               18.01792247                0.18899200
               7.65003800                8.92234349               22.01286377                0.00010000               -2.94597714                1.12757161               -0.03595717               -0.26538178               18.39863525                0.37205939
               8.61928622                8.83036937               22.06907262                0.02790552               -2.92425346                1.00313107                0.08575559               -0.87654688               19.01762047                0.67405900
               9.59155294                8.73611496               22.13336864                0.33555138               -1.38357576               -0.05208976                0.18428006               -0.90325384                9.81242235                1.29199619
              10.59161471                8.65973714               22.00633720                0.75415077                0.08150576                0.07714124               -0.28555779               -0.02444063                0.11216886                0.56505258
              11.59318305                8.58415324               21.87635963                0.98160794                0.15683413                0.24855690               -0.76930754               -0.01100808               -0.02428553               -0.59961259
               1.84311769               10.44335509               22.05907765                1.00000000                0.03542066               -0.04477164                0.06658802                0.03712818                0.39416279                0.59911109
               2.84347190               10.34830379               21.92326057                0.83161088                0.08568770                0.07075152               -0.29288355                0.05665901                0.75438616               -0.44146707
               3.84483145               10.25280762               21.79460249                0.51388886               -1.45126974                0.17864565               -0.64075457                1.43171128               10.42853585               -0.92900981
               4.81444651               10.18444015               21.85227020                0.36488990               -2.78303842                1.28188450               -0.48140490                1.05324279               19.49840471                0.03638272
               5.78917068               10.10416421               21.90586331                0.35610078               -2.50694161                1.16705215               -0.33416409                0.28914517               19.35513087                0.03525918
               6.76430767               10.02088388               21.96155568                0.37419701               -2.56967943                1.18822825               -0.17023103                0.10995587               19.59185453                0.11602641
               7.73777709                9.93415952               22.02083241                0.41719674               -2.84862173                1.18160304               -0.01274439               -0.08745171               20.03383822                0.21720168
               8.70733524                9.84365668               22.08646812                0.52254139               -3.52525396                1.32873092                0.14096241               -1.12071454               20.80954842                0.39443915
               9.66727201                9.73564719               22.16272879                0.68467296               -2.04226944               -0.04677648                0.26044953               -1.59205435               11.23947873                0.79890869
              10.66648985                9.66037743               22.03904367                0.90337106                0.02564250                0.06402899               -0.19612506                0.02865098                0.78691908                0.46800778
              11.66778486                9.58646993               21.90601842                0.98688183                0.12950117                0.23166905               -0.69161512                0.06943087                0.33248006               -0.49880505
               0.91055950                0.50433721               23.34887280                1.00000000               -0.34947827               -0.37903648                1.32260506               -0.06639606               -0.80376434                0.83598216
               1.90706472                0.39205277               23.27044158                1.00000000               -0.29221375               -0.30074625                1.06197512               -0.05302865               -1.02576309                0.06588686
               2.90471523                0.27951593               23.18753760                1.00000000               -0.16169878               -0.22243894                0.78715995               -0.04168567               -0.97568799               -0.20985961
               3.90383074                0.16790574               23.11010541                0.62503064                0.30025216               -0.17486899                0.52332327                0.45573155               -0.04548055               -0.66004067
               4.91072027                0.06787661               23.04583503                0.71437474                0.44656118               -0.05636560                0.22620345               -0.07808580                0.41052888                0.17979670
               5.91276197               -0.02358877               22.97790979                0.79806486                0.14717460                0.02767102               -0.05453518               -0.00280277                0.04730291                0.10158788
               6.91366376               -0.11346901               22.90638407                0.77495983                0.07885924                0.10208853               -0.33240033                0.00809813               -0.14865229               -0.06440703
               7.91433915               -0.20365426               22.83445232                0.86974487                0.09530924                0.19078781               -0.62183488                0.02352551               -0.39086306                0.08077907
               8.91556995               -0.29610008               22.75787548                1.00000000                0.19728319                0.28213491               -0.91026214                0.01027386               -0.73597452                0.46795631
               9.91828482               -0.39022172               22.67888350                1.00000000                0.32879761                0.35197667               -1.19274969               -0.04136239               -0.78484794                0.00730638
              10.92214590               -0.48458576               22.60132918                1.00000000                0.38610833                0.43189677               -1.46107405               -0.05654310               -0.71666317               -0.72743459
               1.02217998                1.50054684               23.31790990                1.00000000               -0.32349124               -0.35996729                1.19931617               -0.02614196               -0.10903397                1.13605202
               2.01894507                1.38904530               23.23909951                1.00000000               -0.29040493               -0.27980800                0.94014894               -0.00893189               -0.08334554                0.09294241
               3.01637189                1.27729154               23.16076107                0.83726001               -0.23686760               -0.20011422                0.67126816                0.01822877                0.13098992               -0.58255847
               4.01420772                1.16615705               23.08619580                0.17798148               -0.53426095               -0.16374421                0.39506211                0.64461412                1.64641048               -1.07040956
               5.00568667                1.06731296               23.03810312                0.34287890               -0.54004832                0.06819042                0.15492985               -0.10164939                2.35835846                0.97630136
               6.00340675                0.97668794               22.97731870                0.44187927               -0.09545883                0.08944731               -0.10379991                0.15054179                1.50244822                0.39286486
               7.00377749                0.88755187               22.91201020                0.33303904                0.12415942                0.06850416               -0.36316056                0.19826808                1.40206622               -0.37687430
               8.00588994                0.79825362               22.84927542                0.47701309                0.25894640                0.18869484               -0.61581252                0.21470940                1.39716197                0.59899986
               9.00895642                0.70672127               22.78408353                1.00000000                0.31120461                0.26983266               -0.87005803                0.09538045                0.71303872                0.68277617
              10.01211403                0.61329805               22.70786296                1.00000000                0.34940448                0.34337036               -1.13667908                0.00198732                0.09338681                0.09389688
              11.01594451                0.51973321               22.63033321                1.00000000                0.38304738                0.42204126               -1.40417670               -0.01434886                0.02533412               -0.86279239
               1.13303974                2.49713786               23.29291040                1.00000000               -0.28983600               -0.32792653                1.08795094               -0.01898769                0.03966480                1.44524207
               2.13014138                2.38645661               23.20825804                1.00000000               -0.25358419               -0.24400997                0.82127862                0.00570302                0.18558097                0.06741585
               3.12796806                2.27551365               23.12648720                0.47960454               -0.17198851               -0.16781174                0.56629672                0.04119880                0.79675749               -1.32390350
               4.12670161                2.16463085               23.05404245                0.00010000               -1.49058346               -0.14767960                0.28418842                0.89718950                4.49736282               -1.97354428
               5.09815639                2.06924042               23.04629290                0.00010000               -1.55838623                0.15551731                0.08293530                1.68968080                5.00323863               -1.27348609
               6.09553389                1.97820018               22.98255822                0.00010000               -0.10464712               -0.06970778               -0.14546167                1.42180179                1.82959386               -0.40506358
               7.09606345                1.88790107               22.91141154                0.00010000                0.19650280               -0.14870382               -0.37600810                1.18134899                3.16355790                0.35518243
               8.09946394                1.80011964               22.87450682                0.00010000                0.31848417               -0.10705040               -0.61620435                0.79827269                3.68839107                0.88560120
               9.10243313                1.70929658               22.81466759                0.49528652                0.29243410                0.26258529               -0.81482677                0.15871408                1.72428711                1.35794207
              10.10531263                1.61664569               22.73864528                1.00000000                0.32777333                0.32968306               -1.07508296                0.02092198                0.61922117                0.60024764
              11.10898860                1.52385507               22.65669703                1.00000000                0.36759716                0.40809873               -1.35842718               -0.00879298                0.32203794               -0.87508114
               1.24316274                3.49398831               23.26810382                1.00000000               -0.24793957               -0.30368373                0.97511405               -0.01544721                0.06313331                1.40135183
               2.24068335                3.38416511               23.17636445                1.00000000               -0.20705640               -0.21319279                0.69947044                0.00586320                0.07581578               -0.03793233
               3.23902161                3.27393531               23.08482863                0.28454303               -0.11293053               -0.12944784                0.42720429                0.00394078                1.02079820               -1.59377013
               4.23842474                3.16320346               23.01196870                0.00010000               -0.65553278               -0.09960546                0.15958740                0.92267091                4.68694704               -2.62884559
               5.22591096                3.07042330               22.99366634                0.00010000               -1.26212981                0.04852729                0.00361637                2.43710956                6.95086882               -3.09806030
               6.21318214                2.97529379               22.96605857                0.00010000               -1.02129745               -0.07404654               -0.15728592                2.01600436                6.14174381               -1.14514860
               7.20548501                2.88457780               22.93142956                0.00010000               -0.63611240               -0.15204807               -0.32936044                1.68951348                5.69920338                0.91167294
               8.20045989                2.79611261               22.89507542                0.00010000               -0.49401790               -0.17908161               -0.51218128                1.28538477                5.39358426                1.12209212
               9.19560465                2.71197298               22.85440225                0.24945364               -0.12429545                0.21348068               -0.72393911                0.44492178                3.37792589                2.54617479
              10.19797398                2.61989171               22.77779469                1.00000000                0.28726184                0.30343020               -0.98452578                0.00733750                0.79820406                0.97008017
              11.20134989                2.52789518               22.68544570                1.00000000                0.33759057                0.40416193               -1.30535499               -0.01436125                0.01344719               -0.61188212
               1.35237721                4.49106419               23.24221029                1.00000000               -0.20655639               -0.27614623                0.85373479               -0.02076728                0.08409178                1.26682316
               2.35031165                4.38219275               23.14337589                0.91418507               -0.16843462               -0.17509810                0.56944615                0.00010355                0.11430850               -0.16277882
               3.34900852                4.27292469               23.04509214                0.17314544               -0.08223081               -0.07497118                0.29543880               -0.03045937                1.13844657               -1.49046183
               4.34866703                4.16263875               22.96672668                0.00010000               -0.71001358                0.07108398               -0.00432184                0.72496608                6.00986888               -2.29042393
               5.33480825                4.07021097               22.96566036                0.00010000               -1.34837768                0.08665825               -0.09977514                1.40648822                9.45863327               -1.40804059
               6.32169948                3.97671925               22.95653892                0.00010000               -1.28866796                0.19967928               -0.18194835                1.27392475                8.77523900               -0.50997916
               7.30903489                3.88486011               22.94203917                0.00010000               -1.19615109                0.14797592               -0.28728264                1.11754621                8.36966333                0.55589697
               8.29777646                3.79653801               22.92491685                0.00010000               -1.07412105                0.12579444               -0.41892631                1.03869563                8.28876259                1.64838141
               9.28755247                3.71356619               22.90884528                0.22758442               -0.41196450                0.12592064               -0.58416520                0.44322400                4.51277659                3.01766863
              10.28953717                3.62271429               22.81605745                0.89262477                0.25709747                0.26241625               -0.90077578                0.00585500                0.37388473                0.95414164
              11.29269442                3.53193830               22.71698893                1.00000000                0.31572507                0.39938650               -1.23635791               -0.01791257                0.06449958               -0.45203839
               1.46049027                5.48846539               23.21469957                1.00000000               -0.16653567               -0.23766417                0.72329241               -0.02485411                0.12131066                1.10484717
               2.45882491                5.38066314               23.10895006                0.74096533               -0.12619191               -0.12903248                0.42144611               -0.00554183                0.23677932               -0.35883763
               3.45796643                5.27243589               23.00545390                0.11733689               -0.15935665               -0.02193784                0.13289476                0.03907698                1.82940527               -1.68986739
               4.45563778                5.16462514               22.93155079                0.00010000               -0.90031059                0.32702208               -0.28366330                0.50220710                7.79674463               -0.88518839
               5.43996022                5.07215647               22.94691154                0.00010000               -1.58131443                0.30759566               -0.21528401                1.09388406               11.76002606               -0.60036722
               6.42401149                4.97928737               22.95288967                0.00010000               -1.59715229                0.35162838               -0.20688459                0.85078824               11.07934464               -0.01267240
               7.40801717                4.88753732               22.95509823                0.00010000               -1.57418834                0.33965688               -0.24526714                0.71299955               10.81978647                0.76772411
               8.39252773                4.79862850               22.95613660                0.00010000               -1.48621638                0.24462103               -0.31828665                0.70709171               10.82232286                1.68486887
               9.37829285                4.71449139               22.95841462                0.23463321               -0.64043792                0.07104772               -0.42031444                0.31291717                5.60713255                2.61822470
              10.37971897                4.62514003               22.85491662                0.79233135                0.21253804                0.22475282               -0.77637613                0.00880446                0.19972620                0.96055431
              11.38254361                4.53588291               22.74882497                1.00000000                0.28246411                0.38368083               -1.15252587               -0.01970540                0.07579463               -0.46244355
               1.56748462                6.48631091               23.18554430                1.00000000               -0.12543063               -0.19173108                0.58720706               -0.02474778                0.06878472                0.96068720
               2.56623032                6.37961210               23.07199607                0.63112926               -0.08282779               -0.08217921                0.27129775               -0.00515141                0.23272035               -0.53922596
               3.56582807                6.27248593               22.96167244                0.08844149               -0.36198626                0.02860037               -0.03296626                0.21057882                3.56291901               -2.02398583
               4.55899059                6.16917919               22.91472959                0.00010000               -1.19021863                0.49809267               -0.52600227                0.48207354               10.13467906                0.11599827
               5.54202370                6.07636288               22.93512720                0.00010000               -1.78280968                0.52174110               -0.30143920                0.84802104               13.34535338               -0.05789507
               6.52333440                5.98375182               22.95337573                0.00010000               -1.90349709                0.55184045               -0.21901726                0.59554835               13.12789540                0.30318007
               7.50395375                5.89165325               22.97006738                0.00010000               -1.91850898                0.49246893               -0.19818871                0.37286281               13.03926724                0.88853128
               8.48496422                5.80143043               22.98689119                0.00010000               -1.83272359                0.31323304               -0.21540730                0.30659411               13.11657825                1.61373348
               9.46729928                5.71498714               23.00519509                0.25217461               -0.83212422                0.02946266               -0.25978426                0.10001692                6.69052096                2.39264607
              10.46832174                5.62720935               22.89331009                0.73336047                0.17576337                0.18848377               -0.65555650                0.00685625                0.11983554                0.89272408
              11.47081455                5.53961192               22.77996290                1.00000000                0.24928147                0.35841858               -1.05735390               -0.01605967                0.05361922               -0.52404885
               1.67339292                7.48463077               23.15511546                1.00000000               -0.08460661               -0.14521023                0.45120084               -0.02355302                0.02932791                0.87261713
               2.67254686                7.37901956               23.03390674                0.57475263               -0.03909991               -0.03715272                0.12460690               -0.00281100                0.16078289               -0.60956955
               3.67261092                7.27300789               22.91527424                0.07262445               -0.55722753                0.07383973               -0.19805542                0.40290048                5.45034192               -2.20585153
               4.66140230                7.17458699               22.89985899                0.00010000               -1.51314551                0.57297509               -0.54552246                0.69522822               12.76500618                0.03289726
               5.64234801                7.08259129               22.92720342                0.00010000               -2.03851063                0.72741220               -0.33297923                0.75875465               14.92956455                0.16307859
               6.62063209                6.99032418               22.95602503                0.00010000               -2.22760970                0.78169553               -0.21179246                0.40077572               15.00712592                0.42630471
               7.59779582                6.89738669               22.98560704                0.00010000               -2.26531902                0.68018566               -0.14689360                0.03604924               15.10661881                0.87351947
               8.57532571                6.80489316               23.01684345                0.00010000               -2.16407766                0.40082565               -0.11662415               -0.16305438               15.29901755                1.48619762
               9.55451427                6.71508064               23.05043700                0.27564224               -1.00471989               -0.00821547               -0.11229148               -0.16839915                7.75874113                2.24152920
              10.55523131                6.62890971               22.93079227                0.70480236                0.14514996                0.15115505               -0.53700472                0.00030639                0.06909162                0.80368578
              11.55741727                6.54305128               22.81033622                1.00000000                0.21859511                0.32774441               -0.96402321               -0.01303473                0.03655689               -0.59304754
               1.77823598                8.48340670               23.12414992                1.00000000               -0.04390081               -0.10124394                0.31722814               -0.02258129                0.01108853                0.84748579
               2.77779697                8.37886905               22.99549082                0.56679022                0.00413333                0.00694070               -0.01930768               -0.00065535                0.06124745               -0.62577524
               3.77831865                8.27396273               22.86778268                0.05947990               -0.72426069                0.11675959               -0.35880401                0.60441455                7.17372873               -2.14619488
               4.76331176                8.18063869               22.88137209                0.00010000               -1.84285249                0.68961204               -0.49369006                0.95928846               15.46780545               -0.09259735
               5.74146160                8.09091113               22.91972837                0.00010000               -2.33786243                0.95757699               -0.32192201                0.72586887               16.70426714                0.15994442
               6.71655451                7.99938573               22.95888335                0.00010000               -2.56779194                1.01419730               -0.19298713                0.25524300               16.82259199                0.37953133
               7.69010576                7.90525696               23.00026879                0.00010000               -2.62726633                0.94035778               -0.09641986               -0.24853791               17.08024117                0.70889827
               8.66400918                7.80944694               23.04511531                0.01030302               -2.50955026                0.57310868               -0.02645378               -0.71195721               17.45100269                1.22418077
               9.63991475                7.71482283               23.09424780                0.30363978               -1.18259812               -0.03616279                0.02045876               -0.51316179                8.85781533                2.01964168
              10.64035722                7.63023245               22.96734553                0.70619339                0.11779736                0.11621017               -0.42647235               -0.01100392                0.04057761                0.73217798
              11.64227070                7.54616681               22.83986086                1.00000000                0.19134795                0.29381865               -0.87720756               -0.01015019                0.02088462               -0.66828820
               1.88201660                9.48260589               23.09315861                1.00000000               -0.00388825               -0.06060111                0.18575575               -0.02198279               -0.00789116                0.72551885
               2.88197772                9.37915837               22.95703045                0.59054599                0.04564854                0.05049724               -0.16068230                0.00050349                0.07630675               -0.53894789
               3.88292957                9.27534308               22.82253442                0.02652600               -0.91690205                0.15788849               -0.50707472                0.86661981                8.94813779               -1.48720129
               4.86363968                9.18837923               22.86383900                0.00010000               -2.24056098                1.03530384               -0.45421496                0.94363084               18.03717614                0.02347661
               5.83811835                9.10174283               22.91158231                0.00010000               -2.61242810                1.13345500               -0.31413349                0.54719539               18.38239208                0.08957675
               6.81139112                9.01060813               22.96042837                0.00010000               -2.76772532                1.16647182               -0.17931800                0.14198559               18.56248615                0.21792037
               7.78276385                8.91619385               23.01240440                0.00010000               -2.99352107                1.15189607               -0.05637486               -0.31958151               18.95483207                0.40061941
               8.75152069                8.81635533               23.06978196                0.03041811               -2.96491622                1.02893296                0.05572312               -0.94748619               19.57784658                0.71775898
               9.72346552                8.71435739               23.13496775                0.33363815               -1.39267174               -0.03819811                0.13366468               -0.95558140               10.10312331                1.34474033
              10.72366726                8.63123391               23.00327714                0.73512534                0.09400077                0.08880017               -0.32749893               -0.02602312                0.11987465                0.59292211
              11.72534554                8.54892766               22.86850706                0.98220061                0.16782775                0.25927808               -0.80111039               -0.00971807               -0.02295009               -0.61359511
               1.98469136               10.48219468               23.05968543                1.00000000                0.03784904               -0.04112102                0.05452872                0.03590681                0.39763236                0.60516131
               2.98506985               10.37987899               22.92031375                0.83103443                0.08694150                0.07206192               -0.29703998                0.05550377                0.76385042               -0.45027938
               3.98643019               10.27712050               22.78821506                0.51339398               -1.46426086                0.17774150               -0.63726201                1.42335000               10.69496837               -0.94139032
               4.95578463               10.20134477               22.84746248                0.36530329               -2.81267887                1.29655350               -0.47906624                1.03748140               20.04185787                0.08998831
               5.93017661               10.11358023               22.90249578                0.35629988               -2.54207133                1.18373944               -0.33838257                0.27434537               19.92185620                0.05417088
               6.90494320               10.02271516               22.95978427                0.37401002               -2.61048438                1.21070349               -0.18421631                0.09094151               20.18383320                0.12612591
               7.87796692                9.92829488               23.02059068                0.41655293               -2.90236400                1.21010325               -0.03620534               -0.11417073               20.64196174                0.22722102
               8.84689592                9.83002560               23.08772344                0.52441496               -3.60211857                1.36702642                0.11029480               -1.17427775               21.41554604                0.41496499
               9.80592455                9.71405887               23.16505768                0.68411795               -2.08147172               -0.02985154                0.20316626               -1.65495468               11.57035605                0.83063779
              10.80526649                9.63200845               23.03684554                0.89259603                0.03821482                0.07745400               -0.24478005                0.02459781                0.82017490                0.48852630
              11.80668885                9.55135237               22.89891360                0.98681306                0.14223575                0.24247133               -0.72935079                0.06872284                0.34711325               -0.51478200
               0.98217559                0.54435179               24.36206433                1.00000000               -0.34783932               -0.37715192                1.31577888               -0.06582410               -0.81988554                0.85088903
               1.97869720                0.42468825               24.28102885                1.00000000               -0.29140775               -0.29885144                1.05581050               -0.05206548               -1.04916872                0.07073665
               2.97634744                0.30477039               24.19537824                1.00000000               -0.16282133               -0.22062705                0.78187156               -0.04126598               -1.00158592               -0.21010882
               3.97544077                0.18572708               24.11530292                0.62599479                0.28790211               -0.17354869                0.51807720                0.43703699               -0.08302292               -0.68295227
               4.98210548                0.07782232               24.04808082                0.71532906                0.43470450               -0.05618451                0.22383791               -0.08050479                0.36056208                0.19077350
               5.98413486               -0.02170061               23.97737100                0.79872274                0.14880577                0.02725254               -0.05322830               -0.00573343                0.00522010                0.10811765
               6.98508159               -0.11959656               23.90308555                0.77524759                0.08648398                0.10083295               -0.32795757                0.00677333               -0.19543699               -0.06684142
               7.98586454               -0.21766796               23.82827732                0.86996552                0.10483588                0.18858660               -0.61411783                0.01943411               -0.44255672                0.08665546
               8.98717831               -0.31776908               23.74883037                1.00000000                0.20164317                0.27830359               -0.89982649                0.00695047               -0.78362084                0.47985216
               9.98989740               -0.41940995               23.66702743                1.00000000                0.32734929                0.34863343               -1.17956196               -0.04045305               -0.82178352                0.00690315
              10.99372530               -0.52128540               23.58680010                1.00000000                0.38278926                0.42880659               -1.44597216               -0.05429079               -0.74592220               -0.75431103
               1.10118088                1.54058027               24.32986902                1.00000000               -0.32136411               -0.35835711                1.19247579               -0.02544685               -0.11221794                1.15671406
               2.09796724                1.42169974               24.24846807                1.00000000               -0.28827608               -0.27795398                0.93388323               -0.00812097               -0.09095144                0.09921841
               3.09541536                1.30256412               24.16745069                0.84596754               -0.23410329               -0.19809972                0.66676114                0.01674748                0.11601715               -0.57887841
               4.09328518                1.18399159               24.09014803                0.18518831               -0.52005425               -0.16131992                0.39430644                0.61929630                1.64438757               -1.08862801
               5.08501428                1.07726047               24.03962620                0.34983032               -0.52491058                0.06538930                0.15042681               -0.10753787                2.36881759                0.98634997
               6.08278697                0.97857191               23.97626873                0.44963233               -0.09406388                0.08777293               -0.10586126                0.13673578                1.50631535                0.40310291
               7.08313300                0.88141177               23.90838146                0.34161216                0.11790870                0.07380411               -0.36260713                0.18699832                1.40951267               -0.37040886
               8.08514514                0.78421791               23.84313117                0.48328897                0.24929046                0.18737570               -0.61336907                0.19640903                1.40818304                0.60185155
               9.08811881                0.68501396               23.77540853                1.00000000                0.30529481                0.26735885               -0.86540537                0.08775196                0.71798484                0.70224651
              10.09125104                0.58407639               23.69653125                1.00000000                0.34695173                0.34065571               -1.13025732                0.00247265                0.09208487                0.09674205
              11.09505784                0.48300267               23.61633707                1.00000000                0.38068079                0.42073994               -1.39575772               -0.01233270                0.02408867               -0.89452253
               1.21942771                2.53718465               24.30375392                1.00000000               -0.28767826               -0.32687262                1.08061445               -0.01800409                0.04094700                1.47066733
               2.21655093                2.41912917               24.21644042                1.00000000               -0.25185907               -0.24216504                0.81520963                0.00671709                0.19251861                0.07343687
               3.21439053                2.30080839               24.13211212                0.49085821               -0.17102929               -0.16505914                0.55971438                0.03912035                0.79647970               -1.33151087
               4.21313034                2.18250068               24.05685059                0.00010000               -1.45080640               -0.14491981                0.27834762                0.86444445                4.52537325               -1.99343715
               5.18537440                2.07913010               24.04708315                0.00010000               -1.52060322                0.14473279                0.07552262                1.61778639                5.07716628               -1.26630846
               6.18271828                1.98005485               23.98107543                0.00010000               -0.10994187               -0.07168904               -0.15058235                1.35835860                1.89022427               -0.37586566
               7.18317556                1.88187952               23.90762971                0.00010000                0.17361254               -0.14414437               -0.37984497                1.11957098                3.21857873                0.39968946
               8.18619053                1.78607956               23.86833077                0.00010000                0.29496517               -0.10396178               -0.61912032                0.75153571                3.76239277                0.93789455
               9.18907487                1.68757810               23.80650718                0.49937746                0.28838105                0.25958145               -0.81730453                0.14186727                1.78780807                1.40257212
              10.19195815                1.58740317               23.72789393                1.00000000                0.32756102                0.32645992               -1.07521938                0.01716607                0.64093648                0.62028640
              11.19562609                1.48712940               23.64312610                1.00000000                0.36679378                0.41030716               -1.35580668               -0.00818965                0.33243945               -0.90861348
               1.33693174                3.53404282               24.27781387                1.00000000               -0.24539083               -0.30298953                0.96684793               -0.01448819                0.06748321                1.42137105
               2.33447784                3.41685644               24.18333011                1.00000000               -0.20527422               -0.21132977                0.69359887                0.00704737                0.08217844               -0.03779800
               3.33282626                3.29926294               24.08908775                0.29391118               -0.11127395               -0.12652196                0.42448700                0.00113345                1.02932309               -1.61360107
               4.33225236                3.18109320               24.01352749                0.00010000               -0.65052091               -0.10055615                0.15379634                0.88382145                4.75140297               -2.66639625
               5.31981584                3.08015513               23.99368255                0.00010000               -1.25238196                0.03903395               -0.00023553                2.33319678                7.07912639               -3.10539471
               6.30720472                2.97713813               23.96445415                0.00010000               -1.01580663               -0.07837552               -0.16314583                1.92369714                6.27104074               -1.10402573
               7.29949971                2.87852888               23.92810117                0.00010000               -0.63637222               -0.15738697               -0.33666211                1.59938637                5.82577621                0.98677372
               8.29447727                2.78213867               23.88990683                0.00010000               -0.49335845               -0.17923001               -0.52164452                1.22156318                5.50742054                1.22254089
               9.28963254                2.69020559               23.84711262                0.24791234               -0.12171074                0.20024235               -0.73361522                0.41244229                3.46184659                2.63171251
              10.29204306                2.59060559               23.76790926                1.00000000                0.29045250                0.30034682               -0.99200339               -0.00001293                0.82870897                1.00021312
              11.29544159                2.49120881               23.67237089                1.00000000                0.33985317                0.40859462               -1.30903992               -0.01309349                0.01410373               -0.63455776
               1.45351070                4.53112486               24.25070001                1.00000000               -0.20389449               -0.27533707                0.84425450               -0.02028438                0.09180790                1.27788231
               2.45147176                4.41490258               24.14904163                0.90501483               -0.16671317               -0.17303156                0.56354695                0.00043568                0.12724771               -0.17570478
               3.45017644                4.29827795               24.04803814                0.17879447               -0.07785890               -0.07214332                0.29343993               -0.03802248                1.14520888               -1.52249484
               4.44991458                4.18048956               23.96672365                0.00010000               -0.70915177                0.06130065                0.00245223                0.68863351                6.09904077               -2.39510069
               5.43599340                4.07991078               23.96467893                0.00010000               -1.35480562                0.08389452               -0.09719671                1.33224811                9.66499718               -1.43190764
               6.42281847                3.97848734               23.95469783                0.00010000               -1.29153260                0.19395026               -0.18631339                1.19831365                8.98771049               -0.47571857
               7.41016275                3.87873178               23.93911987                0.00010000               -1.19366910                0.14030696               -0.29713473                1.04088250                8.57039426                0.62848587
               8.39894509                3.78249496               23.92065366                0.00010000               -1.06529769                0.11699934               -0.43405123                0.96337502                8.47163631                1.74604584
               9.38885680                3.69158295               23.90289574                0.22461762               -0.39952070                0.10599826               -0.60533201                0.40698983                4.61795960                3.13685956
              10.39095467                3.59341011               23.80696200                0.87287400                0.26504882                0.26093019               -0.91751591                0.00375075                0.39778317                1.00119602
              11.39415778                3.49530129               23.70456826                1.00000000                0.32031033                0.40662772               -1.24686881               -0.01888649                0.07922565               -0.45989739
               1.56897061                5.52853608               24.22187896                1.00000000               -0.16371592               -0.23637619                0.71264294               -0.02476073                0.12317257                1.10854330
               2.56733345                5.41339581               24.11313444                0.73316719               -0.12458902               -0.12645772                0.41519310               -0.00591887                0.24551645               -0.38162070
               3.56647883                5.29782007               24.00677986                0.12156470               -0.14706249               -0.01833675                0.13174370                0.02069725                1.78653230               -1.73852481
               4.56439220                5.18231921               23.92884725                0.00010000               -0.90079003                0.31210613               -0.25747968                0.46364034                7.92407529               -1.02898218
               5.54846303                5.08183302               23.94480327                0.00010000               -1.60211053                0.30637289               -0.20613773                1.02471536               12.10235487               -0.61573993
               6.53234999                4.98101714               23.95080624                0.00010000               -1.60766446                0.34916590               -0.20985950                0.77748465               11.38433540                0.02567151
               7.51630974                4.88133502               23.95258831                0.00010000               -1.57281912                0.33325352               -0.25733733                0.63534338               11.10066313                0.84013946
               8.50089361                4.78447866               23.95285516                0.00010000               -1.47262764                0.23437426               -0.33858496                0.62647104               11.08746960                1.78449341
               9.48685719                4.69232555               23.95406602                0.23146941               -0.62469387                0.05647092               -0.44947633                0.27481817                5.75072642                2.74540560
              10.48839973                4.59582419               23.84704149                0.77466339                0.22121508                0.22411135               -0.79790181                0.01080421                0.21124503                1.02518385
              11.49128149                4.49934136               23.73721900                1.00000000                0.28817582                0.39406121               -1.16757633               -0.02032746                0.07698284               -0.45691128
               1.68329602                6.52639733               24.19135875                1.00000000               -0.12266359               -0.18981363                0.57567020               -0.02470728                0.06801563                0.96156334
               2.68206939                6.41237342               24.07467925                0.62495769               -0.08145212               -0.07929778                0.26510961               -0.00570542                0.23791671               -0.56101264
               3.68166698                6.29791122               23.96134141                0.09159915               -0.34474746                0.03273290               -0.03362582                0.18239356                3.48676195               -2.07346882
               4.67517444                6.18673168               23.90963856                0.00010000               -1.19385975                0.48959865               -0.48862006                0.42273548               10.31268845                0.09514802
               5.65778979                6.08603824               23.93216626                0.00010000               -1.81541401                0.52271706               -0.28884920                0.77725708               13.81366752               -0.03525557
               6.63886616                5.98547065               23.95117109                0.00010000               -1.91908438                0.55181083               -0.22169388                0.51613574               13.51478334                0.35290739
               7.61940810                5.88539685               23.96801668                0.00010000               -1.91910926                0.48837488               -0.21257411                0.28893688               13.39633615                0.96101020
               8.60048397                5.78718244               23.98461821                0.00010000               -1.82002346                0.30546034               -0.24001446                0.21781594               13.46072798                1.70847092
               9.58300763                5.69271237               24.00242972                0.24935002               -0.81645131                0.02219311               -0.29372134                0.05574595                6.86823469                2.50876012
              10.58415495                5.59789233               23.88662111                0.71729230                0.18546259                0.18948396               -0.68178983                0.00921054                0.12431184                0.95213149
              11.58671688                5.50318252               23.76929344                1.00000000                0.25619345                0.36975606               -1.07555376               -0.01602070                0.05525401               -0.51413056
               1.79652428                7.52473980               24.15956770                1.00000000               -0.08188242               -0.14264286                0.43913799               -0.02350454                0.02865900                0.87441124
               2.79570545                7.41180985               24.03512432                0.57016959               -0.03779179               -0.03444081                0.11863104               -0.00302467                0.16215930               -0.62787867
               3.79576844                7.29847473               23.91329489                0.07467278               -0.54927814                0.07726323               -0.19814537                0.37155419                5.44627455               -2.25173641
               4.78471989                7.19211118               23.89453549                0.00010000               -1.52496214                0.57330610               -0.51083745                0.61802574               13.02203664                0.15136969
               5.76526920                7.09228736               23.92392380                0.00010000               -2.07028997                0.73004011               -0.32017009                0.68493369               15.42675490                0.22643081
               6.74331409                6.99205335               23.95388529                0.00010000               -2.24462547                0.78410203               -0.21570605                0.31862875               15.45241705                0.48398205
               7.72037669                6.89110252               23.98405651                0.00010000               -2.26898395                0.67959145               -0.16381349               -0.05241158               15.52928731                0.94139373
               8.69793441                6.79058787               24.01553923                0.00010000               -2.15572380                0.39783610               -0.14518959               -0.25691898               15.71326599                1.56997796
               9.67726221                6.69276942               24.04912210                0.27330581               -0.99103102               -0.00806477               -0.15149606               -0.21753317                7.97001092                2.34114669
              10.67811379                6.59961387               23.92526715                0.68940356                0.15592470                0.15504843               -0.56805258                0.00137824                0.07069633                0.85591254
              11.68038071                6.50673648               23.80058432                1.00000000                0.22669159                0.33898340               -0.98568254               -0.01237014                0.03743692               -0.58813199
               1.90868583                8.52354447               24.12726120                1.00000000               -0.04118632               -0.09810670                0.30481020               -0.02252000                0.01059219                0.85139477
               2.90827397                8.41168461               23.99527116                0.56371111                0.00554495                0.00922681               -0.02499076               -0.00057682                0.05937964               -0.64104403
               3.90879673                8.29945648               23.86420055                0.06028783               -0.72758247                0.11850193               -0.35801548                0.57407375                7.27685287               -2.18243032
               4.89372232                8.19819780               23.87655699                0.00010000               -1.86252210                0.69446337               -0.46133984                0.88753345               15.82381459                0.04670423
               5.87154629                8.10063904               23.91654057                0.00010000               -2.36493737                0.96152304               -0.31303319                0.66226296               17.20217733                0.23239402
               6.84642357                8.00115269               23.95691841                0.00010000               -2.58604676                1.02028666               -0.19959672                0.18344721               17.30770508                0.43073879
               7.81982536                7.89898868               23.99921128                0.00010000               -2.63724394                0.94657328               -0.11553481               -0.33045821               17.55975302                0.76327382
               8.79367870                7.79513916               24.04469528                0.01170577               -2.50971973                0.57642761               -0.05846596               -0.80461082               17.92787020                1.29573981
               9.76963096                7.69255107               24.09422792                0.30168021               -1.17316259               -0.02847623               -0.02563027               -0.56439313                9.10178434                2.10083614
              10.77021544                7.60099330               23.96289922                0.69002573                0.12966446                0.12408526               -0.46331615               -0.01148943                0.04270339                0.77323831
              11.77222425                7.50996218               23.83095640                1.00000000                0.20088068                0.30460563               -0.90336649               -0.00893657                0.02162774               -0.67281488
               2.01979361                9.52277767               24.09495412                1.00000000               -0.00117025               -0.05698987                0.17300810               -0.02193432               -0.00870713                0.73081535
               3.01978191                9.41199439               23.95539898                0.58813225                0.04715554                0.05234998               -0.16607465                0.00062046                0.07573901               -0.55012583
               4.02073672                9.30084477               23.81747590                0.02575053               -0.92469522                0.15810247               -0.50507328                0.83957093                9.14853770               -1.50754252
               5.00128800                9.20600045               23.85936864                0.00010000               -2.25885759                1.03975828               -0.43583767                0.89768382               18.48913016                0.11353523
               5.97555957                9.11151782               23.90844685                0.00010000               -2.63273039                1.13908236               -0.31143358                0.50991758               18.89181460                0.13337956
               6.94863340                9.01245909               23.95858304                0.00010000               -2.78892557                1.17709478               -0.18959567                0.09910127               19.08719650                0.24694637
               7.91978106                8.91003398               24.01173627                0.00010000               -3.01767944                1.16713480               -0.07751026               -0.37454330               19.49171304                0.43042500
               8.88827981                8.80211642               24.07018708                0.03331014               -2.98304222                1.04669210                0.02555749               -1.01668108               20.11186404                0.76588164
               9.86012021                8.69219989               24.13604194                0.33194632               -1.39034577               -0.02354854                0.07951042               -1.00473831               10.37655319                1.39468153
              10.86047289                8.60209558               23.99978723                0.71603657                0.10719991                0.10089357               -0.37145317               -0.02746552                0.12690869                0.61979901
              11.86226421                8.51282860               23.86033742                0.98258978                0.17913202                0.26995184               -0.83280047               -0.00835996               -0.02137379               -0.62624580
               2.12981371               10.52240468               24.06016822                1.00000000                0.04055753               -0.03729916                0.04161310                0.03470281                0.40085312                0.61077757
               3.13021928               10.41273161               23.91731977                0.83047853                0.08841901                0.07372197               -0.30232444                0.05443033                0.77300821               -0.45864517
               4.13158209               10.30261853               23.78185725                0.51273764               -1.46081700                0.17737685               -0.63492885                1.39760476               10.95741659               -0.95244242
               5.10100294               10.21899297               23.84268888                0.36569392               -2.81480405                1.29925186               -0.47485114                1.01160168               20.57347177                0.13590595
               6.07528601               10.12342069               23.89909566                0.35649084               -2.55567539                1.19028690               -0.34092437                0.25772470               20.47089199                0.07220782
               7.04988944               10.02469459               23.95787136                0.37382040               -2.63044240                1.22355030               -0.19861137                0.07113838               20.75628831                0.13635235
               8.02267716                9.92233138               24.02010830                0.41588875               -2.93551350                1.22973939               -0.06062805               -0.14146920               21.23224289                0.23814411
               8.99117917                9.81607300               24.08867401                0.52653996               -3.65600613                1.39565870                0.08094587               -1.22262804               21.99271314                0.43946511
               9.94955704                9.69208010               24.16679212                0.68374032               -2.10708691               -0.01197913                0.14170454               -1.70940935               11.87920017                0.85976838
              10.94903743                9.60301117               24.03414807                0.88184866                0.05169855                0.09155965               -0.29601435                0.02050953                0.85202483                0.50787406
              11.95059101                9.51536122               23.89143140                0.98671385                0.15535802                0.25326228               -0.76727058                0.06768434                0.36174314               -0.52978424
               1.05623274                0.58574561               25.37518838                1.00000000               -0.34653084               -0.37540696                1.30930071               -0.06517687               -0.83561297                0.86528689
               2.05276743                0.45858906               25.29155779                1.00000000               -0.29116520               -0.29709520                1.05041274               -0.05114377               -1.07211162                0.07537172
               3.05040944                0.33116886               25.20317504                1.00000000               -0.16498648               -0.21887593                0.77810632               -0.04134691               -1.02717514               -0.21038118
               4.04946770                0.20455647               25.12046695                0.62669718                0.27269966               -0.17196481                0.51550200                0.41684879               -0.11976975               -0.70415396
               5.05586343                0.08860132               25.05031179                0.71564863                0.41969665               -0.05636922                0.22316395               -0.08102691                0.31324378                0.20070670
               6.05786164               -0.01922186               24.97684522                0.79853594                0.14926367                0.02674357               -0.05171292               -0.00833275               -0.03413148                0.11446526
               7.05884871               -0.12539766               24.89982492                0.77496246                0.09407825                0.09971924               -0.32465334                0.00530911               -0.23981272               -0.06889240
               8.05974320               -0.23162885               24.82216996                0.86962938                0.11493588                0.18660595               -0.60837396                0.01524725               -0.49196862                0.09219290
               9.06114742               -0.33965936               24.73987895                1.00000000                0.20681084                0.27487576               -0.89165305                0.00373948               -0.82909210                0.49192253
              10.06387942               -0.44909130               24.65529226                1.00000000                0.32673509                0.34576876               -1.16870872               -0.03955089               -0.85692724                0.00675388
              11.06768212               -0.55874593               24.57240973                1.00000000                0.38027050                0.42626846               -1.43341306               -0.05221209               -0.77382056               -0.77965008
               1.18273752                1.58199154               25.34175941                1.00000000               -0.31931473               -0.35696228                1.18568896               -0.02469579               -0.11536756                1.17655056
               2.17954437                1.45561811               25.25777717                1.00000000               -0.28626270               -0.27628793                0.92819015               -0.00726612               -0.09830778                0.10536576
               3.17701227                1.32898010               25.17409629                0.85418016               -0.23122065               -0.19612405                0.66244105                0.01483762                0.10197587               -0.57543765
               4.17491996                1.20283682               25.09408193                0.19188171               -0.50349691               -0.15869062                0.39187356                0.59139386                1.64140864               -1.10685552
               5.16694233                1.08803763               25.04111165                0.35586341               -0.50710797                0.06282884                0.14692500               -0.10898994                2.37823878                0.99493798
               6.16477780                0.98104558               24.97520148                0.45626182               -0.09185164                0.08596466               -0.10744822                0.12460373                1.51153994                0.41333261
               7.16510529                0.87559954               24.90475805                0.34948574                0.11243649                0.07864016               -0.36225856                0.17613021                1.41799122               -0.36373888
               8.16702653                0.77023721               24.83700804                0.48888285                0.24053724                0.18653647               -0.61177335                0.17904947                1.41972430                0.60430115
               9.16991604                0.66308939               24.76677543                1.00000000                0.30003321                0.26516469               -0.86178485                0.08039478                0.72324632                0.72122773
              10.17302719                0.55436639               24.68525781                1.00000000                0.34492992                0.33823509               -1.12507287                0.00301871                0.09099606                0.10006720
              11.17681464                0.44551675               24.60241805                1.00000000                0.37874438                0.41974511               -1.38873624               -0.01041795                0.02314671               -0.92411754
               1.30848568                2.57860636               25.31452269                1.00000000               -0.28521300               -0.32609511                1.07303257               -0.01718611                0.04236619                1.49479835
               2.30563355                2.45306330               25.22456223                1.00000000               -0.24991019               -0.24050893                0.80928153                0.00743388                0.19889927                0.07962960
               3.30348748                2.32724638               25.13768149                0.50260576               -0.16977523               -0.16214163                0.55470530                0.03588950                0.79476437               -1.33739183
               4.30223805                2.20138266               25.05960940                0.00010000               -1.40063004               -0.14171755                0.27336818                0.82747757                4.54972108               -2.01210918
               5.27547488                2.08985790               25.04780335                0.00010000               -1.47231207                0.13409987                0.06873394                1.53696340                5.14995248               -1.25694380
               6.27279181                1.98249744               24.97954658                0.00010000               -0.11475982               -0.07273541               -0.15486672                1.28618906                1.95153665               -0.34525692
               7.27317968                1.87617515               24.90381464                0.00010000                0.15212644               -0.13882092               -0.38280585                1.05235034                3.27314271                0.44412087
               8.27583434                1.77210188               24.86212442                0.00010000                0.27232258               -0.09983340               -0.62271406                0.70195536                3.83444754                0.98911939
               9.27862613                1.66564393               24.79832150                0.50263904                0.28390487                0.25646331               -0.81994696                0.12473215                1.85013708                1.44599997
              10.28151243                1.55767341               24.71714089                1.00000000                0.32734530                0.32307539               -1.07537608                0.01338686                0.66252802                0.64062524
              11.28517304                1.44964897               24.62958089                1.00000000                0.36606063                0.41225578               -1.35320315               -0.00774078                0.34279976               -0.93961585
               1.43347991                3.57546964               25.28744078                1.00000000               -0.24268779               -0.30248092                0.95836412               -0.01394737                0.07214959                1.43973103
               2.43105304                3.45080793               25.19023643                1.00000000               -0.20346067               -0.20944874                0.68765221                0.00762776                0.08924487               -0.03739553
               3.42941070                3.32573727               25.09331837                0.30326179               -0.10975252               -0.12318493                0.42179997               -0.00311297                1.03663044               -1.63063418
               4.42885799                3.20000247               25.01504463                0.00010000               -0.64219412               -0.09828446                0.15121276                0.83756892                4.81542546               -2.69873134
               5.41656682                3.09071963               24.99366163                0.00010000               -1.23368262                0.02970974               -0.00360607                2.21237675                7.20424467               -3.10561507
               6.40418433                2.97959087               24.96279565                0.00010000               -1.00094788               -0.08223212               -0.16849325                1.81622180                6.39615906               -1.05966372
               7.39654786                2.87282312               24.92469632                0.00010000               -0.62937394               -0.16162301               -0.34447098                1.49784669                5.94734936                1.06249287
               8.39159685                2.76824054               24.88464253                0.00010000               -0.48543542               -0.17956433               -0.53135876                1.14972568                5.61711447                1.32175549
               9.38683915                2.66821866               24.83972994                0.24593322               -0.11534832                0.18530281               -0.74250230                0.37822764                3.54339377                2.71379274
              10.38928989                2.56082790               24.75795462                1.00000000                0.29347680                0.29662858               -0.99815285               -0.00744512                0.85832254                1.02914398
              11.39270869                2.45376187               24.65926490                1.00000000                0.34188001                0.41216393               -1.31138400               -0.01193426                0.01438908               -0.65526240
               1.55753014                4.57255674               25.25909538                1.00000000               -0.20116646               -0.27460596                0.83467490               -0.02009926                0.09980577                1.28711198
               2.55551848                4.44887433               25.15464683                0.89608238               -0.16497321               -0.17074129                0.55738550                0.00036169                0.14071481               -0.18864508
               3.55423068                4.32478268               25.05096094                0.18410097               -0.07557083               -0.06875738                0.29107738               -0.04418962                1.15458975               -1.55282876
               4.55400706                4.19941697               24.96677573                0.00010000               -0.70483321                0.05640530                0.00747072                0.64536537                6.18887511               -2.48613818
               5.54013402                4.09045210               24.96371643                0.00010000               -1.34971549                0.08173566               -0.09544989                1.24586674                9.86228437               -1.44654122
               6.52701275                3.98085279               24.95281265                0.00010000               -1.28235339                0.18683370               -0.19101356                1.11097091                9.19018671               -0.43736397
               7.51448695                3.87294269               24.93609647                0.00010000               -1.17897224                0.13100841               -0.30790698                0.95457244                8.76124773                0.70254903
               8.50343331                3.76851059               24.91623583                0.00010000               -1.04418112                0.10566376               -0.44973930                0.88049297                8.64449399                1.84274423
               9.49360332                3.66934999               24.89673864                0.22130687               -0.38064939                0.08234350               -0.62553876                0.36886404                4.71766696                3.25149192
              10.49582032                3.56360598               24.79770713                0.85308605                0.27315434                0.25783492               -0.93230861                0.00216294                0.42185158                1.04792176
              11.49906641                3.45789225               24.69205155                1.00000000                0.32460914                0.41288171               -1.25524858               -0.02039478                0.09465197               -0.46515810
               1.68044276                5.56997752               25.22895243                1.00000000               -0.16084214               -0.23516550                0.70195873               -0.02475137                0.12491411                1.11058170
               2.67883434                5.44739311               25.11725392                0.72540949               -0.12292452               -0.12361822                0.40848172               -0.00639431                0.25449448               -0.40425882
               3.67798427                5.32436212               25.00808877                0.12525335               -0.13692308               -0.01405727                0.12964199                0.00553937                1.75550068               -1.78537703
               4.67609588                5.20113058               24.92640120                0.00010000               -0.89679692                0.29884701               -0.23225599                0.42023397                8.05084707               -1.15418023
               5.66004833                5.09235434               24.94278879                0.00010000               -1.60913580                0.30425724               -0.19686004                0.94137371               12.42474768               -0.62305441
               6.64391316                4.98332754               24.94869248                0.00010000               -1.60334079                0.34390571               -0.21316908                0.69279150               11.67310542                0.06783794
               7.62798151                4.87544329               24.94995149                0.00010000               -1.55568718                0.32312848               -0.27054063                0.54863365               11.36693914                0.91401357
               8.61279942                4.77035381               24.94936490                0.00010000               -1.44302342                0.22025930               -0.35991022                0.53773414               11.33804070                1.88356592
               9.59912105                4.66986553               24.94942509                0.22797531               -0.60042668                0.03781354               -0.47864771                0.23442710                5.88743468                2.87070285
              10.60079088                4.56598460               24.83895858                0.75692173                0.23036001                0.22101683               -0.81765261                0.01389513                0.22338062                1.09116276
              11.60372825                4.46201950               24.72547345                1.00000000                0.29373633                0.40358704               -1.18013064               -0.02108162                0.07785309               -0.44736413
               1.80220394                6.56785343               25.19705771                1.00000000               -0.11979452               -0.18804869                0.56403114               -0.02464250                0.06717106                0.96119951
               2.80100599                6.44640196               25.07729826                0.61873591               -0.07999713               -0.07615135                0.25845585               -0.00616961                0.24314778               -0.58229783
               3.80060400                6.32450153               24.96099992                0.09407669               -0.32932376                0.03759553               -0.03508644                0.15664637                3.42904696               -2.12102816
               4.79441952                6.20539391               24.90495718                0.00010000               -1.19197359                0.47826893               -0.44503532                0.35769784               10.49190646                0.08425241
               5.77676452                6.09653724               24.92935022                0.00010000               -1.83199397                0.51956268               -0.27331921                0.69109863               14.25413739               -0.00753091
               6.75777964                5.98773091               24.94894185                0.00010000               -1.91655862                0.54644779               -0.22420160                0.42512927               13.88069560                0.40532388
               7.73843335                5.87940526               24.96581590                0.00010000               -1.90069450                0.47883428               -0.22816932                0.19654906               13.73512828                1.03474562
               8.71976575                5.77291578               24.98209090                0.00010000               -1.78861342                0.29309211               -0.26610028                0.12135099               13.78759153                1.80316454
               9.70266108                5.67010626               24.99932066                0.24623342               -0.79107498                0.01199216               -0.32842756                0.00880274                7.03727265                2.62413915
              10.70394425                5.56802631               24.87967430                0.70107169                0.19569414                0.18826225               -0.70691540                0.01249394                0.12868977                1.01247121
              11.70657497                5.46596399               24.75845182                1.00000000                0.26307172                0.38030909               -1.09158447               -0.01606086                0.05669009               -0.50009730
               1.92285285                7.56621654               25.16389822                1.00000000               -0.07899995               -0.14026294                0.42683041               -0.02344776                0.02793542                0.87533880
               2.92206285                7.44587008               25.03627936                0.56540215               -0.03637981               -0.03142263                0.11209605               -0.00316449                0.16343472               -0.64563050
               3.92212525                7.32511403               24.91131133                0.07598867               -0.54243616                0.08157920               -0.19891421                0.33958769                5.46088484               -2.29572553
               4.91121412                7.21069596               24.88964224                0.00010000               -1.52959729                0.56728543               -0.46162197                0.53300405               13.27923044                0.27165138
               5.89153330                7.10274560               24.92080002                0.00010000               -2.08331980                0.72493620               -0.30270794                0.59698724               15.89380852                0.29091008
               6.86954773                6.99425650               24.95171091                0.00010000               -2.24028387                0.77859242               -0.21906181                0.22663188               15.87408242                0.54295962
               7.84672763                6.88501997               24.98233077                0.00010000               -2.25111458                0.67187090               -0.18192215               -0.14751227               15.93112990                1.01073698
               8.82452544                6.77621566               25.01393966                0.00010000               -2.12705327                0.38990540               -0.17550316               -0.35651993               16.10746846                1.65425321
               9.80418656                6.67010537               25.04740708                0.27077640               -0.96712049               -0.00932664               -0.19198986               -0.26901996                8.17052368                2.43889224
              10.80518303                6.56974984               24.91943122                0.67379262                0.16725556                0.15754139               -0.59897302                0.00294375                0.07157701                0.90838487
              11.80753167                6.46962569               24.79062256                1.00000000                0.23486465                0.34967105               -1.00591413               -0.01171869                0.03811692               -0.58003918
               2.04242791                8.56504818               25.13024612                1.00000000               -0.03826924               -0.09506851                0.29194706               -0.02247180                0.01008352                0.85458117
               3.04204522                8.44577351               24.99499101                0.56044857                0.00709806                0.01185822               -0.03139383               -0.00035942                0.05742704               -0.65576265
               4.04256987                8.32613312               24.86062237                0.06037336               -0.72985937                0.12107511               -0.35793318                0.53857589                7.39656677               -2.21661784
               5.02744803                8.21673962               24.87214529                0.00010000               -1.87130731                0.69110467               -0.41481092                0.80700290               16.17689714                0.17857181
               6.00514373                8.11103596               24.91346771                0.00010000               -2.37050660                0.95548677               -0.29988812                0.58850404               17.66928579                0.30237340
               6.98003790                8.00330276               24.95489142                0.00010000               -2.58098877                1.01688033               -0.20574225                0.10523017               17.76944729                0.48224183
               7.95352395                7.89284268               24.99795810                0.00010000               -2.62439748                0.94426795               -0.13548822               -0.41612184               18.01709323                0.81965204
               8.92754995                7.78071388               25.04394599                0.01324511               -2.48887268                0.57392882               -0.09201546               -0.89980387               18.38084097                1.37141679
               9.90374650                7.66991972               25.09373520                0.29969133               -1.15335693               -0.02092774               -0.07377782               -0.61634300                9.33208196                2.17863033
              10.90448281                7.57117714               24.95807920                0.67366164                0.14212041                0.13156027               -0.50106464               -0.01176924                0.04388338                0.81339807
              11.90658890                7.47295741               24.82179353                1.00000000                0.21060941                0.31510248               -0.92894046               -0.00767268                0.02221349               -0.67528443
               2.16095274                9.56431517               25.09661878                1.00000000                0.00179818               -0.05330799                0.15959612               -0.02192227               -0.00949591                0.73550497
               3.16097072                9.44610724               24.95370896                0.58559955                0.04889629                0.05454951               -0.17239403                0.00080603                0.07528804               -0.56085790
               4.16193066                9.32753553               24.81243295                0.02443957               -0.92596924                0.15879131               -0.50384161                0.80251733                9.35583283               -1.52614427
               5.14245133                9.22451805               24.85512225                0.00010000               -2.25952071                1.03413988               -0.41073474                0.84437139               18.93441416                0.18933623
               6.11674025                9.12185533               24.90535364                0.00010000               -2.63028567                1.13453951               -0.30645906                0.46721486               19.37704019                0.17446169
               7.08984562                9.01459411               24.95663645                0.00010000               -2.78730926                1.17814074               -0.19987480                0.05342151               19.59060581                0.27596480
               8.06099406                8.90390533               25.01085420                0.00010000               -3.01966550                1.17355169               -0.09899369               -0.43073513               20.00898063                0.46194609
               9.02945231                8.78769423               25.07029311                0.03657297               -2.97988096                1.05635779               -0.00333941               -1.08510483               20.61696379                0.82056933
              10.00139644                8.66968682               25.13655796                0.33049151               -1.37711785               -0.00829243                0.02231986               -1.05125894               10.62952216                1.44088450
              11.00190995                8.57238105               24.99584808                0.69692428                0.12106167                0.11335551               -0.41726538               -0.02870965                0.13293558                0.64507423
              12.00381768                8.47592774               24.85185105                0.98273304                0.19077242                0.28056506               -0.86461505               -0.00692484               -0.01958898               -0.63762294
               2.27840532               10.56398202               25.06051769                1.00000000                0.04356579               -0.03331577                0.02788134                0.03350745                0.40372758                0.61587826
               3.27884098               10.44686450               24.91426726                0.82983002                0.09020442                0.07572588               -0.30876514                0.05337267                0.78185208               -0.46664656
               4.28020941               10.32930894               24.77551648                0.51186270               -1.44126620                0.17734117               -0.63360172                1.35577067               11.21736750               -0.96225938
               5.25001566               10.23742242               24.83796545                0.36606469               -2.78987229                1.29043660               -0.46981437                0.97732304               21.09484478                0.16852681
               6.22441197               10.13372675               24.89567729                0.35668100               -2.54796645                1.18714232               -0.34266549                0.23932956               21.00167824                0.08882783
               7.19905633               10.02686557               24.95581205                0.37362777               -2.63014222                1.22714645               -0.21374545                0.05041857               21.30842553                0.14686351
               8.17180912                9.91631371               25.01937812                0.41520156               -2.94949813                1.24083774               -0.08554237               -0.16972066               21.80572205                0.25051556
               9.14006637                9.80184104               25.08934236                0.52892092               -3.68873102                1.41468074                0.05494644               -1.26658609               22.53810074                0.47007636
              10.09803450                9.66975388               25.16789177                0.68354610               -2.11993329                0.00670573                0.07640560               -1.75603358               12.16129388                0.88545064
              11.09766770                9.57344425               25.03092525                0.87113479                0.06612653                0.10632040               -0.34985896                0.01651662                0.88197989                0.52557497
              12.09935703                9.47856871               24.88356819                0.98658272                0.16893322                0.26409782               -0.80579045                0.06638172                0.37631466               -0.54369469
               1.13272450                0.62851545               26.38825034                1.00000000               -0.34561903               -0.37384814                1.30343382               -0.06450036               -0.85065824                0.87895315
               2.12926831                0.49375693               26.30203711                1.00000000               -0.29148603               -0.29543128                1.04583964               -0.05017001               -1.09408655                0.07995716
               3.12689477                0.35872025               26.21094037                1.00000000               -0.16798428               -0.21713352                0.77538186               -0.04160871               -1.05163048               -0.21046909
               4.12590862                0.22441405               26.12561296                0.62723530                0.25486543               -0.17020162                0.51412854                0.39476122               -0.15508657               -0.72415740
               5.13199208                0.10023673               26.05254410                0.71555809                0.40152432               -0.05690606                0.22409848               -0.08015212                0.26735155                0.21025936
               6.13393911               -0.01612382               25.97633675                0.79778552                0.14842594                0.02610325               -0.04963290               -0.01064499               -0.07272787                0.12079414
               7.13496060               -0.13084068               25.89659249                0.77429851                0.10160159                0.09879493               -0.32220429                0.00374390               -0.28333555               -0.07065641
               8.13597114               -0.24550026               25.81610984                0.86871293                0.12567817                0.18497386               -0.60462525                0.01096635               -0.53973484                0.09720003
               9.13747417               -0.36172358               25.73099731                1.00000000                0.21284677                0.27195490               -0.88590082                0.00069420               -0.87240042                0.50414596
              10.14022807               -0.47920597               25.64365326                1.00000000                0.32698880                0.34350775               -1.16042452               -0.03854735               -0.89021286                0.00682051
              11.14401394               -0.59689504               25.55813183                1.00000000                0.37858683                0.42441997               -1.42355843               -0.05027154               -0.80037632               -0.80342690
               1.26683801                1.62477697               26.35358280                1.00000000               -0.31738066               -0.35581008                1.17912954               -0.02386277               -0.11852508                1.19539268
               2.26366421                1.49080262               26.26703188                1.00000000               -0.28439434               -0.27472108                0.92295738               -0.00631240               -0.10571364                0.11154618
               3.26115013                1.35654891               26.18069951                0.86242478               -0.22831076               -0.19408842                0.65830105                0.01266476                0.08788089               -0.57137061
               4.25909799                1.22271204               26.09798551                0.19821685               -0.48453132               -0.15591282                0.38856478                0.56065174                1.63760821               -1.12434228
               5.25145950                1.09966767               26.04256470                0.36117479               -0.48633144                0.06022588                0.14413762               -0.10653179                2.38739863                1.00308510
               6.24937136                0.98413721               25.97411976                0.46202267               -0.08866187                0.08396779               -0.10862711                0.11391078                1.51778524                0.42377191
               7.24968626                0.87014727               25.90113629                0.35687158                0.10754449                0.08321769               -0.36234174                0.16561209                1.42704413               -0.35682018
               8.25152225                0.75634947               25.83089571                0.49387546                0.23238496                0.18638571               -0.61134232                0.16250925                1.43162100                0.60549233
               9.25433396                0.64099596               25.75817284                1.00000000                0.29530386                0.26335854               -0.85942745                0.07333003                0.72888802                0.73948801
              10.25742833                0.52422910               25.67402979                1.00000000                0.34331677                0.33624195               -1.12129239                0.00372173                0.09018243                0.10396078
              11.26120030                0.40734916               25.58856235                1.00000000                0.37719675                0.41926385               -1.38318264               -0.00858800                0.02258530               -0.95131076
               1.40019595                2.62139925               26.32521457                1.00000000               -0.28258315               -0.32561152                1.06529585               -0.01640336                0.04368178                1.51773801
               2.39737011                2.48826251               26.23262605                1.00000000               -0.24786475               -0.23893445                0.80356623                0.00800817                0.20480594                0.08609842
               3.39523865                2.35483848               26.14320622                0.51501389               -0.16836076               -0.15890550                0.55053494                0.03169165                0.79131347               -1.34109198
               4.39400290                2.22129580               26.06231795                0.00010000               -1.34011880               -0.13798978                0.26817370                0.78611913                4.57079212               -2.02743303
               5.36843627                2.10144125               26.04845783                0.00010000               -1.41325872                0.12310400                0.06310535                1.44749742                5.22099664               -1.24556929
               6.36573772                1.98555553               25.97797809                0.00010000               -0.11878469               -0.07292129               -0.15818771                1.20521352                2.01330251               -0.31381367
               7.36606058                1.87082367               25.89997360                0.00010000                0.13174503               -0.13251805               -0.38538581                0.97927345                3.32629068                0.48780828
               8.36837262                1.75822745               25.85587649                0.00010000                0.25002772               -0.09435517               -0.62801901                0.64918034                3.90431352                1.03840531
               9.37106114                1.64354359               25.79010824                0.50504447                0.27883458                0.25341703               -0.82300802                0.10728920                1.91189895                1.48793848
              10.37394932                1.52751887               25.70638640                1.00000000                0.32704719                0.31965606               -1.07557697                0.00964332                0.68426076                0.66174010
              11.37760208                1.41149023               25.61606204                1.00000000                0.36527625                0.41418737               -1.35060813               -0.00743758                0.35327644               -0.96734222
               1.53278343                3.61826474               26.29698115                1.00000000               -0.23982889               -0.30219029                0.94956421               -0.01368223                0.07686450                1.45688526
               2.53038514                3.48602393               26.19708316                1.00000000               -0.20163787               -0.20751589                0.68167853                0.00782267                0.09672038               -0.03663979
               3.52875067                3.35337080               26.09752374                0.31237498               -0.10837664               -0.11937513                0.41944128               -0.00854999                1.04377964               -1.64529086
               4.52821761                3.21995224               26.01655174                0.00010000               -0.63004797               -0.09427851                0.15098741                0.78463172                4.87667462               -2.72399906
               5.51614971                3.10212975               25.99361043                0.00010000               -1.20621988                0.02057755               -0.00632273                2.07462202                7.32537038               -3.10039742
               6.50409321                2.98267878               25.96108429                0.00010000               -0.97749481               -0.08561527               -0.17370757                1.69357952                6.51607561               -1.01344976
               7.49659982                2.86749691               25.92121175                0.00010000               -0.61536326               -0.16480366               -0.35279397                1.38437676                6.06361659                1.13729314
               8.49178594                2.75446237               25.87927965                0.00010000               -0.47057434               -0.17999873               -0.54162049                1.06937896                5.72331160                1.41910449
               9.48718833                2.64606431               25.83226258                0.24349634               -0.10556977                0.16870247               -0.75059717                0.34187771                3.62356014                2.79201567
              10.48967455                2.53062223               25.74794620                1.00000000                0.29602409                0.29228577               -1.00244419               -0.01509643                0.88742856                1.05730160
              11.49310881                2.41563290               25.64614321                1.00000000                0.34342620                0.41496750               -1.31191846               -0.01093736                0.01423093               -0.67324215
               1.66440392                4.61535544               26.26739351                1.00000000               -0.19834198               -0.27396775                0.82479728               -0.02020106                0.10792509                1.29507073
               2.66242050                4.48411219               26.16018934                0.88718391               -0.16322929               -0.16823617                0.55103834               -0.00013052                0.15452091               -0.20151673
               3.66113934                4.35245098               26.05385969                0.18891433               -0.07419579               -0.06486296                0.28867933               -0.05055368                1.16604825               -1.58188426
               4.66093659                4.21941023               25.96687306                0.00010000               -0.69685828                0.05509555                0.01188637                0.59466701                6.27907038               -2.56412298
               5.64720217                4.10185280               25.96276993                0.00010000               -1.33472147                0.08041968               -0.09400549                1.14749954               10.05192663               -1.45341726
               6.63424216                3.98384323               25.95087756                0.00010000               -1.26188208                0.17829551               -0.19630069                1.01154967                9.38240280               -0.39569481
               7.62196453                3.86752760               25.93296173                0.00010000               -1.15246768                0.11994808               -0.31950917                0.85802675                8.94225929                0.77695536
               8.61119280                3.75462747               25.91165887                0.00010000               -1.01128483                0.09162644               -0.46594735                0.78924554                8.80826132                1.93742095
               9.60173883                3.64691764               25.89038497                0.21762231               -0.35570076                0.05466396               -0.64448945                0.32804890                4.81318659                3.36048227
              10.60407879                3.53336458               25.78831582                0.83330328                0.28115715                0.25290277               -0.94426486                0.00081932                0.44652556                1.09381958
              11.60736198                3.41978958               25.67946328                1.00000000                0.32831871                0.41804536               -1.26063225               -0.02249953                0.11054099               -0.46758555
               1.79486591                5.61278538               26.23591813                1.00000000               -0.15789179               -0.23399586                0.69106135               -0.02489681                0.12640789                1.11137316
               2.79328700                5.48265921               26.12130407                0.71766945               -0.12121758               -0.12050814                0.40138353               -0.00711053                0.26353121               -0.42668657
               3.79244156                5.35207354               26.00937270                0.12834522               -0.12889347               -0.00914399                0.12687345               -0.00776975                1.73617072               -1.83076835
               4.79070913                5.22105415               25.92420213                0.00010000               -0.88874305                0.28827339               -0.20852407                0.36951402                8.17959103               -1.25841080
               5.77466670                5.10373814               25.94086607                0.00010000               -1.60298617                0.30117983               -0.18788216                0.84381185               12.72847030               -0.62123919
               6.75864940                4.98624469               25.94654286                0.00010000               -1.58452983                0.33577393               -0.21715253                0.59649774               11.94540899                0.11362223
               7.74297610                4.86989587               25.94717750                0.00010000               -1.52342929                0.30924438               -0.28481646                0.45236425               11.61845743                0.98852422
               8.72818082                4.75629490               25.94565696                0.00010000               -1.39819521                0.20217496               -0.38209190                0.43999763               11.57436606                1.98110296
               9.71501220                4.64715758               25.94449306                0.22410485               -0.56809150                0.01477640               -0.50768414                0.19081200                6.01812929                2.99278858
              10.71681899                4.53568028               25.83068844                0.73910531                0.23983079                0.21522663               -0.83504780                0.01775108                0.23675347                1.15723359
              11.71980882                4.42399381               25.71361639                1.00000000                0.29898289                0.41209347               -1.18951568               -0.02196417                0.07834810               -0.43426773
               1.92415835                6.61067553               26.20263937                1.00000000               -0.11682130               -0.18636093                0.55218535               -0.02460962                0.06626439                0.95975344
               2.92299013                6.48170203               26.07984837                0.61240248               -0.07846755               -0.07273550                0.25135992               -0.00666921                0.24840638               -0.60302929
               3.92258899                6.35226810               25.96063968                0.09586611               -0.31639317                0.04321088               -0.03732621                0.13276830                3.39298441               -2.16680119
               4.91666227                6.22517569               25.90073786                0.00010000               -1.18505641                0.46509754               -0.39715561                0.28574938               10.67432160                0.08961917
               5.89888787                6.10787640               25.92669987                0.00010000               -1.83239406                0.51249626               -0.25643385                0.58965064               14.66470100                0.02676383
               6.88001439                5.99055871               25.94668706                0.00010000               -1.89631280                0.53591419               -0.22707655                0.32258393               14.22438438                0.46033775
               7.86096161                5.87371249               25.96345330                0.00010000               -1.86416742                0.46395968               -0.24497352                0.09533499               14.05505742                1.10923402
               8.84273104                5.75867097               25.97929621                0.00010000               -1.73959598                0.27614705               -0.29338943                0.01636658               14.09701454                1.89714661
               9.82616969                5.64721316               25.99586116                0.24274978               -0.75667277               -0.00124287               -0.36368001               -0.04164686                7.19802862                2.73807938
              10.82759758                5.53766911               25.87248280                0.68465218                0.20629716                0.18481895               -0.73064941                0.01645743                0.13343326                1.07243873
              11.83029563                5.42803145               25.74746175                1.00000000                0.26980498                0.39000921               -1.10530467               -0.01618870                0.05789212               -0.48284009
               2.05232072                7.60905817               26.16810430                1.00000000               -0.07596783               -0.13799901                0.41422599               -0.02339756                0.02718687                0.87537141
               3.05156104                7.48120450               26.03736624                0.56048083               -0.03487285               -0.02811368                0.10501817               -0.00321388                0.16471674               -0.66284260
               4.05162326                7.35293776               25.90931661                0.07654358               -0.53726118                0.08672052               -0.20040966                0.30681974                5.50095955               -2.33781622
               5.04081582                7.23035610               25.88530305                0.00010000               -1.52732802                0.55567666               -0.40215399                0.44014822               13.54015972                0.39630530
               6.02107670                7.11398807               25.91786964                0.00010000               -2.07754128                0.71282466               -0.28259989                0.49524444               16.32575661                0.35641247
               6.99926499                6.99696298               25.94950406                0.00010000               -2.21530820                0.76566373               -0.22259770                0.12473691               16.27023234                0.60296418
               7.97677054                6.87917506               25.98041807                0.00010000               -2.21287602                0.65729025               -0.20124662               -0.24970519               16.31127598                1.08152018
               8.95500747                6.76181784               26.01202917                0.00010000               -2.07947073                0.37715380               -0.20719657               -0.46274801               16.48119884                1.73892808
               9.93518112                6.64713273               26.04528231                0.26799414               -0.93388121               -0.01201840               -0.23319267               -0.32357401                8.36015184                2.53419464
              10.93632985                6.53937666               25.91328769                0.65793666                0.17896208                0.15876454               -0.62952112                0.00492325                0.07179441                0.96005263
              11.93876036                6.43179400               25.78046604                1.00000000                0.24305179                0.35982769               -1.02485688               -0.01105453                0.03857334               -0.56958369
               2.17939774                8.60791555               26.13310014                1.00000000               -0.03514770               -0.09209853                0.27861373               -0.02244893                0.00959172                0.85694827
               3.17904626                8.48113975               25.99464328                0.55688687                0.00880223                0.01482401               -0.03849451               -0.00002931                0.05558663               -0.67001961
               4.17957378                8.35400251               25.85704188                0.05966213               -0.73156658                0.12450049               -0.35845456                0.49831497                7.53970772               -2.24873580
               5.16441493                8.23628923               25.86826077                0.00010000               -1.86939504                0.68054557               -0.35892668                0.71850826               16.53108831                0.29870206
               6.14218588                8.12213289               25.91054281                0.00010000               -2.35463972                0.94047017               -0.28472962                0.50461107               18.10094905                0.36851641
               7.11732213                8.00587198               25.95280356                0.00010000               -2.55366176                1.00473881               -0.21223612                0.02026816               18.20640378                0.53375824
               8.09111265                7.88685829               25.99650152                0.00010000               -2.59018599                0.93389096               -0.15620861               -0.50622243               18.45147566                0.87854894
               9.06551841                7.76621405               26.04285497                0.01487727               -2.44866273                0.56567995               -0.12656140               -0.99888223               18.80878052                1.45304566
              10.04213939                7.64697280               26.09275236                0.29762821               -1.12418161               -0.01358579               -0.12322345               -0.66975423                9.54771584                2.25216410
              11.04303478                7.54084440               25.95287793                0.65709716                0.15502419                0.13871761               -0.53945597               -0.01180619                0.04393085                0.85182086
              12.04523987                7.43522801               25.81237759                1.00000000                0.22050930                0.32537417               -0.95419228               -0.00633360                0.02260898               -0.67621322
               2.30542332                9.60721620               26.09814604                1.00000000                0.00501680               -0.04955718                0.14552545               -0.02195244               -0.01024760                0.73952600
               3.30547349                9.48150098               25.95195110                0.58261922                0.05083817                0.05711597               -0.17964862                0.00114272                0.07524355               -0.57129238
               4.30644009                9.35542777               25.80739906                0.02246580               -0.92089453                0.16018888               -0.50323221                0.75617514                9.57348460               -1.54308048
               5.28705560                9.24396701               25.85115395                0.00010000               -2.24269596                1.01939349               -0.38256878                0.78469004               19.37540073                0.24477028
               6.26158617                9.13279747               25.90231766                0.00010000               -2.60553249                1.12085237               -0.30114934                0.41889195               19.83626382                0.21172239
               7.23494495                9.01705775               25.95458554                0.00010000               -2.76410741                1.17043473               -0.21091333                0.00451962               20.07225855                0.30488822
               8.20630402                8.89785288               26.00975640                0.00010000               -3.00148155                1.17177757               -0.12058232               -0.48888361               20.50748937                0.49578223
               9.17491532                8.77313144               26.07012030                0.04018767               -2.95741687                1.05809880               -0.02946574               -1.15413744               21.09084795                0.88481684
              10.14715568                8.64686101               26.13648833                0.32925422               -1.35384049                0.00743513               -0.03724768               -1.09598977               10.85865549                1.48247896
              11.14783851                8.54215101               25.99144192                0.67779296                0.13554027                0.12619625               -0.46480686               -0.02968539                0.13765683                0.66812969
              12.14986649                8.43830148               25.84304512                0.98260677                0.20279772                0.29125260               -0.89703744               -0.00537563               -0.01760457               -0.64786683
               2.43038913               10.60692440               26.06072585                1.00000000                0.04684100               -0.02917922                0.01336118                0.03234741                0.40619118                0.62044186
               3.43085754               10.48228207               25.91114447                0.82893077                0.09210585                0.07810985               -0.31643024                0.05249868                0.79072116               -0.47444125
               4.43223124               10.35720629               25.76918522                0.51068491               -1.40592543                0.17785144               -0.63323099                1.29886686               11.47575002               -0.97090078
               5.40273903               10.25667710               25.83329259                0.36641527               -2.73791325                1.27100825               -0.46583472                0.93552523               21.60676214                0.18307128
               6.37747298               10.14454994               25.89224235                0.35686744               -2.51909561                1.17524646               -0.34523196                0.21886005               21.51421180                0.10362313
               7.35235712               10.02928068               25.95359645                0.37343251               -2.61058455                1.22229215               -0.23027326                0.02841181               21.84026512                0.15784924
               8.32526129                9.91029384               26.01839745                0.41449285               -2.94647915                1.24409617               -0.11062493               -0.19950568               22.36479211                0.26497486
               9.29342753                9.78737603               26.08977294                0.53154797               -3.70306333                1.42445866                0.03442824               -1.30739587               23.04894134                0.50966021
              10.25120002                9.64712150               26.16832023                0.68354705               -2.12134638                0.02604870                0.00772975               -1.79595088               12.41137025                0.90688779
              11.25100061                9.54336833               26.02715089                0.86049200                0.08157042                0.12173174               -0.40641198                0.01278756                0.90963721                0.54114438
              12.25283143                9.44105306               25.87531560                0.98640137                0.18308238                0.27515804               -0.84562674                0.06496709                0.39086649               -0.55640833
               1.21164605                0.67265976               27.40125705                1.00000000               -0.34503676               -0.37245919                1.29820017               -0.06382710               -0.86474262                0.89167495
               2.20819568                0.53019867               27.31247459                1.00000000               -0.29225370               -0.29385755                1.04198160               -0.04915797               -1.11471830                0.08459216
               3.20580097                0.38744119               27.21868267                1.00000000               -0.17167203               -0.21543580                0.77349126               -0.04199376               -1.07454399               -0.21034412
               4.20476224                0.24532824               27.13074952                0.62759001                0.23428536               -0.16832506                0.51365677                0.37067549               -0.18839972               -0.74363358
               5.21048668                0.11276531               27.05479376                0.71519493                0.37982272               -0.05797007                0.22687264               -0.07807584                0.22271161                0.21998529
               6.21235869               -0.01237201               26.97585256                0.79684605                0.14611082                0.02516753               -0.04678872               -0.01286279               -0.11200571                0.12745851
               7.21340890               -0.13589839               26.89338083                0.77352270                0.10924953                0.09804143               -0.32040667                0.00190454               -0.32751166               -0.07226498
               8.21454368               -0.25925658               26.81007745                0.86722301                0.13735522                0.18369916               -0.60257900                0.00641626               -0.58675723                0.10137306
               9.21615600               -0.38392750               26.72216093                1.00000000                0.21984756                0.26957265               -0.88235946               -0.00219753               -0.91393781                0.51637533
              10.21894064               -0.50970796               26.63208377                1.00000000                0.32807195                0.34204172               -1.15463120               -0.03732972               -0.92194788                0.00684337
              11.22271744               -0.63567549               26.54393856                1.00000000                0.37768048                0.42358287               -1.41634901               -0.04837376               -0.82598694               -0.82611790
               1.35346886                1.66893517               27.36534200                1.00000000               -0.31554775               -0.35484938                1.17282959               -0.02299155               -0.12168222                1.21309201
               2.35031339                1.52726010               27.27623632                1.00000000               -0.28263061               -0.27323405                0.91807417               -0.00530025               -0.11327283                0.11788637
               3.34781625                1.38528683               27.18726232                0.87107123               -0.22532271               -0.19204417                0.65432661                0.01028798                0.07327857               -0.56620333
               4.34580693                1.24364499               27.10185322                0.20414682               -0.46301040               -0.15302386                0.38475063                0.52694145                1.63351308               -1.14093433
               5.33855604                1.11218561               27.04399440                0.36585956               -0.46225087                0.05677372                0.14264887               -0.10086637                2.39714602                1.01199598
               6.33656192                0.98787967               26.97302894                0.46724007               -0.08429068                0.08143195               -0.10895844                0.10399041                1.52476949                0.43517169
               7.33687023                0.86508202               26.89751122                0.36407822                0.10302437                0.08771197               -0.36291740                0.15494722                1.43619411               -0.34969961
               8.33862240                0.74258041               26.82478119                0.49839218                0.22447420                0.18713093               -0.61228687                0.14642402                1.44367358                0.60419531
               9.34135971                0.61876822               26.74958688                1.00000000                0.29094650                0.26202313               -0.85854116                0.06651205                0.73488197                0.75662216
              10.34444133                0.49371246               26.66283197                1.00000000                0.34207603                0.33498785               -1.11923237                0.00476637                0.08962320                0.10824354
              11.34820124                0.36856034               26.57475440                1.00000000                0.37599024                0.41983748               -1.37948158               -0.00671892                0.02244292               -0.97640462
               1.49453636                2.66556277               27.33582860                1.00000000               -0.27983453               -0.32533857                1.05748674               -0.01566197                0.04477395                1.53951770
               2.49173801                2.52473399               27.24063356                1.00000000               -0.24572594               -0.23741262                0.79795076                0.00844959                0.21028221                0.09298688
               3.48962184                2.38360030               27.14869219                0.52825030               -0.16678631               -0.15544222                0.54678542                0.02676129                0.78571926               -1.34209039
               4.48840229                2.24226776               27.06497287                0.00010000               -1.26935848               -0.13388042                0.26260159                0.73991688                4.58916759               -2.03758085
               5.46423467                2.11390078               27.04906546                0.00010000               -1.34301012                0.11069840                0.06053548                1.34872531                5.29114671               -1.23199350
               6.46154209                1.98925663               26.97638282                0.00010000               -0.12137850               -0.07286303               -0.15984105                1.11488368                2.07543945               -0.28152065
               7.46180710                1.86585585               26.89610693                0.00010000                0.11219392               -0.12505864               -0.38840415                0.89920013                3.37735569                0.53017057
               8.46378596                1.74448604               26.84956403                0.00010000                0.22735460               -0.08700844               -0.63618305                0.59234871                3.97206021                1.08506123
               9.46635419                1.62131296               26.78186134                0.50657200                0.27289426                0.25070088               -0.82704234                0.08949267                1.97415785                1.52808452
              10.46924385                1.49699180               26.69562935                1.00000000                0.32665551                0.31660264               -1.07635412                0.00623928                0.70656710                0.68430585
              11.47288730                1.37272126               26.60256873                1.00000000                0.36434543                0.41677201               -1.34862725               -0.00715181                0.36422997               -0.99099117
               1.63481319                3.66242840               27.30643206                1.00000000               -0.23683399               -0.30207982                0.94057525               -0.01362369                0.08144424                1.47312646
               2.63244485                3.52251184               27.20387000                1.00000000               -0.19977405               -0.20554563                0.67562835                0.00771469                0.10445052               -0.03537384
               3.63081771                3.38217798               27.10170720                0.32116612               -0.10700292               -0.11521345                0.41729017               -0.01491931                1.05122211               -1.65761011
               4.63030479                3.24096738               27.01806438                0.00010000               -0.61380144               -0.08918192                0.15181289                0.72487657                4.93518006               -2.74179959
               5.61854168                3.11439958               26.99353518                0.00010000               -1.17001334                0.01136631               -0.00857284                1.91942059                7.44133975               -3.09050618
               6.60690452                2.98642241               26.95932150                0.00010000               -0.94584243               -0.08881514               -0.17889826                1.55541003                6.63018866               -0.96651997
               7.59962483                2.86258085               26.91764044                0.00010000               -0.59461288               -0.16699006               -0.36196399                1.25807743                6.17413913                1.21029119
               8.59501227                2.74084024               26.87381012                0.00010000               -0.44905117               -0.18021666               -0.55311407                0.97953592                5.82660909                1.51480477
               9.59064381                2.62378224               26.82471800                0.24060906               -0.09272229                0.15080925               -0.75874676                0.30300908                3.70381515                2.86605988
              10.59315782                2.50004451               26.73790574                1.00000000                0.29777360                0.28741659               -1.00418035               -0.02288991                0.91701396                1.08570297
              11.59659928                2.37689578               26.63302653                1.00000000                0.34414585                0.41730540               -1.30991466               -0.01012310                0.01357465               -0.68711111
               1.77409699                4.65952118               27.27559133                1.00000000               -0.19542705               -0.27346396                0.81474460               -0.02051755                0.11604022                1.30219709
               2.77214272                4.52062308               27.16566760                0.87826527               -0.16145363               -0.16557494                0.54453470               -0.00098003                0.16850482               -0.21418735
               3.77086792                4.38129603               27.05673452                0.19312220               -0.07322468               -0.06056144                0.28611929               -0.05735183                1.17931814               -1.60988422
               4.77067823                4.24048412               26.96701346                0.00010000               -0.68499326                0.05650941                0.01551923                0.53608054                6.36829369               -2.62905944
               5.75716805                4.11412811               26.96183632                0.00010000               -1.31046080                0.08000200               -0.09302598                1.03657688               10.23336427               -1.45273408
               6.74446901                3.98748033               26.94888664                0.00010000               -1.23086178                0.16840407               -0.20227791                0.89966626                9.56401549               -0.35144225
               7.73255082                3.86251605               26.92970629                0.00010000               -1.11468598                0.10706745               -0.33218564                0.75065523                9.11325998                0.85112308
               8.72217529                3.74088170               26.90691688                0.00010000               -0.96703567                0.07491477               -0.48316064                0.68860045                8.96390890                2.02959417
               9.71321011                3.62432915               26.88384885                0.21356967               -0.32513885                0.02314317               -0.66228532                0.28333843                4.90671661                3.46288941
              10.71567252                3.50274013               26.77882183                0.81357679                0.28861017                0.24588911               -0.95173824               -0.00084869                0.47276805                1.13823462
              11.71898231                3.38106737               26.66683890                1.00000000                0.33097933                0.42199532               -1.26123438               -0.02527482                0.12634404               -0.46706578
               1.91219903                5.65695912               27.24277366                1.00000000               -0.15486427               -0.23294224                0.68001652               -0.02516494                0.12755118                1.11129396
               2.91065039                5.51920035               27.12528159                0.70992814               -0.11947034               -0.11719347                0.39401235               -0.00806361                0.27244132               -0.44881483
               3.90980963                5.38096676               27.01062624                0.13076705               -0.12280324               -0.00372144                0.12360740               -0.01982511                1.72774340               -1.87486178
               4.90819433                5.24209757               26.92223072                0.00010000               -0.87663087                0.28006261               -0.18720556                0.31001966                8.31057725               -1.33838119
               5.89227701                5.11599962               26.93903115                0.00010000               -1.58422075                0.29704178               -0.17937512                0.73171073               13.01440540               -0.60971796
               6.87650991                4.98979049               26.94434943                0.00010000               -1.55202235                0.32480655               -0.22207308                0.48837357               12.20103144                0.16275356
               7.86123656                4.86472220               26.94425516                0.00010000               -1.47693666                0.29166628               -0.30033821                0.34612869               11.85517826                1.06322602
               8.84697118                4.74233854               26.94172306                0.00010000               -1.33922065                0.18023962               -0.40520605                0.33228925               11.79686642                2.07664592
               9.83445215                4.62424511               26.93927141                0.21982959               -0.52842761               -0.01252734               -0.53660893                0.14243578                6.14382281                3.11066317
              10.83640263                4.50496229               26.82225762                0.72121924                0.24935804                0.20678519               -0.84956042                0.02151958                0.25201617                1.22164404
              11.83943931                4.38533568               26.70168313                1.00000000                0.30366845                0.41950873               -1.19542522               -0.02303106                0.07842952               -0.41884270
               2.04911124                6.65486233               27.20810142                1.00000000               -0.11374262               -0.18479565                0.54015182               -0.02462873                0.06529529                0.95740795
               3.04797381                6.51827921               27.08232546                0.60604144               -0.07685219               -0.06910152                0.24389752               -0.00731184                0.25361735               -0.62314698
               4.04757419                6.38122161               26.96025339                0.09694765               -0.30640259                0.04943734               -0.04022018                0.11020891                3.38060545               -2.21069457
               5.04184576                6.24608538               26.89701407                0.00010000               -1.17324241                0.45007898               -0.34692955                0.20586467               10.86209369                0.11629605
               6.02410935                6.12006895               26.92422154                0.00010000               -1.81659303                0.50156476               -0.23925556                0.47307524               15.04414656                0.06846794
               7.00551390                5.99397646               26.94440032                0.00010000               -1.85919997                0.52043914               -0.23086642                0.20872353               14.54525609                0.51779826
               7.98692535                5.86834937               26.96091643                0.00010000               -1.81078638                0.44399788               -0.26313178               -0.01492459               14.35597748                1.18422835
               8.96929817                5.74448650               26.97622312                0.00010000               -1.67451414                0.25484594               -0.32174328               -0.09783903               14.38922252                1.99025841
               9.95343506                5.62407860               26.99204706                0.23885279               -0.71429220               -0.01735192               -0.39914624               -0.09658690                7.35115295                2.85055445
              10.95501233                5.50687583               26.86506131                0.66805410                0.21699211                0.17967352               -0.75298628                0.02057516                0.13903043                1.13103829
              11.95777491                5.38945754               26.73634573                1.00000000                0.27625780                0.39912444               -1.11725266               -0.01647212                0.05876861               -0.46346934
               2.18487270                7.65326320               27.17218274                1.00000000               -0.07278236               -0.13584626                0.40129904               -0.02337758                0.02643103                0.87452182
               3.18414488                7.51781831               27.03837972                0.55537767               -0.03325328               -0.02454706                0.09744938               -0.00331533                0.16601198               -0.67953126
               4.18420764                7.38195550               26.90730314                0.07633137               -0.53403004                0.09271676               -0.20259135                0.27265867                5.57106495               -2.37797343
               5.17346428                7.25109915               26.88159916                0.00010000               -1.51801052                0.53886924               -0.33692359                0.33992625               13.80763101                0.52604425
               6.15384743                7.12603091               26.91514802                0.00010000               -2.05301629                0.69446639               -0.26191557                0.38053470               16.71936954                0.42259885
               7.13240395                7.00019927               26.94725895                0.00010000               -2.17096959                0.74599864               -0.22712039                0.01323049               16.63998186                0.66371608
               8.11042804                6.87360216               26.97830583                0.00010000               -2.15593908                0.63629745               -0.22195144               -0.35935535               16.66951988                1.15393823
               9.08928517                6.74743546               27.00979573                0.00010000               -2.01484813                0.35985865               -0.23997533               -0.57637750               16.83466700                1.82433080
              10.07013107                6.62389807               27.04274322                0.26488010               -0.89249930               -0.01608097               -0.27459359               -0.38184512                8.53916930                2.62725741
              11.07143519                6.50855576               26.90684080                0.64183524                0.19076901                0.15917497               -0.65948016                0.00719898                0.07145011                1.01042603
              12.07394645                6.39331817               26.77012543                1.00000000                0.25112676                0.36982631               -1.04296548               -0.01041608                0.03876378               -0.55731802
               2.31953347                8.65214541               27.13581840                1.00000000               -0.03182583               -0.08916096                0.26476467               -0.02246565                0.00913361                0.85845600
               3.31921521                8.51778827               26.99422112                0.55295811                0.01065342                0.01809476               -0.04625767                0.00041084                0.05402795               -0.68392978
               4.31974653                8.38307594               26.85345328                0.05811542               -0.73231661                0.12875429               -0.35968736                0.45321794                7.71002767               -2.27895208
               5.30456888                8.25686276               26.86496676                0.00010000               -1.85633102                0.66412459               -0.30066457                0.62294013               16.88927722                0.40254116
               6.28261991                8.13395827               26.90777312                0.00010000               -2.31808063                0.91796618               -0.27021047                0.41100876               18.49503535                0.42947296
               7.25820726                8.00889643               26.95064670                0.00010000               -2.50589281                0.98498563               -0.22003797               -0.07174233               18.61829637                0.58502743
               8.23250206                7.88107532               26.99483392                0.00010000               -2.53662753                0.91614415               -0.17782069               -0.60158516               18.86289560                0.94069005
               9.20747471                7.75168367               27.04141477                0.01653689               -2.39121027                0.55185697               -0.16170976               -1.10330912               19.21135123                1.54319938
              10.18467785                7.62375698               27.09127073                0.29543768               -1.08692555               -0.00647688               -0.17305449               -0.72537391                9.74818149                2.32114308
              11.18573620                7.51005933               26.94729008                0.64032633                0.16819567                0.14574603               -0.57825091               -0.01158952                0.04265216                0.88804170
              12.18804177                7.39685407               26.80270968                1.00000000                0.23055645                0.33571098               -0.97966593               -0.00488986                0.02278810               -0.67591436
               2.45313767                9.65147999               27.09952928                1.00000000                0.00848947               -0.04570881                0.13076088               -0.02205526               -0.01096014                0.74290420
               3.45322256                9.51818021               26.95011599                0.57895203                0.05299182                0.06003341               -0.18782780                0.00157158                0.07591433               -0.58166070
               4.45419750                9.38453059               26.80236831                0.01972894               -0.90909067                0.16213407               -0.50323583                0.70155932                9.80260947               -1.55889029
               5.43504075                9.26438164               26.84747087                0.00010000               -2.20817878                0.99718991               -0.35692849                0.71922699               19.81353791                0.27540196
               6.41003393                9.14439024               26.89933065                0.00010000               -2.55943458                1.09957868               -0.29791072                0.36448870               20.26941781                0.24424045
               7.38385206                9.01989899               26.95241819                0.00010000               -2.72124154                1.15521544               -0.22372243               -0.04829649               20.53267955                0.33365277
               8.35560910                8.89192504               27.00844255                0.00010000               -2.96573624                1.16278876               -0.14235735               -0.54999902               20.98925305                0.53265421
               9.32453733                8.75847259               27.06970379                0.04410721               -2.91805836                1.05226390               -0.05161033               -1.22544051               21.53189732                0.96253040
              10.29724793                8.62376853               27.13581301                0.32822560               -1.32155128                0.02354293               -0.09833058               -1.13978998               11.06059515                1.51879661
              11.29810631                8.51147068               26.98655194                0.65868825                0.15056288                0.13949342               -0.51397364               -0.03036292                0.14079949                0.68847952
              12.30025919                8.40003239               26.83391030                0.98221668                0.21528813                0.30227616               -0.93081656               -0.00367025               -0.01546249               -0.65711379
               2.58569191               10.65123123               27.06078492                1.00000000                0.05041254               -0.02487554               -0.00195461                0.03119500                0.40818791                0.62456322
               3.58619604               10.51898894               26.90793866                0.82743460                0.09421899                0.08087259               -0.32536900                0.05171708                0.79984710               -0.48232587
               4.58757629               10.38631862               26.76285186                0.50912110               -1.35511344                0.17880341               -0.63403863                1.22875989               11.73249785               -0.97897451
               5.55909377               10.27680656               26.82864876                0.36674497               -2.65919749                1.24249189               -0.46534058                0.88686316               22.10920441                0.17683113
               6.53439234               10.15594985               26.88877265                0.35705435               -2.46936201                1.15596114               -0.35070677                0.19555058               22.00886377                0.11631633
               7.50970653               10.03200074               26.95120658                0.37323534               -2.57319361                1.21017572               -0.24914861                0.00450962               22.35255093                0.16948814
               8.48292847                9.90433110               27.01716562                0.41376612               -2.92920572                1.24060569               -0.13596744               -0.23165264               22.91310717                0.28222918
               9.45112241                9.77272895               27.09003092                0.53440231               -3.70222532                1.42563525                0.02098342               -1.34665489               23.52291740                0.56183018
              10.40888396                9.62422784               27.16804636                0.68373019               -2.11286667                0.04593082               -0.06374044               -1.83038400               12.62377514                0.92338584
              11.40886508                9.51284920               27.02279701                0.84993981                0.09804911                0.13785173               -0.46585121                0.00946498                0.93462313                0.55413414
              12.41084494                9.40289959               26.86665565                0.98617757                0.19798651                0.28671981               -0.88781513                0.06361459                0.40541399               -0.56787973
               1.29299457                0.71817905               28.41421435                1.00000000               -0.34462561               -0.37117876                1.29340890               -0.06325805               -0.87766741                0.90333285
               2.28954832                0.56792531               28.32287674                1.00000000               -0.29328079               -0.29239299                1.03864541               -0.04823618               -1.13365643                0.08934065
               3.28712896                0.41735408               28.22641019                1.00000000               -0.17593911               -0.21387485                0.77247573               -0.04258239               -1.09535684               -0.20998597
               4.28602954                0.26733398               28.13588610                0.62761083                0.21071578               -0.16639827                0.51461150                0.34471602               -0.21874592               -0.76288197
               5.29134327                0.12623515               28.05708155                0.71467926                0.35411929               -0.05992598                0.23170163               -0.07472597                0.17943696                0.23058120
               6.29311192               -0.00792740               27.97540097                0.79622216                0.14211022                0.02377839               -0.04330584               -0.01529382               -0.15301587                0.13479664
               7.29418548               -0.14054676               27.89018435                0.77304088                0.11719856                0.09739385               -0.31885197               -0.00040351               -0.37318254               -0.07396352
               8.29545589               -0.27288029               27.80405826                0.86518615                0.15018063                0.18270834               -0.60135859                0.00135648               -0.63370572                0.10434489
               9.29718909               -0.40624797               27.71335012                1.00000000                0.22777943                0.26759735               -0.88017094               -0.00508681               -0.95428304                0.52840813
              10.30001148               -0.54056550               27.62056063                1.00000000                0.32977618                0.34138915               -1.15055664               -0.03587635               -0.95270935                0.00627594
              11.30378462               -0.67504907               27.52980485                1.00000000                0.37731333                0.42399735               -1.41108328               -0.04639096               -0.85125408               -0.84876182
               1.44261574                1.71446726               28.37703939                1.00000000               -0.31372966               -0.35397498                1.16676677               -0.02224120               -0.12488408                1.22960564
               2.43947844                1.56500138               28.28539336                1.00000000               -0.28084698               -0.27183699                0.91336249               -0.00440346               -0.12111897                0.12447184
               3.43699880                1.41521533               28.19378604                0.88037979               -0.22211381               -0.19011458                0.65041798                0.00766922                0.05787715               -0.55964135
               4.43503616                1.26567000               28.10568052                0.20935018               -0.43860454               -0.15004791                0.38054872                0.49019977                1.63014752               -1.15655205
               5.42822671                1.12563589               28.04541768                0.36998350               -0.43431127                0.05127281                0.14369742               -0.09268148                2.40890119                1.02377274
               6.42634994                0.99231039               27.97194059                0.47244575               -0.07844091                0.07799772               -0.10788768                0.09422087                1.53224413                0.44825170
               7.42665789                0.86042718               27.89387794                0.37154549                0.09850637                0.09223089               -0.36379794                0.14387077                1.44469598               -0.34295049
               8.42832006                0.72894680               27.81864997                0.50255295                0.21614708                0.18900143               -0.61462015                0.13021728                1.45554349                0.59898149
               9.43098083                0.59642800               27.74100201                1.00000000                0.28666025                0.26110643               -0.85920182                0.05957413                0.74096581                0.77214054
              10.43405327                0.46284840               27.65164514                1.00000000                0.34117281                0.33483536               -1.11912736                0.00623403                0.08901245                0.11223749
              11.43780428                0.32919090               27.56097271                1.00000000                0.37510149                0.42236765               -1.37810170               -0.00458449                0.02257157               -1.00063902
               1.59148152                2.71109955               28.34636430                1.00000000               -0.27693434               -0.32513583                1.04982124               -0.01506338                0.04543579                1.56027236
               2.58871218                2.56248857               28.24858506                1.00000000               -0.24339000               -0.23594830                0.79215789                0.00864090                0.21515087                0.10045860
               3.58661372                2.41355179               28.15414193                0.54253400               -0.16495998               -0.15195340                0.54305614                0.02132002                0.77770022               -1.33999936
               4.58541298                2.26433302               28.06756998                0.00010000               -1.18822295               -0.12971670                0.25690226                0.68829402                4.60721849               -2.04182114
               5.56284926                2.12726061               28.04966854                0.00010000               -1.26039635                0.09564381                0.06322625                1.23961040                5.36262422               -1.21584092
               6.56020505                1.99363256               27.97478127                0.00010000               -0.12113890               -0.07329068               -0.16031127                1.01395166                2.13769305               -0.24839599
               7.56042648                1.86129786               27.89220551                0.00010000                0.09271844               -0.11619082               -0.39241577                0.81016379                3.42564194                0.57037312
               8.56205942                1.73089974               27.84315282                0.00010000                0.20262474               -0.07705885               -0.64795866                0.52984011                4.03786974                1.12857167
               9.56447898                1.59897416               27.77356739                0.50719005                0.26569241                0.24849955               -0.83282901                0.07098289                2.03819261                1.56597985
              10.56737327                1.46613121               27.68485932                1.00000000                0.32644717                0.31477031               -1.07925515                0.00385717                0.72979770                0.70894704
              11.57100792                1.33339828               27.58908949                1.00000000                0.36346543                0.42148037               -1.34942823               -0.00657198                0.37631810               -1.01008754
               1.73953643                3.70796454               28.31579265                1.00000000               -0.23374179               -0.30208778                0.93176940               -0.01367980                0.08568695                1.48875508
               2.73719901                3.56028241               28.21059572                1.00000000               -0.19778472               -0.20358541                0.66942252                0.00734776                0.11223866               -0.03335887
               3.73558074                3.41217627               28.10586955                0.32958588               -0.10528928               -0.11087713                0.41479372               -0.02203098                1.05905400               -1.66748047
               4.73509323                3.26307567               28.01958800                0.00010000               -0.59306776               -0.08351636                0.15208609                0.65800935                4.99089974               -2.75184283
               5.72371938                3.12754877               27.99343898                0.00010000               -1.12507558                0.00207705               -0.01091867                1.74579621                7.55111784               -3.07675945
               6.71259172                2.99084457               27.95750632                0.00010000               -0.90627035               -0.09230506               -0.18451907                1.40010236                6.73782071               -0.91982982
               7.70559398                2.85810336               27.91397247                0.00010000               -0.56755733               -0.16812575               -0.37220664                1.11670270                6.27839154                1.28108469
               8.70124057                2.72740562               27.86821737                0.00010000               -0.42124785               -0.17966613               -0.56623026                0.87818191                5.92656111                1.60953631
               9.69716902                2.60139799               27.81708764                0.23732002               -0.07671389                0.13239279               -0.76975256                0.26137079                3.78523743                2.93580432
              10.69970629                2.46914380               27.72786259                1.00000000                0.29848470                0.28230878               -1.00373099               -0.03033301                0.94910836                1.11562439
              11.70313871                2.33762051               27.61994492                1.00000000                0.34324200                0.41966944               -1.30396406               -0.00998986                0.01326708               -0.69435853
               1.88657219                4.70505779               28.28368840                1.00000000               -0.19247820               -0.27316826                0.80487842               -0.02086150                0.12404932                1.30877395
               2.88464741                4.55841686               28.17108003                0.86933779               -0.15961737               -0.16286793                0.53792598               -0.00196615                0.18247840               -0.22644234
               3.88337984                4.41133425               28.05958207                0.19664578               -0.07233725               -0.05594149                0.28304301               -0.06437986                1.19373486               -1.63668264
               4.88320066                4.26266270               27.96718345                0.00010000               -0.66917821                0.06051239                0.01642282                0.46952185                6.45418467               -2.67869570
               5.86999628                4.12730215               27.96090941                0.00010000               -1.27740824                0.08048991               -0.09272539                0.91202356               10.40561373               -1.44387471
               6.85765250                3.99178645               27.94683200                0.00010000               -1.18983960                0.15707549               -0.20942874                0.77437514                9.73449068               -0.30500987
               7.84619949                3.85793534               27.92631801                0.00010000               -1.06620355                0.09234431               -0.34621225                0.63160146                9.27397777                0.92472975
               8.83632843                3.72730642               27.90199566                0.00010000               -0.91156374                0.05579799               -0.50206187                0.57739958                9.11181636                2.11950224
               9.82796821                3.60162201               27.87713926                0.20915982               -0.28921672               -0.01126802               -0.68145150                0.23280207                5.00088894                3.55903857
              10.83054409                3.47177739               27.76928106                0.79394736                0.29432517                0.23649431               -0.95087251               -0.00445265                0.50225127                1.17987570
              11.83385471                3.34179167               27.65423860                1.00000000                0.33106226                0.42448144               -1.25397441               -0.02918832                0.14129274               -0.46348260
               2.03240107                5.70250118               28.24951846                1.00000000               -0.15178359               -0.23215970                0.66906751               -0.02541366                0.12833165                1.11050499
               3.03088323                5.55702505               28.12918432                0.70216868               -0.11768852               -0.11379509                0.38650096               -0.00903242                0.28116058               -0.47054493
               4.03004730                5.41105744               28.01184485                0.13250604               -0.11837341                0.00215310                0.11992433               -0.03032449                1.72902258               -1.91756977
               5.02851577                5.26428591               27.92045802                0.00010000               -0.86056019                0.27352399               -0.16791257                0.24182319                8.44292868               -1.38963351
               6.01283610                5.12915856               27.93727857                0.00010000               -1.55348726                0.29133680               -0.17155383                0.60442195               13.28314879               -0.58780157
               6.99744602                4.99398608               27.94210139                0.00010000               -1.50650290                0.31093484               -0.22837938                0.36819051               12.43964508                0.21498638
               7.98270604                4.85995025               27.94117074                0.00010000               -1.41720638                0.27055160               -0.31747545                0.22971891               12.07724365                1.13801054
               8.96910189                4.72852158               27.93755284                0.00010000               -1.26759724                0.15485286               -0.42955590                0.21394061               12.00627940                2.17057299
               9.95735409                4.60117263               27.93376088                0.21511375               -0.48271542               -0.04347877               -0.56543539                0.08692271                6.26613281                3.22493955
              10.95944759                4.47387369               27.81369723                0.70319548                0.25861465                0.19646583               -0.86194366                0.02364696                0.26997659                1.28295001
              11.96252639                4.34611013               27.68970788                1.00000000                0.30788015                0.42640534               -1.20016078               -0.02398268                0.07813302               -0.40268276
               2.17701617                6.70041460               28.21344241                1.00000000               -0.11056693               -0.18347779                0.52802152               -0.02464860                0.06427973                0.95418086
               3.17591050                6.55614096               28.08472632                0.59962645               -0.07518407               -0.06534197                0.23619051               -0.00798194                0.25876715               -0.64261479
               4.17551249                6.41137731               27.95983528                0.09735812               -0.29872515                0.05604851               -0.04346801                0.08850235                3.39296648               -2.25276377
               5.16993600                6.26813318               27.89379927                0.00010000               -1.15639697                0.43191936               -0.29487498                0.11796819               11.05554759                0.16817879
               6.15238455                6.13312888               27.92191476                0.00010000               -1.78556882                0.48649519               -0.22249911                0.34200874               15.39147074                0.11772308
               7.13422462                5.99800515               27.94206973                0.00010000               -1.80630924                0.50024212               -0.23620267                0.08391431               14.84285179                0.57755322
               8.11625836                5.86334638               27.95819066                0.00010000               -1.74198824                0.41930402               -0.28301232               -0.13417756               14.63820189                1.25979434
               9.09938486                5.73040348               27.97286134                0.00010000               -1.59519032                0.22956125               -0.35120829               -0.22162067               14.66514323                2.08292723
              10.08435456                5.60075244               27.98787824                0.23447261               -0.66526639               -0.03592114               -0.43456662               -0.15657169                7.49802975                2.96261620
              11.08607953                5.47570670               27.85742307                0.65113934                0.22738048                0.17413581               -0.77404572                0.02481986                0.14633117                1.18871255
              12.08890217                5.35031977               27.72511670                1.00000000                0.28226392                0.40867730               -1.12868668               -0.01669298                0.05939419               -0.44200472
               2.32045538                7.69883162               28.17613028                1.00000000               -0.06944991               -0.13382358                0.38803373               -0.02340105                0.02568264                0.87271613
               3.31976088                7.55571821               28.03931523                0.55020664               -0.03151287               -0.02080310                0.08947148               -0.00358922                0.16731850               -0.69567899
               4.31982513                7.41217841               27.90526478                0.07539456               -0.53186632                0.09904942               -0.20527538                0.23611461                5.67324822               -2.41624375
               5.30912356                7.27292430               27.87856458                0.00010000               -1.50104144                0.51675781               -0.26996881                0.23273506               14.08274839                0.65901726
               6.28980430                7.13888847               27.91263133                0.00010000               -2.01083722                0.67054166               -0.24243319                0.25443616               17.07267442                0.48832709
               7.26890681                7.00399092               27.94496165                0.00010000               -2.10900682                0.72040710               -0.23354068               -0.10747521               16.98299033                0.72500051
               8.24762416                6.86833633               27.97597904                0.00010000               -2.08216969                0.60944986               -0.24445771               -0.47669973               17.00627167                1.22843963
               9.22726342                6.73311281               28.00722966                0.00010000               -1.93523632                0.33832471               -0.27377832               -0.69791718               17.16893682                1.91120903
              10.20891943                6.60045421               28.03979044                0.26133915               -0.84433867               -0.02132811               -0.31554869               -0.44416289                8.70864974                2.71913952
              11.21037665                6.47735640               27.90009809                0.62541056                0.20234766                0.15936962               -0.68851338                0.00994072                0.07100371                1.05977950
              12.21296639                6.35428368               27.75960673                1.00000000                0.25897411                0.38025346               -1.06098065               -0.00955860                0.03888781               -0.54306412
               2.46277497                8.69773813               28.13839544                1.00000000               -0.02830381               -0.08619322                0.25031754               -0.02255658                0.00870106                0.85906493
               3.46249193                8.55572489               27.99371813                0.54869059                0.01268602                0.02160048               -0.05461029                0.00060219                0.05268124               -0.69756395
               4.46302869                8.41335830               27.84984814                0.05580613               -0.73056476                0.13364901               -0.36164474                0.40278520                7.90715552               -2.30755800
               5.44788064                8.27846833               27.86224748                0.00010000               -1.83110206                0.64343760               -0.24828142                0.52109385               17.25314863                0.48495023
               6.42640665                8.14653972               27.90513860                0.00010000               -2.26266914                0.88971385               -0.25866321                0.30839369               18.85197595                0.48378064
               7.40262725                8.01241329               27.94840281                0.00010000               -2.44020811                0.95900005               -0.23027431               -0.17122564               19.00559037                0.63579299
               8.37760249                7.87553537               27.99294510                0.00010000               -2.46593102                0.89189675               -0.20085166               -0.70320015               19.25200584                1.00695125
               9.35330863                7.73716997               28.03962077                0.01813816               -2.31873927                0.53265416               -0.19742901               -1.21450528               19.58932051                1.64505733
              10.33122770                7.60032588               28.08929127                0.29304223               -1.04298810                0.00035496               -0.22233615               -0.78379379                9.93381512                2.38599287
              11.33244887                7.47889410               27.94131291                0.62335866                0.18143705                0.15286356               -0.61725590               -0.01102373                0.03993611                0.92193844
              12.33485644                7.35792484               27.79278427                1.00000000                0.24075712                0.34647755               -1.00619940               -0.00321882                0.02272740               -0.67444684
               2.60403072                9.69710776               28.10076126                1.00000000                0.01220392               -0.04168635                0.11519064               -0.02223169               -0.01166471                0.74573801
               3.60415276                9.55615022               27.94819454                0.57415610                0.05533369                0.06326622               -0.19684586                0.00196160                0.07748973               -0.59218796
               4.60513739                9.41485139               27.79733435                0.01632754               -0.88943691                0.16506942               -0.50460783                0.63926194               10.04105862               -1.57447388
               5.58636402                9.28579305               27.84401538                0.00010000               -2.15550898                0.96948073               -0.33996158                0.64765240               20.24860203                0.27925709
               6.56202721                9.15668274               27.89635945                0.00010000               -2.49386875                1.07262710               -0.29902087                0.30318275               20.67819303                0.27130699
               7.53648664                9.02317092               27.95011109                0.00010000               -2.66118659                1.13401796               -0.23958349               -0.10602839               20.97289983                0.36211087
               8.50880348                8.88617427               28.00690925                0.00010000               -2.91519150                1.14784546               -0.16505135               -0.61542164               21.45720947                0.57331128
               9.47818281                8.74376589               28.06908809                0.04827023               -2.86420223                1.03941963               -0.06954167               -1.30082243               21.93963475                1.05828539
              10.45151943                8.60046131               28.13452172                0.32735499               -1.28128043                0.03983137               -0.15985669               -1.18352396               11.23250836                1.54951038
              11.45255720                8.48041368               27.98116245                0.63963841                0.16605419                0.15333899               -0.56464968               -0.03065845                0.14212952                0.70587928
              12.45484052                8.36121323               27.82442879                0.98152020                0.22833139                0.31399629               -0.96690340               -0.00174504               -0.01321065               -0.66529202
               2.74424541               10.69690440               28.06068676                1.00000000                0.05421254               -0.02033584               -0.01820692                0.03005133                0.40967320                0.62845500
               3.74478754               10.55699022               27.90463709                0.82481866                0.09628436                0.08399973               -0.33542719                0.05124245                0.80949441               -0.49068997
               4.74617110               10.41665969               27.75650444                0.50716684               -1.28926046                0.18083006               -0.63713906                1.14675728               11.98688984               -0.98793265
               5.71900233               10.29785795               27.82398578                0.36706520               -2.55393322                1.20648948               -0.47036193                0.83045949               22.60052631                0.15046587
               6.69509243               10.16799226               27.88522821                0.35723181               -2.39935804                1.13095127               -0.36120970                0.16830754               22.48590348                0.12661144
               7.67101517               10.03509365               27.94861348                0.37303532               -2.51966715                1.19227278               -0.27168037               -0.02214636               22.84623729                0.18183375
               8.64469909                9.89849228               28.01567810                0.41301608               -2.90050119                1.23180174               -0.16248285               -0.26720321               23.45512374                0.30297093
               9.61300514                9.75795836               28.09019261                0.53746232               -3.68948267                1.41924753                0.01460037               -1.38625602               23.95856314                0.63071404
              10.57090944                9.60112250               28.16704542                0.68409179               -2.09606810                0.06611939               -0.13733340               -1.86087413               12.79321703                0.93444249
              11.57108378                9.48196088               28.01783386                0.83952671                0.11564967                0.15472005               -0.52837345                0.00677096                0.95669021                0.56425439
              12.57322243                9.36420477               27.85755929                0.98591393                0.21386499                0.29915369               -0.93363698                0.06258052                0.42002480               -0.57789752
               1.37676791                0.76507633               29.42712523                1.00000000               -0.34412056               -0.36990032                1.28868450               -0.06287453               -0.88949238                0.91412607
               2.37332671                0.60695225               29.33324749                1.00000000               -0.29417169               -0.29110360                1.03545940               -0.04756337               -1.15060972                0.09411977
               3.37088448                0.44848976               29.23413219                1.00000000               -0.18053733               -0.21275029                0.77211408               -0.04330861               -1.11320723               -0.20918132
               4.36971596                0.29048176               29.14104175                0.62697886                0.18380349               -0.16516991                0.51758786                0.31697470               -0.24513557               -0.78115514
               5.37456055                0.14070468               29.05942779                0.71450181                0.32398082               -0.06306007                0.23726335               -0.07050909                0.13663598                0.24265646
               6.37619558               -0.00275531               28.97498645                0.79664657                0.13637036                0.02197186               -0.03968593               -0.01838013               -0.19600612                0.14240475
               7.37728796               -0.14476484               28.88700379                0.77330361                0.12541142                0.09666925               -0.31649733               -0.00320740               -0.41983846               -0.07593861
               8.37870380               -0.28635310               28.79805028                0.86269394                0.16400084                0.18185758               -0.59945291               -0.00437484               -0.68074150                0.10587922
               9.38056797               -0.42866313               28.70455751                1.00000000                0.23639544                0.26568922               -0.87786278               -0.00832993               -0.99385464                0.54018255
              10.38343171               -0.57175147               28.60907264                1.00000000                0.33179709                0.34099838               -1.14684887               -0.03424914               -0.98285795                0.00474027
              11.38720391               -0.71498645               28.51571690                1.00000000                0.37722005                0.42493681               -1.40665734               -0.04413689               -0.87654512               -0.87227923
               1.53426325                1.76137733               29.38867734                1.00000000               -0.31188919               -0.35306864                1.16102045               -0.02182909               -0.12819533                1.24517007
               2.53114436                1.60404121               29.29450357                1.00000000               -0.27883058               -0.27057253                0.90877475               -0.00391848               -0.12946679                0.13115372
               3.52868664                1.44636226               29.20027067                0.89131307               -0.21830537               -0.18864763                0.64639161                0.00476468                0.04128472               -0.55140630
               4.52677825                1.28883006               29.10946420                0.21317328               -0.41063205               -0.14789519                0.37751867                0.45079577                1.62884504               -1.16968735
               5.52047399                1.14007408               29.04686835                0.37422367               -0.40158565                0.04289932                0.14904029               -0.08251680                2.42466044                1.04034091
               6.51874653                0.99746440               28.97087118                0.47855678               -0.07096108                0.07391480               -0.10522698                0.08455831                1.53871688                0.46153500
               7.51905477                0.85620185               28.89023526                0.37974365                0.09313332                0.09668085               -0.36422599                0.13307529                1.45080154               -0.33732787
               8.52060920                0.71546548               28.81248879                0.50646126                0.20645417                0.19215835               -0.61803647                0.11347933                1.46650299                0.58882449
               9.52318386                0.57399376               28.73240284                1.00000000                0.28208399                0.26050297               -0.86127945                0.05183089                0.74684802                0.78593653
              10.52625088                0.43165852               28.64044942                1.00000000                0.34068354                0.33523775               -1.12077664                0.00775738                0.08791227                0.11513795
              11.52999753                0.28926292               28.54719237                1.00000000                0.37466460                0.42668739               -1.37884769               -0.00208912                0.02272305               -1.02566328
               1.69100356                2.75801496               29.35682503                1.00000000               -0.27401552               -0.32489646                1.04300088               -0.01453880                0.04542111                1.58025854
               2.68826340                2.60154080               29.25647671                1.00000000               -0.24063174               -0.23457585                0.78618061                0.00851137                0.21883014                0.10855083
               3.68619092                2.44471681               29.15955331                0.55810291               -0.16216733               -0.14870137                0.53766092                0.01514673                0.76660018               -1.33433289
               4.68502006                2.28752386               29.07011092                0.00010000               -1.09575264               -0.12565011                0.25075915                0.63104830                4.62714352               -2.03787298
               5.66427587                2.14156267               29.05032999                0.00010000               -1.16305431                0.07747156                0.07011668                1.11854207                5.43940220               -1.19683055
               6.66175897                1.99872298               28.97317660                0.00010000               -0.11637412               -0.07446596               -0.16266311                0.89935072                2.19730860               -0.21598575
               7.66194839                1.85716878               28.88825861                0.00010000                0.07112564               -0.10559048               -0.39599061                0.70969645                3.46789347                0.60753755
               8.66318148                1.71749007               28.83660486                0.00010000                0.17315809               -0.06386726               -0.66281352                0.45986366                4.10051807                1.16898455
               9.66541155                1.57654693               28.76520476                0.50692248                0.25681107                0.24663468               -0.84129328                0.04913484                2.10472459                1.60083865
              10.66831770                1.43495329               28.67404425                1.00000000                0.32708891                0.31383715               -1.08580009                0.00160975                0.75310264                0.73629264
              11.67195333                1.29354730               28.57558017                1.00000000                0.36356238                0.42982901               -1.35573388               -0.00547708                0.38890120               -1.02366939
               1.84692079                3.75487940               29.32506745                1.00000000               -0.23080601               -0.30220547                0.92373691               -0.01341195                0.08949670                1.50386553
               2.84461273                3.59934970               29.21725845                1.00000000               -0.19571386               -0.20175814                0.66327413                0.00720274                0.11982644               -0.03032919
               3.84300651                3.44338823               29.11000307                0.33724638               -0.10296854               -0.10648664                0.41105878               -0.02921787                1.06649298               -1.67433062
               4.84255336                3.28631706               29.02110610                0.00010000               -0.56803998               -0.07418328                0.14864583                0.58249036                5.03809265               -2.74645347
               5.83164571                3.14162351               28.99331680                0.00010000               -1.07129594               -0.00758238               -0.01463850                1.55069669                7.65233760               -3.06199958
               6.82112744                2.99597509               28.95563112                0.00010000               -0.85820484               -0.09689592               -0.19143849                1.22288926                6.83865407               -0.87395943
               7.81448161                2.85409004               28.91019631                0.00010000               -0.53495579               -0.16781992               -0.38392792                0.95656870                6.37605936                1.34905562
               8.81042832                2.71418813               28.86248552                0.00010000               -0.38891411               -0.17768926               -0.58043055                0.76226506                6.02137350                1.70382381
               9.80670333                2.57892646               28.80932295                0.23370971               -0.05728083                0.11448719               -0.78510682                0.21390322                3.86671112                3.00118509
              10.80928271                2.43793526               28.71783112                0.99463932                0.29983160                0.27748587               -1.00879902               -0.03832267                0.98636196                1.15103520
              11.81269996                2.29785950               28.60694725                1.00000000                0.34172583                0.42437262               -1.29934023               -0.01058810                0.01963958               -0.69092682
               2.00179472                4.75197085               29.29168890                1.00000000               -0.18961006               -0.27320931                0.79558939               -0.02086311                0.13205932                1.31466676
               2.99989862                4.59750564               29.17642612                0.86040290               -0.15777598               -0.16032674                0.53141055               -0.00246418                0.19645449               -0.23816156
               3.99863920                4.44258708               29.06239538                0.19926648               -0.07320179               -0.05130398                0.27946854               -0.06777876                1.20776001               -1.66196834
               4.99843458                4.28604019               28.96734191                0.00010000               -0.65037115                0.06860102                0.01634926                0.39448818                6.53468094               -2.70636808
               5.98563178                4.14141102               28.95998181                0.00010000               -1.23421810                0.08073613               -0.09388964                0.76978844               10.56974768               -1.42769847
               6.97375022                3.99678506               28.94469806                0.00010000               -1.13825321                0.14387029               -0.21871620                0.63422833                9.89380634               -0.25702128
               7.96286671                3.85381238               28.92278205                0.00010000               -1.00799256                0.07598590               -0.36220589                0.49997997                9.42473851                0.99746041
               8.95359037                3.71393628               28.89687564                0.00010000               -0.84621147                0.03480903               -0.52238774                0.45512956                9.25123061                2.20721173
               9.94594248                3.57883667               28.87021982                0.20442029               -0.24860826               -0.04607689               -0.70550544                0.17469003                5.09831128                3.65313951
              10.94861821                3.44050301               28.75980438                0.77439811                0.29753011                0.22720087               -0.94374096               -0.01147356                0.53874008                1.21821030
              11.95189309                3.30203475               28.64175942                1.00000000                0.32748808                0.42722142               -1.24585477               -0.03279045                0.15806895               -0.45667914
               2.15543395                5.74941521               29.25615501                1.00000000               -0.14867365               -0.23183602                0.65839539               -0.02549016                0.12888511                1.10874619
               3.15394721                5.59614316               29.13301161                0.69457284               -0.11587851               -0.11048166                0.37902670               -0.00976950                0.28986773               -0.49187693
               4.15311638                5.44236215               29.01302473                0.13349331               -0.11640171                0.00796618                0.11611591               -0.03663527                1.73988232               -1.95859650
               5.15161918                5.28768908               28.91887247                0.00010000               -0.84098856                0.26511013               -0.14714377                0.16593633                8.57724058               -1.40874846
               6.13629661                5.14323823               28.93560007                0.00010000               -1.51042669                0.28298120               -0.16482795                0.45999669               13.53515964               -0.55595743
               7.12141065                4.99885249               28.93978184                0.00010000               -1.44833074                0.29411043               -0.23688913                0.23581697               12.66120246                0.27022625
               8.10732999                4.85560976               28.93790565                0.00010000               -1.34520126                0.24622900               -0.33690240                0.10314385               12.28533018                1.21291259
               9.09450662                4.71488431               28.93313194                0.00010000               -1.18497918                0.12659656               -0.45578748                0.08591224               12.20410968                2.26380048
              10.08363041                4.57800492               28.92796270                0.20994494               -0.43257318               -0.07676522               -0.59418159                0.02432045                6.38788428                3.33831882
              11.08585516                4.44247928               28.80501875                0.68485363                0.26751272                0.18731093               -0.87495805                0.02406495                0.29265632                1.34101079
              12.08898066                4.30640393               28.67767992                1.00000000                0.31255079                0.43419253               -1.20772740               -0.02341217                0.07712205               -0.38620609
               2.30782902                6.74733413               29.21866185                1.00000000               -0.10727304               -0.18253537                0.51581898               -0.02468687                0.06332452                0.94979472
               3.30675629                6.59529600               29.08704927                0.59327520               -0.07342203               -0.06151172                0.22834094               -0.00890914                0.26403539               -0.66139313
               4.30636058                6.44274640               28.95938403                0.09708082               -0.29395281                0.06278075               -0.04674026                0.06766351                3.43144021               -2.29269632
               5.30087723                6.29134239               28.89111657                0.00010000               -1.13461378                0.40710993               -0.24004478                0.02288776               11.25482472                0.24488621
               6.28366830                6.14707064               28.91977156                0.00010000               -1.73910983                0.46676919               -0.20697472                0.19660558               15.70471957                0.17393674
               7.26609503                6.00266727               28.93967627                0.00010000               -1.73852661                0.47568571               -0.24402462               -0.05141369               15.11682104                0.63958895
               8.24889777                5.85873696               28.95525618                0.00010000               -1.65907872                0.39033737               -0.30541930               -0.26217970               14.90257007                1.33634175
               9.23291346                5.71646822               28.96919895                0.00010000               -1.50319205                0.20079453               -0.38229462               -0.35448503               14.92674281                2.17592595
              10.21883393                5.57730137               28.98335573                0.22953756               -0.61064824               -0.05685476               -0.47012478               -0.22068802                7.64111529                3.07549988
              11.22070049                5.44424923               28.84958039                0.63378765                0.23708077                0.16911182               -0.79271719                0.03005229                0.15665499                1.24697461
              12.22357554                5.31071860               28.71377199                1.00000000                0.28750484                0.41926938               -1.14001969               -0.01674868                0.06051916               -0.41627022
               2.45901646                7.74576450               29.17994342                1.00000000               -0.06597064               -0.13191967                0.37436165               -0.02350341                0.02495372                0.86975438
               3.45835676                7.59491293               29.04016915                0.54503547               -0.02966019               -0.01691612                0.08117373               -0.00434450                0.16863625               -0.71119357
               4.45842326                7.44361777               28.90319763                0.07384846               -0.53020317                0.10544044               -0.20808983                0.19590339                5.80766278               -2.45222679
               5.44775269                7.29583128               28.87619978                0.00010000               -1.47597078                0.48842848               -0.20401025                0.12100042               14.36393288                0.78906679
               6.42890384                7.15257362               28.91029935                0.00010000               -1.95183182                0.64175626               -0.22609798                0.11853673               17.38401287                0.55232793
               7.40871606                7.00836621               28.94258814                0.00010000               -2.03091929                0.68977886               -0.24307743               -0.23697892               17.29913866                0.78672019
               8.38828546                6.86341651               28.97341668                0.00010000               -1.99317729                0.57735868               -0.26968453               -0.60197821               17.32255968                1.30570691
               9.36885251                6.71890020               29.00432016                0.00010000               -1.84249087                0.31290866               -0.30908016               -0.82735967               17.48635558                2.00061119
              10.35143564                6.57686782               29.03643225                0.25727537               -0.79067707               -0.02779101               -0.35555168               -0.51052992                8.87093470                2.81143114
              11.35303897                6.44586152               28.89307053                0.60860967                0.21356483                0.15922605               -0.71650075                0.01314629                0.07120210                1.10847196
              12.35570694                6.31478932               28.74890581                1.00000000                0.26679671                0.39122342               -1.07999732               -0.00831716                0.03888321               -0.52616778
               2.60906210                8.74469573               29.14082475                1.00000000               -0.02459718               -0.08305399                0.23515802               -0.02273826                0.00827857                0.85865872
               3.60881613                8.59495768               28.99312891                0.54427981                0.01490948                0.02522825               -0.06345214                0.00009932                0.05143199               -0.71080717
               4.60936029                8.44485521               28.84622039                0.05297831               -0.72373704                0.13835170               -0.36399646                0.34639330                8.12608003               -2.33445131
               5.59434139                8.30111096               28.86000113                0.00010000               -1.79280915                0.61986035               -0.20822328                0.41427775               17.61983984                0.54049050
               6.57350411                8.15990577               28.90259985                0.00010000               -2.19144128                0.85765696               -0.25224477                0.19750573               19.17426984                0.53012389
               7.55051256                8.01646285               28.94604121                0.00010000               -2.35899515                0.92821636               -0.24443028               -0.27887194               19.36883478                0.68587505
               8.52632421                7.87028413               28.99081689                0.00010000               -2.37988060                0.86208780               -0.22654734               -0.81228124               19.62009916                1.07824076
               9.50291495                7.72272639               29.03746619                0.01955605               -2.23310941                0.50831305               -0.23441334               -1.33367694               19.94497654                1.76194234
              10.48166202                7.57674555               29.08682400                0.29031576               -0.99365125                0.00683824               -0.27030981               -0.84522698               10.10622702                2.44790616
              11.48304193                7.44743375               28.93494497                0.60618024                0.19457897                0.16029020               -0.65652279               -0.00998062                0.03581974                0.95372772
              12.48555360                7.31854307               28.78258569                1.00000000                0.25116699                0.35811065               -1.03503090               -0.00129957                0.02239349               -0.67149463
               2.75803780                9.74410342               29.10183310                1.00000000                0.01614603               -0.03732033                0.09863106               -0.02246253               -0.01245396                0.74800516
               3.75819926                9.59541749               28.94617907                0.56884432                0.05800180                0.06661816               -0.20648814                0.00167437                0.07914439               -0.60279196
               4.75919784                9.44638480               28.79227615                0.01331829               -0.86057880                0.16822830               -0.50845601                0.57080508               10.28328731               -1.59072628
               5.74098769                9.30822849               28.84067164                0.00010000               -2.08478841                0.93820563               -0.33562516                0.56905450               20.67767715                0.25829944
               6.71750207                9.16972676               28.89335023                0.00010000               -2.41137178                1.04193888               -0.30646850                0.23403246               21.06498178                0.29204435
               7.69276025                9.02693053               28.94762652                0.00010000               -2.58628897                1.10849023               -0.26021814               -0.16998357               21.39385251                0.39006035
               8.66577629                8.88065827               29.00514152                0.00010000               -2.85213486                1.12843388               -0.19047384               -0.68682321               21.91484920                0.61840140
               9.63571756                8.72906646               29.06831296                0.05257264               -2.79762757                1.02038968               -0.08494246               -1.38211361               22.31556324                1.17659543
              10.60982374                8.57700459               29.13261587                0.32657400               -1.23378608                0.05618695               -0.22070638               -1.22770550               11.37303501                1.57496782
              11.61104183                8.44906732               28.97525895                0.62066809                0.18192768                0.16788544               -0.61675573               -0.03049858                0.14149973                0.72049288
              12.61346229                8.32195153               28.81457224                1.00000000                0.24204606                0.32687774               -1.00647941                0.00047025               -0.01088645               -0.67204721
               2.90598472               10.74394933               29.06042078                1.00000000                0.05835223               -0.01540965               -0.03574552                0.02876279                0.41052511                0.63215244
               3.90656824               10.59629004               28.90123011                0.82170095                0.09903416                0.08725516               -0.34605970                0.05041988                0.81833304               -0.49955163
               4.90796540               10.44821978               28.75010908                0.50510318               -1.20938564                0.18349738               -0.64318230                1.05600758               12.23665781               -0.99948315
               5.88238052               10.31987508               28.81924152                0.36736152               -2.42413438                1.16465907               -0.48156533                0.76552222               23.07798841                0.10897927
               6.85948271               10.18074455               28.88154846                0.35740689               -2.30995706                1.10177897               -0.37871022                0.13594284               22.94451454                0.13382089
               7.83618138               10.03863265               28.94577297                0.37282733               -2.45154511                1.17021213               -0.29974074               -0.05247364               23.32194099                0.19475941
               8.81045181                9.89285281               29.01391597                0.41224316               -2.86275134                1.21945457               -0.19239409               -0.30737190               23.99536119                0.32775854
               9.77892636                9.74313418               29.09032293                0.54067023               -3.66723782                1.40677172                0.01223714               -1.42829598               24.35624231                0.72030022
              10.73710705                9.57786929               29.16529969                0.68459429               -2.07206717                0.08647000               -0.21221333               -1.88880513               12.91622350                0.93988233
              11.73748501                9.45079146               29.01222954                0.82926192                0.13437641                0.17241361               -0.59412268                0.00488491                0.97581557                0.57146878
              12.73979458                9.32508063               28.84798291                0.98560174                0.23095672                0.31290967               -0.98452742                0.06214576                0.43477133               -0.58617156
               1.46296020                0.81335735               30.43998804                1.00000000               -0.34310315               -0.36864869                1.28363230               -0.06226316               -0.90119084                0.92518805
               2.45952917                0.64729555               30.34358593                1.00000000               -0.29448210               -0.29003187                1.03203802               -0.04653328               -1.16644275                0.09876560
               3.45707056                0.48089348               30.24185247                1.00000000               -0.18489745               -0.21273951                0.77103980               -0.04214705               -1.12825515               -0.20934618
               4.45583122                0.31486599               30.14623786                0.62607574                0.15303716               -0.16589046                0.51814070                0.28410070               -0.26974062               -0.79948302
               5.46013130                0.15620716               30.06182682                0.71572129                0.28922919               -0.06666447                0.24029863               -0.06757561                0.09206343                0.25551395
               6.46161580                0.00315122               29.97460725                0.79860183                0.12967876                0.01997116               -0.03609049               -0.02262483               -0.23862067                0.14891253
               7.46272487               -0.14852847               29.88385441                0.77470791                0.13357706                0.09542721               -0.31175473               -0.00640368               -0.46520690               -0.07767351
               8.46428734               -0.29963972               29.79206920                0.86004118                0.17823836                0.18084278               -0.59508116               -0.01080554               -0.72740461                0.10616084
               9.46628964               -0.45113498               29.69579286                1.00000000                0.24537966                0.26344674               -0.87368795               -0.01247469               -1.03267738                0.55185166
              10.46919494               -0.60322425               29.59762365                1.00000000                0.33377745                0.34037977               -1.14206000               -0.03282546               -1.01249065                0.00258856
              11.47296519               -0.75544560               29.50167171                1.00000000                0.37702549                0.42599627               -1.40206097               -0.04136855               -0.90206383               -0.89599129
               1.62839937                1.80967086               30.40025980                1.00000000               -0.31035993               -0.35213704                1.15543468               -0.02124472               -0.13156189                1.26102237
               2.62529577                1.64439523               30.30356885                1.00000000               -0.27677515               -0.26954242                0.90475324               -0.00367231               -0.13804295                0.13722200
               3.62286386                1.47876609               30.20671388                0.90289868               -0.21401916               -0.18803728                0.64317426                0.00264092                0.02440070               -0.54283883
               4.62101539                1.31320709               30.11323089                0.21638788               -0.37754685               -0.14661648                0.38148430                0.40611905                1.62909432               -1.17771257
               5.61531293                1.15554052               30.04839848                0.38042025               -0.36290087                0.03341916                0.15790389               -0.07079132                2.44158966                1.05622352
               6.61375737                1.00335094               29.96983605                0.48618771               -0.06283089                0.07008399               -0.10177765                0.07460414                1.53975166                0.46987891
               7.61405631                0.85242580               29.88659342                0.38879142                0.08625879                0.10080145               -0.36290294                0.12244920                1.45165630               -0.33177378
               8.61548254                0.70216871               29.80628924                0.51009451                0.19504257                0.19612131               -0.62196502                0.09549862                1.47553901                0.57407250
               9.61795716                0.55149949               29.72377642                1.00000000                0.27697231                0.26029022               -0.86454280                0.04276391                0.75300351                0.79836448
              10.62102199                0.40017955               29.62922961                1.00000000                0.34078441                0.33498086               -1.12406065                0.00899265                0.08680885                0.11734887
              11.62477285                0.24881437               29.53339576                1.00000000                0.37508597                0.43078005               -1.38208145                0.00092800                0.02317778               -1.05167206
               1.79308657                2.80631461               30.36722432                1.00000000               -0.27260719               -0.32464396                1.03708425               -0.01374124                0.04498077                1.59989943
               2.79036050                2.64190470               30.26430867                1.00000000               -0.23875256               -0.23344045                0.78181784                0.00911395                0.22103476                0.11645793
               3.78831152                2.47713274               30.16489515                0.57230702               -0.15906642               -0.14592531                0.52760616                0.01140236                0.75104726               -1.32532379
               4.78717917                2.31193366               30.07258517                0.00010000               -0.98699465               -0.11457426                0.24153556                0.56343862                4.64199981               -2.01909376
               5.76857163                2.15687554               30.05107087                0.00010000               -1.04782864                0.05582154                0.07237212                0.97737134                5.51506698               -1.18417084
               6.76622260                2.00455290               29.97152801                0.00010000               -0.11077695               -0.07535082               -0.16935856                0.76699707                2.24613932               -0.18986265
               7.76635609                1.85348756               29.88428570                0.00010000                0.04505180               -0.09323822               -0.39646741                0.59671281                3.49679963                0.64126249
               8.76712363                1.70428271               29.82989655                0.00010000                0.13889982               -0.04786955               -0.67912366                0.38210613                4.15601813                1.20759611
               9.76913408                1.55407083               29.75674152                0.50580405                0.24681390                0.24535732               -0.85348203                0.01965700                2.17353090                1.63364579
              10.77205991                1.40347537               29.66314332                1.00000000                0.32900131                0.31124122               -1.09624535               -0.00567917                0.77513797                0.76517513
              11.77571411                1.25317001               29.56197481                1.00000000                0.36541985                0.44041756               -1.36675057               -0.00421670                0.39896410               -1.03037408
               1.95694436                3.80317798               30.33426739                1.00000000               -0.22844393               -0.30255193                0.91668914               -0.01253792                0.09364552                1.51778968
               2.95465992                3.63972642               30.22386121                1.00000000               -0.19407048               -0.20021150                0.65762804                0.00895562                0.12755465               -0.02675179
               3.95306295                3.47584758               30.11409072                0.34283096               -0.10592856               -0.10297562                0.40697551               -0.02515448                1.07205597               -1.67782649
               4.95254135                3.31091560               30.02256092                0.00010000               -0.54109184               -0.05823470                0.14767126                0.49690243                5.07952086               -2.72681819
               5.94224111                3.15665695               29.99314621                0.00010000               -1.00280287               -0.02053171               -0.02202563                1.31958878                7.74914343               -3.05262106
               6.93248529                3.00184392               29.95367755                0.00010000               -0.79901749               -0.10287987               -0.20091706                1.02049441                6.93265367               -0.82976958
               7.92626076                2.85056104               29.90629392                0.00010000               -0.49719445               -0.16561739               -0.39824610                0.77639935                6.46717022                1.41192282
               8.92254140                2.70121132               29.85660876                0.00010000               -0.35515606               -0.17392377               -0.59639601                0.63186150                6.11103212                1.79838493
               9.91915764                2.55640663               29.80138550                0.22989297               -0.03660884                0.09871115               -0.80081754                0.15323331                3.94746526                3.06315161
              10.92180923                2.40640437               29.70768661                0.97156257                0.30707967                0.27392972               -1.03390282               -0.05322662                1.02976129                1.20431701
              11.92529924                2.25762272               29.59395812                1.00000000                0.34900097                0.43777060               -1.31746635               -0.00856926                0.03750297               -0.67609618
               2.11973894                4.80026357               30.29960019                1.00000000               -0.18689221               -0.27374153                0.78679530               -0.02024953                0.14056642                1.31911913
               3.11787001                4.63790047               30.18170824                0.85168657               -0.15598439               -0.15810290                0.52519508               -0.00197007                0.21112282               -0.24985580
               4.11661925                4.47507322               30.06517144                0.20082112               -0.07810814               -0.04753635                0.27586059               -0.06051823                1.22348457               -1.68576608
               5.11630785                4.31076897               29.96751043                0.00010000               -0.62920819                0.07103419                0.02233043                0.31677871                6.61645276               -2.72069601
               6.10403508                4.15646491               29.95903162                0.00010000               -1.17897296                0.07963615               -0.09774899                0.60575687               10.72730877               -1.40649224
               7.09272839                4.00249531               29.94245768                0.00010000               -1.07592045                0.12842410               -0.23122861                0.47947522               10.04290165               -0.20788060
               8.08251667                3.85017521               29.91907390                0.00010000               -0.94065616                0.05866627               -0.38148415                0.35553513                9.56716637                1.06924222
               9.07391527                3.70080423               29.89154790                0.00010000               -0.77554897                0.01314829               -0.54514670                0.32277328                9.38261194                2.29223359
              10.06700570                3.55604505               29.86302915                0.19936344               -0.20679870               -0.08017694               -0.72906349                0.11085290                5.20408755                3.74541829
              11.06977929                3.40895396               29.75040624                0.75461854                0.30501659                0.22567621               -0.95638164               -0.01726813                0.58994725                1.26804219
              12.07310603                3.26192542               29.62932150                1.00000000                0.33267335                0.43753592               -1.26613663               -0.03049140                0.17544142               -0.44698400
               2.28126557                5.79770315               30.26268637                1.00000000               -0.14547028               -0.23207455                0.64781003               -0.02543477                0.12951948                1.10537648
               3.27981087                5.63656436               30.13676485                0.68713268               -0.11407405               -0.10724606                0.37170121               -0.01036466                0.29899321               -0.51303870
               4.27898409                5.47489685               30.01416717                0.13375004               -0.11628146                0.01386288                0.11269687               -0.03866686                1.76278354               -1.99808462
               5.27748524                5.31233629               29.91751514                0.00010000               -0.81770874                0.24673096               -0.12218275                0.08449679                8.71671169               -1.40590348
               6.26262991                5.15824967               29.93398201                0.00010000               -1.45603722                0.27217115               -0.15978333                0.29801388               13.76841962               -0.51497417
               7.24836449                5.00441240               29.93736361                0.00010000               -1.37836858                0.27476645               -0.24873717                0.09163614               12.86570952                0.32892414
               8.23506254                4.85173437               29.93443269                0.00010000               -1.26187291                0.21934834               -0.36006827               -0.03338551               12.48055459                1.28848040
               9.22312703                4.70147428               29.92843709                0.00010000               -1.09187849                0.09647751               -0.48504153               -0.05131865               12.39363758                2.35608512
              10.21322497                4.55480310               29.92187725                0.20423356               -0.37717701               -0.11260812               -0.62583174               -0.03833315                6.51222192                3.45280330
              11.21558349                4.41091789               29.79619807                0.66567362                0.27607605                0.18202273               -0.88631865                0.02937063                0.32287411                1.39606732
              12.21874649                4.26637344               29.66555334                1.00000000                0.31629983                0.44215284               -1.21492276               -0.02327958                0.07840130               -0.36543494
               2.44150782                6.79562208               30.22375879                1.00000000               -0.10387992               -0.18196723                0.50338143               -0.02478187                0.06247450                0.94383973
               3.44046902                6.63575555               30.08929314                0.58698806               -0.07169157               -0.05748332                0.22037554               -0.01015344                0.26955972               -0.67947054
               4.44007399                6.47535048               29.95890047                0.09612228               -0.29120257                0.07003321               -0.04990854                0.04558514                3.49765600               -2.33010095
               5.43464497                6.31570359               29.88899837                0.00010000               -1.10773709                0.37423962               -0.18348611               -0.08134462               11.45901342                0.34068319
               6.41791925                6.16190833               29.91777527                0.00010000               -1.67842754                0.44285305               -0.19406847                0.03766657               15.98066190                0.23539403
               7.40107642                6.00799064               29.93718923                0.00010000               -1.65660818                0.44739916               -0.25576008               -0.19691915               15.36669032                0.70424146
               8.38478708                5.85456218               29.95208228                0.00010000               -1.56281264                0.35776974               -0.33185819               -0.39880314               15.15036666                1.41463608
               9.36982017                5.70273378               29.96521545                0.00010000               -1.39958308                0.16917557               -0.41662625               -0.49606849               15.17693613                2.27035637
              10.35679542                5.55379289               29.97847574                0.22392355               -0.55118999               -0.07942691               -0.50687087               -0.28882918                7.78563102                3.18981369
              11.35879637                5.41259441               29.84156873                0.61568802                0.24669652                0.16216881               -0.80900439                0.03596097                0.17308400                1.30621755
              12.36172935                5.27076847               29.70231630                1.00000000                0.29329858                0.42865946               -1.15228097               -0.01624416                0.06197203               -0.38493211
               2.60050299                7.79406381               30.18361752                1.00000000               -0.06235960               -0.13002289                0.36015627               -0.02369125                0.02425691                0.86540928
               3.59987940                7.63541470               30.04093871                0.53978647               -0.02776197               -0.01283588                0.07259512               -0.00551898                0.17007318               -0.72591715
               4.59994775                7.47629752               29.90110298                0.07170245               -0.52894517                0.11201358               -0.21078317                0.15052320                5.97319559               -2.48524121
               5.58930049                7.31982108               29.87448437                0.00010000               -1.44257779                0.45513467               -0.14204496                0.00311069               14.64985305                0.90757590
               6.57109620                7.16710673               29.90810937                0.00010000               -1.87641152                0.60914909               -0.21506145               -0.02639867               17.65218516                0.61296765
               7.55177226                7.01336038               29.94010010                0.00010000               -1.93764319                0.65508892               -0.25745874               -0.37532379               17.58874495                0.84902239
               8.53234333                6.85888976               29.97058535                0.00010000               -1.88986511                0.54065816               -0.29929848               -0.73550883               17.61994973                1.38667172
               9.51397496                6.70485779               30.00104806                0.00010000               -1.73777891                0.28411198               -0.34725496               -0.96471589               17.79066798                2.09390940
              10.49758775                6.55321456               30.03267940                0.25254465               -0.73239174               -0.03462546               -0.39535190               -0.58092412                9.02986018                2.90652491
              11.49932712                6.41416127               29.88576808                0.59134006                0.22428675                0.15929099               -0.74444934                0.01696412                0.07317032                1.15564190
              12.50207349                6.27494663               29.73800678                1.00000000                0.27463648                0.40300272               -1.10214885               -0.00678902                0.03873954               -0.50719984
               2.75833222                8.79302162               30.14309860                1.00000000               -0.02072854               -0.07959902                0.21920689               -0.02294396                0.00785045                0.85704119
               3.75812493                8.63549883               29.99244908                0.53969220                0.01729267                0.02892409               -0.07272228               -0.00088377                0.05021391               -0.72336000
               4.75867807                8.47759075               29.84256821                0.04988916               -0.71134816                0.14253251               -0.36683805                0.28351303                8.35942058               -2.35967011
               5.74389797                8.32480628               29.85808302                0.00010000               -1.74130519                0.59487864               -0.18380808                0.30217743               17.98490331                0.56455555
               6.72385197                8.17409131               29.90009370                0.00010000               -2.10555279                0.82341476               -0.25318061                0.07809532               19.46541835                0.56797827
               7.70178691                8.02109241               29.94351420                0.00010000               -2.26362357                0.89399919               -0.26448838               -0.39579158               19.70887984                0.73525392
               8.67857950                7.86537534               29.98841416                0.00010000               -2.27929312                0.82767289               -0.25713590               -0.93028510               19.96907484                1.15535066
               9.65620105                7.70841602               30.03493251                0.02064676               -2.13530167                0.47916292               -0.27445782               -1.46150990               20.28248200                1.89659871
              10.63587346                7.55310038               30.08388508                0.28712764               -0.93987356                0.01352091               -0.31667017               -0.90946992               10.26865895                2.50914248
              11.63740358                7.41578023               29.92818246                0.58876386                0.20746991                0.16888431               -0.69667798               -0.00840685                0.03059370                0.98426309
              12.64002286                7.27882853               29.77208365                0.99553325                0.26192811                0.37142212               -1.06804323                0.00096579                0.02186289               -0.66628534
               2.91508969                9.79247183               30.10273388                1.00000000                0.02028971               -0.03247697                0.08095733               -0.02261338               -0.01340669                0.74934817
               3.91529259                9.63599318               29.94406478                0.56419758                0.06104357                0.06991341               -0.21649255                0.00086516                0.07931063               -0.61284325
               4.91631056                9.47914817               29.78716523                0.01142675               -0.82245555                0.17067057               -0.51463665                0.49701230               10.52175419               -1.60675689
               5.89884348                9.33171865               29.83730287                0.00010000               -1.99692967                0.90457472               -0.34432103                0.48258037               21.09573594                0.21737529
               6.87637197                9.18357503               29.89023008                0.00010000               -2.31355385                1.00904545               -0.32211063                0.15605106               21.43180933                0.30609189
               7.85257240                9.03124037               29.94490673                0.00010000               -2.49789732                1.08017579               -0.28788907               -0.24161209               21.79623853                0.41731895
               8.82641402                8.87544322               30.00309977                0.00010000               -2.77763362                1.10616136               -0.22185534               -0.76612266               22.36562849                0.66832468
               9.79701973                8.71444105               30.06738924                0.05688664               -2.71899406                0.99642011               -0.10237366               -1.47065169               22.66402290                1.32060510
              10.77203414                8.55348498               30.13010760                0.32576896               -1.17944467                0.07260645               -0.27991850               -1.27241313               11.48356104                1.59636423
              11.77343084                8.41753896               29.96882733                0.60179313                0.19810371                0.18344157               -0.67029674               -0.02983062                0.13890973                0.73312891
              12.77599622                8.28237507               29.80429920                0.97871867                0.25653810                0.34157280               -1.05083614                0.00302402               -0.00854631               -0.67645090
               3.07083725               10.79237208               30.05997185                1.00000000                0.06286478               -0.00997460               -0.05486823                0.02725741                0.41072428                0.63513037
               4.07146590               10.63689710               29.89771589                0.81963951                0.10277983                0.09039210               -0.35665492                0.04893479                0.82447387               -0.50799260
               5.07289284               10.48100416               29.74364080                0.50337032               -1.11715894                0.18559967               -0.65025767                0.95826192               12.47673133               -1.01158106
               6.04912272               10.34289778               29.81435447                0.36764854               -2.27207866                1.11791242               -0.49863183                0.69132690               23.53709083                0.05993760
               7.02745127               10.19427222               29.87765401                0.35757381               -2.20181191                1.06971976               -0.40498820                0.09783788               23.38266721                0.13730331
               8.00508648               10.04269593               29.94261866                0.37262137               -2.36974570                1.14555616               -0.33584982               -0.08727486               23.77974887                0.20804487
               8.98005636                9.88749857               30.01183022                0.41145484               -2.81701097                1.20553527               -0.22961978               -0.35334191               24.53728810                0.35688329
               9.94874626                9.72834442               30.09043735                0.54397261               -3.63645311                1.39033701                0.00646367               -1.47465020               24.71946162                0.83319526
              10.90732730                9.55455251               30.16280116                0.68521432               -2.04146926                0.10675299               -0.28728897               -1.91545254               12.99320144                0.94004240
              11.90791687                9.41944907               30.00595141                0.81917894                0.15419114                0.19101087               -0.66298429                0.00397786                0.99221272                0.57612467
              12.91041112                9.28565998               29.83786874                0.98528119                0.24942437                0.32849165               -1.04164072                0.06258207                0.44969073               -0.59210150
               1.55154831                0.86303656               31.45279788                1.00000000               -0.34148966               -0.36750734                1.27837202               -0.06092645               -0.91461526                0.93781639
               2.54813342                0.68896171               31.35388826                1.00000000               -0.29404323               -0.28988023                1.02900816               -0.04322584               -1.18500300                0.10351142
               3.54566745                0.51458004               31.24955298                1.00000000               -0.18933073               -0.21172290                0.76800907               -0.03826758               -1.14895568               -0.21419068
               4.54434680                0.34050603               31.15140457                0.62476770                0.11824865               -0.15775303                0.51279857                0.23745224               -0.29906181               -0.81769592
               5.54803242                0.17267163               31.06423377                0.71823307                0.25243879               -0.07171290                0.24013557               -0.07021393                0.05146277                0.26613036
               6.54939558                0.00976534               30.97426464                0.80127433                0.12447226                0.01758894               -0.03166377               -0.02829316               -0.27499242                0.15334208
               7.55052187               -0.15179634               30.88076870                0.77749064                0.14108396                0.09314237               -0.30331102               -0.01047988               -0.50583905               -0.07764232
               8.55221726               -0.31266995               30.78614866                0.85802344                0.19190545                0.17895308               -0.58643844               -0.01787154               -0.77240217                0.10560577
               9.55435997               -0.47359322               30.68708375                1.00000000                0.25429003                0.26056093               -0.86541697               -0.01772472               -1.07035243                0.56333139
              10.55730306               -0.63491161               30.58623144                1.00000000                0.33532782                0.33974390               -1.13469617               -0.03159141               -1.04159745               -0.00029791
              11.56106653               -0.79635438               30.48767568                1.00000000                0.37634749                0.42807527               -1.39652547               -0.03805167               -0.92790070               -0.92060476
               1.72501390                1.85936149               31.41178603                1.00000000               -0.30844807               -0.35156057                1.14972045               -0.02055068               -0.13441858                1.27830519
               2.72192942                1.68606291               31.31259864                1.00000000               -0.27506450               -0.26920530                0.90114579               -0.00094164               -0.14605367                0.14404230
               3.71951261                1.51246281               31.21313416                0.89592437               -0.21269477               -0.18732743                0.64503505                0.00667589                0.01292137               -0.54420439
               4.71767553                1.33892850               31.11709388                0.22098914               -0.34059922               -0.13470363                0.39572946                0.34146140                1.63452450               -1.20399704
               5.71270063                1.17195450               31.05002643                0.38882877               -0.31644474                0.02299492                0.16193096               -0.06926626                2.45092414                1.05961616
               6.71134663                1.00994123               30.96883563                0.49432233               -0.05329580                0.06594449               -0.09924258                0.06259641                1.53265292                0.46959780
               7.71163471                0.84913508               30.88297720                0.39829434                0.07951744                0.10449370               -0.35954352                0.10861607                1.44653253               -0.32338359
               8.71293698                0.68911958               30.80004949                0.51323317                0.18344220                0.19962120               -0.62522201                0.07530362                1.48193828                0.55636225
               9.71530356                0.52901239               30.71511199                1.00000000                0.27153715                0.26019925               -0.86893619                0.03208397                0.76031280                0.80943110
              10.71836772                0.36848583               30.61796821                1.00000000                0.34126148                0.33556995               -1.12918177                0.00990507                0.08627130                0.11981359
              11.72212879                0.20792637               30.51955074                1.00000000                0.37610627                0.43659205               -1.38902567                0.00420886                0.02366341               -1.07686777
               1.89773446                2.85600535               31.37756671                1.00000000               -0.27211984               -0.32510863                1.03085820               -0.01316644                0.04727782                1.61989356
               2.89501327                2.68357760               31.27211307                1.00000000               -0.23995455               -0.23239090                0.77902500                0.01196020                0.22192252                0.12354973
               3.89293537                2.51083349               31.17010543                0.58124577               -0.16644664               -0.14536985                0.52051936                0.02348307                0.73583360               -1.32182286
               4.89168433                2.33781196               31.07494163                0.00010000               -0.86505027               -0.10365347                0.24203452                0.48554046                4.66990412               -2.02452312
               5.87563437                2.17313153               31.05177743                0.00010000               -0.91087050                0.03279198                0.05636916                0.80417925                5.57573177               -1.19306255
               6.87346692                2.01108423               30.96978943                0.00010000               -0.10592666               -0.07455993               -0.17800900                0.62240874                2.28131453               -0.17464271
               7.87351583                1.85029353               30.88032926                0.00010000                0.01895487               -0.07973889               -0.39641155                0.47486737                3.50998236                0.67098442
               8.87384602                1.69132247               30.82302239                0.00010000                0.10597834               -0.03075487               -0.69548756                0.29688155                4.20082007                1.24604166
               9.87563540                1.53161077               30.74813512                0.50388235                0.23705770                0.24447348               -0.86992408               -0.01257259                2.24423825                1.66926559
              10.87858717                1.37179979               30.65211934                1.00000000                0.33171103                0.31364255               -1.11277429               -0.01478541                0.79844775                0.78841332
              11.88226962                1.21237746               30.54824515                1.00000000                0.36824475                0.45322575               -1.38511430               -0.00332131                0.40928573               -1.03998123
               2.06960607                3.85285932               31.34340123                1.00000000               -0.22655802               -0.30355502                0.90949984               -0.01164885                0.09893152                1.53033638
               3.06734049                3.68141509               31.23041101                1.00000000               -0.19290751               -0.19863662                0.65261087                0.01163248                0.13762304               -0.02516978
               4.06574792                3.50955541               31.11814258                0.34641737               -0.11260989               -0.10190881                0.40413677               -0.00941653                1.08308818               -1.67926079
               5.06508829                3.33685543               31.02405952                0.00010000               -0.51179888               -0.05699558                0.15452445                0.41370324                5.12960742               -2.72661197
               6.05551194                3.17261034               30.99287629                0.00010000               -0.92277455               -0.03430803               -0.03266326                1.05954708                7.84296729               -3.04723068
               7.04663280                3.00845003               30.95161278                0.00010000               -0.73090643               -0.10714163               -0.21520582                0.80145086                7.01968723               -0.78777163
               8.04089381                2.84754031               30.90223139                0.00010000               -0.45377118               -0.16175413               -0.41714903                0.58292152                6.55042817                1.46712267
               9.03755738                2.68850448               30.85055760                0.00010000               -0.31595147               -0.16849210               -0.61712504                0.49014431                6.19896685                1.89381509
              10.03457478                2.53390186               30.79330660                0.22578420               -0.01260294                0.08212631               -0.81578449                0.08923498                4.01916993                3.12742868
              11.03730532                2.37475868               30.69715306                0.94998811                0.31661159                0.27763018               -1.06792811               -0.06866720                1.06590745                1.26119520
              12.04090702                2.21699089               30.58059793                1.00000000                0.36016973                0.45611961               -1.35233126               -0.01169091                0.05501328               -0.66433680
               2.24038994                4.84993425               31.30742480                1.00000000               -0.18401210               -0.27475884                0.77770354               -0.01987305                0.15013819                1.32142284
               3.23854982                4.67960487               31.18693002                0.84355961               -0.15416212               -0.15587983                0.51898307               -0.00165763                0.22708224               -0.26224651
               4.23730670                4.50879531               31.06791259                0.20163680               -0.08231789               -0.04419891                0.27257075               -0.05294922                1.24619685               -1.70924772
               5.23690347                4.33667205               30.96778852                0.00010000               -0.60379953                0.06138217                0.03395325                0.23501678                6.71074121               -2.75527456
               6.22523071                4.17244537               30.95802683                0.00010000               -1.11687447                0.07923802               -0.10371280                0.42869690               10.87344760               -1.37801786
               7.21456598                4.00894139               30.94007349                0.00010000               -1.00554501                0.11246935               -0.24780490                0.31272194               10.18151957               -0.15647073
               8.20511981                3.84705845               30.91515236                0.00010000               -0.86393122                0.04153422               -0.40664690                0.19925165                9.70088833                1.14123350
               9.19728735                3.68795263               30.88597271                0.00010000               -0.69769557               -0.00830054               -0.57340923                0.17861371                9.51329632                2.37548850
              10.19116590                3.53325329               30.85563855                0.19386373               -0.15812749               -0.11437331               -0.75258572                0.04694225                5.31193045                3.82971356
              11.19412480                3.37735239               30.74067675                0.73327335                0.32027451                0.22397267               -0.98625491               -0.02111017                0.63646624                1.34177381
              12.19757139                3.22149985               30.61643668                1.00000000                0.34465880                0.45547703               -1.30024561               -0.03869687                0.18067393               -0.41618804
               2.40986737                5.84736414               31.26911121                1.00000000               -0.14210921               -0.23272390                0.63677764               -0.02567144                0.13042937                1.10005489
               3.40844628                5.67829749               31.14044563                0.67993205               -0.11228044               -0.10360660                0.36437268               -0.01183678                0.30875132               -0.53409564
               4.40762176                5.50867143               31.01527867                0.13325543               -0.11538544                0.02066293                0.10959443               -0.04563294                1.79948163               -2.03574377
               5.40613857                5.33808307               30.91642881                0.00010000               -0.79026150                0.22573925               -0.10062030               -0.00985448                8.85750893               -1.39212340
               6.39181653                5.17419510               30.93240440                0.00010000               -1.39322059                0.26028969               -0.15740907                0.12381524               13.97796594               -0.46488634
               7.37827416                5.01069941               30.93480710                0.00010000               -1.29744602                0.25371093               -0.26540272               -0.06341294               13.05170836                0.39228262
               8.36586761                4.84837099               30.93070428                0.00010000               -1.16696739                0.19092867               -0.38938459               -0.18009351               12.66354428                1.36630148
               9.35493481                4.68833847               30.92343111                0.00010000               -0.98768734                0.06558704               -0.52062810               -0.19926172               12.57639888                2.44842285
              10.34611386                4.53161439               30.91544607                0.19785984               -0.31491281               -0.14789000               -0.66362290               -0.10364835                6.64632773                3.56198641
              11.34863655                4.37923814               30.78729238                0.64478657                0.28621471                0.17255886               -0.89568626                0.03414240                0.36726461                1.46114187
              12.35183816                4.22610043               30.65338146                1.00000000                0.32016047                0.45333310               -1.22278670               -0.02634830                0.08407818               -0.32547795
               2.57800981                6.84527977               31.22872947                1.00000000               -0.10040152               -0.18156287                0.49043055               -0.02511089                0.06167959                0.93626432
               3.57700580                6.67753274               31.09145678                0.58065474               -0.07006748               -0.05294283                0.21225239               -0.01223644                0.27526565               -0.69679519
               4.57660846                6.50920857               30.95838586                0.09450622               -0.29115457                0.07868895               -0.05295859                0.01869171                3.59156552               -2.36496074
               5.57118271                6.34118683               30.88744685                0.00010000               -1.07588939                0.34075394               -0.12839991               -0.19763076               11.66675625                0.45028317
               6.55509068                6.17765116               30.91589019                0.00010000               -1.60304380                0.41597173               -0.18603944               -0.13279669               16.21651156                0.30065757
               7.53912183                6.01401561               30.93456106                0.00010000               -1.56058946                0.41611364               -0.27331401               -0.35166575               15.59171211                0.77222221
               8.52387889                5.85087702               30.94861902                0.00010000               -1.45315581                0.32235372               -0.36474964               -0.54411803               15.38246701                1.49632205
               9.51005871                5.68926437               30.96086642                0.00010000               -1.28428090                0.13614320               -0.45730889               -0.64722638               15.41896922                2.36816135
              10.49819327                5.53029549               30.97321831                0.21749264               -0.48685492               -0.10127028               -0.54861098               -0.36309190                7.93729247                3.30957196
              11.50032162                5.38080357               30.83340031                0.59658007                0.25632843                0.15612459               -0.82723051                0.04047327                0.19871072                1.36296369
              12.50331984                5.23056652               30.69072637                1.00000000                0.29982212                0.43887707               -1.17013818               -0.01539770                0.06283789               -0.35371005
               2.74485922                7.84373288               31.18714654                1.00000000               -0.05864682               -0.12797883                0.34533469               -0.02400877                0.02356460                0.85969224
               3.74427275                7.67723864               31.04162105                0.53423995               -0.02588585               -0.00841657                0.06368594               -0.00713371                0.17163540               -0.73973940
               4.74434151                7.51024521               30.89898197                0.06909009               -0.52646963                0.11954963               -0.21365852                0.09829129                6.16682274               -2.51581381
               5.73374336                7.34489815               30.87335888                0.00010000               -1.40048448                0.41983705               -0.08807838               -0.11997085               14.93741822                1.00692820
               6.71633182                7.18251454               30.90599813                0.00010000               -1.78641900                0.57467330               -0.21142324               -0.17929242               17.87715002                0.66930134
               7.69801498                7.01902169               30.93743896                0.00010000               -1.82976612                0.61728418               -0.27886055               -0.52242987               17.85232076                0.91246658
               8.67973649                6.85481806               30.96743071                0.00010000               -1.77215835                0.49998476               -0.33576060               -0.87759224               17.90024669                1.47262701
               9.66257181                6.69106133               30.99737506                0.00010000               -1.62118338                0.25264053               -0.39088251               -1.10970597               18.08619778                2.19335826
              10.64731283                6.52958899               31.02852521                0.24697792               -0.66984092               -0.03976435               -0.43745483               -0.65543636                9.19025834                3.00908588
              11.64917500                6.38236063               30.87818155                0.57350007                0.23457448                0.16280906               -0.77540723                0.02112962                0.07863697                1.20278271
              12.65200432                6.23487797               30.72686284                0.99392805                0.28293192                0.41792158               -1.13171367               -0.00483442                0.03874563               -0.48539006
               2.91051813                8.84272020               31.14520889                1.00000000               -0.01673364               -0.07578742                0.20251977               -0.02314662                0.00737047                0.85407952
               3.91035080                8.67736441               30.99167446                0.53506424                0.01983202                0.03275909               -0.08246188               -0.00196318                0.04860720               -0.73488226
               4.91091477                8.51159956               30.83888363                0.04684508               -0.69184166                0.14659320               -0.37145799                0.21362428                8.59860087               -2.38411943
               5.89651396                8.34958357               30.85632497                0.00010000               -1.67667408                0.57031922               -0.17659793                0.18196304               18.34381418                0.55555282
               6.87738129                8.18914463               30.89753624                0.00010000               -2.00721288                0.78868748               -0.26330466               -0.05098452               19.72946886                0.59732003
               7.85636971                8.02636130               30.94075144                0.00010000               -2.15469484                0.85753808               -0.29285639               -0.52337809               20.02675435                0.78426315
               8.83428739                7.86087672               30.98567417                0.00010000               -2.16380174                0.78953147               -0.29583331               -1.05871275               20.30127737                1.23881794
               9.81309367                7.69431718               31.03197703                0.02122287               -2.02510733                0.44561927               -0.32048178               -1.59790682               20.60799043                2.05026667
              10.79378525                7.52950021               31.08049060                0.28332237               -0.88192223                0.02134031               -0.36202079               -0.97566918               10.42617752                2.57382972
              11.79545523                7.38405975               30.92101141                0.57106003                0.22016068                0.18001588               -0.73896963               -0.00609142                0.02481569                1.01610767
              12.79818846                7.23892495               30.76122483                0.97994899                0.27332356                0.38797248               -1.10758726                0.00368549                0.02130675               -0.65644119
               3.07510787                9.84221714               31.10345224                1.00000000                0.02462569               -0.02721017                0.06228857               -0.02268294               -0.01451428                0.74927843
               4.07535413                9.67789382               30.94184922                0.56123453                0.06434795                0.07317758               -0.22677050               -0.00010464                0.07677185               -0.62150942
               5.07639483                9.51317707               30.78198342                0.01021229               -0.77582849                0.17187264               -0.52076351                0.41786971               10.74914946               -1.62029767
               6.05983756                9.35630454               30.83378522                0.00010000               -1.89302136                0.86935320               -0.36449663                0.38531898               21.49700906                0.16318157
               7.03853440                9.19828829               30.88690802                0.00010000               -2.20111134                0.97490625               -0.34756533                0.06792424               21.77975487                0.31363898
               8.01581533                9.03617245               30.94186874                0.00010000               -2.39640234                1.05041970               -0.32524145               -0.32245744               22.18046493                0.44387494
               8.99060635                8.87060869               31.00070442                0.00010000               -2.69125683                1.08264313               -0.26378109               -0.85536230               22.81199341                0.72301939
               9.96199019                8.69997372               31.06626548                0.06104141               -2.62747417                0.96923382               -0.13006113               -1.56709572               22.99288322                1.49035416
              10.93805687                8.53001579               31.12701750                0.32481345               -1.11808832                0.08914048               -0.33668573               -1.31704978               11.56968297                1.61562456
              11.93962843                8.38596094               30.96185301                0.58303067                0.21453823                0.20030202               -0.72529145               -0.02859605                0.13453869                0.74547011
              12.94234763                8.24263742               30.79355551                0.96451650                0.27192091                0.35872778               -1.10095937                0.00591071               -0.00628300               -0.67665822
               3.23871111               10.84217599               31.05932342                1.00000000                0.06776553               -0.00411413               -0.07534197                0.02552058                0.41036715                0.63660207
               4.23938876               10.67882796               30.89409701                0.81878965                0.10751699                0.09341417               -0.36727831                0.04651491                0.82697614               -0.51466833
               5.24086145               10.51503702               30.73710393                0.50213543               -1.01398166                0.18599403               -0.65537172                0.85379590               12.70039868               -1.01834454
               6.21910913               10.36697064               30.80926888                0.36791169               -2.09947924                1.06660989               -0.52172934                0.60744447               23.97228900                0.01049375
               7.19887186               10.20864275               30.87344869                0.35773973               -2.07544908                1.03544675               -0.44136453                0.05369907               23.79772922                0.13694834
               8.17760015               10.04736969               30.93905598                0.37240592               -2.27464928                1.11972411               -0.38291898               -0.12717654               24.21905724                0.22148693
               9.15337888                9.88252958               31.00932357                0.41065091               -2.76277469                1.19208884               -0.27962672               -0.40613920               25.08175435                0.39017870
              10.12234466                9.71370186               31.09045220                0.54728291               -3.59609255                1.37281377               -0.01550013               -1.52688203               25.05596348                0.96898223
              11.08145703                9.53128302               31.15955392                0.68587192               -2.00414879                0.12672207               -0.36122693               -1.94178753               13.03078649                0.93571155
              12.08226168                9.38806579               30.99896986                0.80928632                0.17483489                0.21048483               -0.73426585                0.00414977                1.00625708                0.57894362
              13.08495372                9.24609950               30.82715010                0.98129662                0.26920455                0.34620832               -1.10527080                0.06398003                0.46475033               -0.59473671
               1.64248714                0.91413736               32.46555548                1.00000000               -0.34131361               -0.36692340                1.27425258               -0.05936907               -0.92950498                0.95166732
               2.63907400                0.73194502               32.36416609                1.00000000               -0.29560023               -0.28937565                1.02746724               -0.03924563               -1.20846660                0.10701236
               3.63657513                0.54944731               32.25721265                1.00000000               -0.19524009               -0.21177650                0.76664704               -0.03538746               -1.17958593               -0.21594444
               4.63516920                0.36713344               32.15649383                0.62440957                0.08626765               -0.15433579                0.51246378                0.18929686               -0.33356097               -0.82629637
               5.63830048                0.18994444               32.06662953                0.71892040                0.22059124               -0.07552619                0.23919509               -0.07395027                0.01994154                0.27077011
               6.63958102                0.01707608               31.97397398                0.80314564                0.12117939                0.01420234               -0.02540551               -0.03427493               -0.30154600                0.15701369
               7.64072407               -0.15449832               31.87778819                0.78146640                0.14716103                0.08958910               -0.29096607               -0.01536469               -0.53840229               -0.07539539
               8.64252424               -0.32532927               31.78034044                0.85833665                0.20378705                0.17514920               -0.57143865               -0.02509652               -0.81267750                0.10494128
               9.64479981               -0.49592482               31.67848452                1.00000000                0.26234086                0.25615635               -0.84972093               -0.02423497               -1.10586806                0.57323117
              10.64777106               -0.66670375               31.57492973                1.00000000                0.33594404                0.33916609               -1.12248678               -0.03038933               -1.07031781               -0.00426763
              11.65151869               -0.83760781               31.47374120                1.00000000                0.37476336                0.43153456               -1.38835900               -0.03417039               -0.95420350               -0.94688762
               1.82408579                1.91046813               32.42325421                1.00000000               -0.30592240               -0.35200410                1.14418257               -0.01907321               -0.13812374                1.29629476
               2.82102657                1.72905126               32.32159177                1.00000000               -0.27293738               -0.26908497                0.89790738                0.00238244               -0.15189430                0.15155687
               3.81862704                1.54732955               32.21961458                0.88845951               -0.21064821               -0.18797288                0.64850536                0.00816615                0.00968120               -0.55154099
               4.81681360                1.36559008               32.12114548                0.22916536               -0.30186909               -0.13279417                0.40222787                0.27978428                1.63947526               -1.24557757
               5.81258966                1.18918918               32.05163710                0.39532689               -0.26769745                0.01099966                0.15298896               -0.07170005                2.45013586                1.04548623
               6.81145966                1.01721810               31.96785120                0.50130022               -0.04082816                0.06034106               -0.10069551                0.04622100                1.52631245                0.46552670
               7.81177310                0.84639757               31.87940255                0.40757628                0.07634350                0.10756935               -0.35594142                0.09014091                1.43912844               -0.31235632
               8.81298653                0.67642222               31.79378480                0.51574761                0.17358011                0.20123501               -0.62529614                0.05245573                1.48598739                0.53759983
               9.81524470                0.50663675               31.70639770                1.00000000                0.26610689                0.25931717               -0.87372932                0.01938872                0.76870130                0.81879205
              10.81830866                0.33668792               31.60664598                1.00000000                0.34181755                0.33812608               -1.13612467                0.01092787                0.08666415                0.12054282
              11.82208105                0.16670754               31.50561525                1.00000000                0.37723899                0.44655010               -1.40040680                0.00843734                0.02441160               -1.10482791
               2.00493941                2.90709728               32.38784148                1.00000000               -0.26791816               -0.32707547                1.02372593               -0.01251464                0.05097949                1.64011826
               3.00226023                2.72656332               32.27988917                1.00000000               -0.23698895               -0.23225920                0.77449824                0.01175192                0.22441855                0.13129278
               4.00019963                2.54568786               32.17530554                0.58875077               -0.16774868               -0.14371736                0.52558811                0.01816988                0.73240303               -1.32825579
               4.99890526                2.36447756               32.07742586                0.00010000               -0.74805836               -0.10268066                0.25900717                0.40313804                4.70500006               -2.07228017
               5.98523846                2.19016443               32.05219825                0.00010000               -0.78041012                0.01368752                0.02209470                0.63814420                5.61892432               -1.20630995
               6.98329705                2.01828290               31.96796783                0.00010000               -0.09578469               -0.07068398               -0.18995902                0.47764576                2.32173085               -0.16443443
               7.98332277                1.84765306               31.87635747                0.00010000                0.00185632               -0.06585877               -0.40277728                0.34819687                3.51454547                0.69654308
               8.98333418                1.67869543               31.81598680                0.00010000                0.07995624               -0.01424619               -0.70996811                0.20337345                4.23786932                1.28508971
               9.98492190                1.50926153               31.73934304                0.49899609                0.22923240                0.24075151               -0.89260149               -0.04678894                2.31488783                1.71190861
              10.98791883                1.34005878               31.64088783                1.00000000                0.33631507                0.31914744               -1.13756250               -0.02054752                0.82250201                0.81227373
              11.99164820                1.17132319               31.53427253                1.00000000                0.37293693                0.47184571               -1.41569915               -0.00212217                0.42104169               -1.04918732
               2.18490343                3.90392662               32.35245739                1.00000000               -0.22323965               -0.30576145                0.90083722               -0.01246152                0.10492703                1.54251780
               3.18267103                3.72440608               32.23691342                1.00000000               -0.19136130               -0.19711981                0.64760124                0.00961108                0.14913923               -0.02470259
               4.18107620                3.54445520               32.12217346                0.35128294               -0.11356214               -0.09678364                0.40257673               -0.01922773                1.10033181               -1.68300004
               5.18039979                3.36353647               32.02565141                0.00010000               -0.47644987               -0.05916840                0.15731243                0.32554531                5.18750282               -2.75624920
               6.17154720                3.18946293               31.99249294                0.00010000               -0.84379245               -0.03939968               -0.04302614                0.81242787                7.92362598               -3.02601960
               7.16352394                3.01580442               31.94937344                0.00010000               -0.66113490               -0.10556648               -0.23581613                0.57768317                7.09688233               -0.74555920
               8.15832451                2.84508039               31.89795094                0.00010000               -0.40392040               -0.15630379               -0.44250610                0.38226638                6.62464100                1.51757455
               9.15544553                2.67613730               31.84426626                0.00010000               -0.26894641               -0.16274720               -0.64707249                0.33661077                6.28324831                1.98943808
              10.15294558                2.51145178               31.78506981                0.22091309                0.01952569                0.06191609               -0.83107412                0.02759659                4.08329868                3.19253763
              11.15583605                2.34307086               31.68632805                0.92759589                0.32820979                0.27956715               -1.09716332               -0.07578355                1.09713842                1.32254469
              12.15950977                2.17614445               31.56691149                1.00000000                0.36737286                0.47474621               -1.38480767               -0.01506912                0.07324654               -0.63883367
               2.36373127                4.90098205               32.31515426                1.00000000               -0.18073992               -0.27635202                0.76759918               -0.02101930                0.15991832                1.32263805
               3.36192387                4.72262092               32.19208791                0.83582062               -0.15232922               -0.15251920                0.51230735               -0.00412340                0.24338808               -0.27483892
               4.36068468                4.54375218               32.07062286                0.20198785               -0.07577164               -0.03732476                0.26921446               -0.07061965                1.27508401               -1.73191426
               5.36040844                4.36329419               31.96818950                0.00010000               -0.57328071                0.06495095                0.03615350                0.13670725                6.79511017               -2.78979810
               6.34921907                4.18937644               31.95695736                0.00010000               -1.05875915                0.08128294               -0.11111187                0.25705600               10.99914859               -1.34016430
               7.33923325                4.01617157               31.93750158                0.00010000               -0.92919234                0.09830269               -0.26957207                0.13626948               10.30469351               -0.09939760
               8.33063522                3.84452699               31.91094096                0.00010000               -0.77691209                0.02566736               -0.44016602                0.03269114                9.82328774                1.21658086
               9.32369501                3.67544049               31.88007972                0.00010000               -0.60474800               -0.02941381               -0.61288879                0.02202783                9.64095694                2.46063563
              10.31854026                3.51049985               31.84797744                0.18757391               -0.09922643               -0.14943593               -0.78262072               -0.02228429                5.42378305                3.89946210
              11.32171048                3.34565012               31.73068114                0.70727020                0.33296885                0.21731565               -1.00376086               -0.02621934                0.68532258                1.42710421
              12.32519964                3.18081812               31.60331659                1.00000000                0.34891574                0.47148681               -1.31594064               -0.04619454                0.18483448               -0.36424434
               2.54120530                5.89839958               32.27542192                1.00000000               -0.13868729               -0.23350123                0.62497133               -0.02661182                0.13131520                1.09357671
               3.53981843                5.72135569               32.14405231                0.67282738               -0.11073822               -0.09883489                0.35682088               -0.01483983                0.31855207               -0.55441616
               4.53899054                5.54370871               32.01635906                0.13209569               -0.11543770                0.02978901                0.10634257               -0.06448299                1.84365962               -2.07088231
               5.53750968                5.36483549               31.91550274                0.00010000               -0.75897985                0.22424957               -0.08919426               -0.12763929                8.99658243               -1.35463886
               6.52381094                5.19108859               31.93083383                0.00010000               -1.32054487                0.24756614               -0.15949776               -0.05744095               14.16481557               -0.40541162
               7.51109878                5.01777048               31.93205556                0.00010000               -1.20507651                0.23158223               -0.28868143               -0.22731347               13.21603386                0.46142572
               8.49970941                4.84559374               31.92664500                0.00010000               -1.05927762                0.16176032               -0.42791740               -0.33628066               12.83209904                1.44965514
               9.48991323                4.67554902               31.91802452                0.00010000               -0.87095763                0.03562869               -0.56804358               -0.36127182               12.75338883                2.54476886
              10.48229026                4.50846306               31.90860479                0.19061728               -0.24599195               -0.17973350               -0.71351142               -0.18323589                6.79475087                3.66985611
              11.48499339                4.34741718               31.77828434                0.62143071                0.29798124                0.16572006               -0.91086400                0.03315833                0.42449690                1.53580286
              12.48824989                4.18557419               31.64109760                1.00000000                0.32564962                0.46973909               -1.24302823               -0.02758224                0.08955719               -0.27681734
               2.71728681                6.89631203               32.23356740                1.00000000               -0.09688615               -0.18106685                0.47689982               -0.02578252                0.06083460                0.92764964
               3.71631794                6.72064422               32.09353819                0.57420929               -0.06857895               -0.04767351                0.20384313               -0.01529084                0.28097440               -0.71313925
               4.71591523                6.54434796               31.95784130                0.09222209               -0.29210874                0.08873853               -0.05611612               -0.01546016                3.71125680               -2.39703833
               5.71047577                6.36777918               31.88643037                0.00010000               -1.03899821                0.31230168               -0.07660070               -0.32485904               11.87443478                0.57827588
               6.69513526                6.19432776               31.91405448                0.00010000               -1.51469694                0.38790590               -0.18492889               -0.31138973               16.41050006                0.37025907
               7.68018183                6.02080322               31.93172295                0.00010000               -1.45020998                0.38244304               -0.29892339               -0.51391277               15.79095330                0.84467448
               8.66613106                5.84776219               31.94478728                0.00010000               -1.32907875                0.28467034               -0.40718043               -0.69736992               15.59838069                1.58404426
               9.65360026                5.67615306               31.95606927                0.00010000               -1.15618364                0.10326662               -0.50877822               -0.80829162               15.65391751                2.47422112
              10.64300739                5.50690518               31.96750352                0.21012177               -0.41688684               -0.11695362               -0.60181772               -0.44461829                8.10049658                3.44168927
              11.64526252                5.34896452               31.82502412                0.57638036                0.26632912                0.15943233               -0.85547285                0.04382861                0.23698822                1.42352065
              12.64833397                5.19021290               31.67891354                0.99532525                0.30714536                0.45830913               -1.20309442               -0.01336529                0.06405690               -0.31891436
               2.89202526                7.89477824               32.19052421                1.00000000               -0.05485846               -0.12572583                0.33001602               -0.02451888                0.02282154                0.85294932
               3.89147668                7.72040222               32.04221242                0.52854309               -0.02394421               -0.00356012                0.05429714               -0.00951874                0.17309015               -0.75254259
               4.89154638                7.54548348               31.89682981                0.06614803               -0.52219900                0.12794748               -0.21769754                0.03818287                6.38343190               -2.54455825
               5.88103270                7.37108152               31.87272280                0.00010000               -1.34936325                0.38559076               -0.04580309               -0.24954518               15.22259423                1.08158696
               6.86455911                7.19884671               31.90388091                0.00010000               -1.68233030                0.54000289               -0.21705784               -0.33912885               18.05989703                0.72178351
               7.84738609                7.02541934               31.93452289                0.00010000               -1.70734726                0.57723435               -0.30958507               -0.67786605               18.09038193                0.97815433
               8.83041217                6.85128715               31.96387013                0.00010000               -1.63908404                0.45579000               -0.38207558               -1.02782944               18.16478951                1.56534218
               9.81460441                6.67761436               31.99323041                0.00010000               -1.49128669                0.21889344               -0.44364824               -1.26094931               18.37697782                2.30252874
              10.80058644                6.50612399               32.02393031                0.24045693               -0.60210861               -0.04102487               -0.48584887               -0.73266431                9.35713625                3.12748660
              11.80256224                6.35060582               31.87025993                0.55518385                0.24496926                0.17331994               -0.81279588                0.02597663                0.08969809                1.25607496
              12.80548582                6.19474037               31.71537251                0.97600415                0.29235806                0.43970646               -1.17270099               -0.00213628                0.03931404               -0.45548584
               3.06554847                8.89379751               32.14714899                1.00000000               -0.01261344               -0.07176884                0.18534092               -0.02343940                0.00673093                0.84986171
               4.06542233                8.72057302               31.99079985                0.53105054                0.02255573                0.03691091               -0.09278661               -0.00352124                0.04532193               -0.74505434
               5.06599958                8.54690691               31.83513905                0.04406008               -0.66503481                0.15192176               -0.37815378                0.13645727                8.83478534               -2.40549663
               6.05212164                8.37549100               31.85455106                0.00010000               -1.59923564                0.54784217               -0.18678456                0.05236323               18.69130981                0.51435944
               7.03401487                8.20512782               31.89482761                0.00010000               -1.89687849                0.75443232               -0.28418585               -0.19093282               19.97057475                0.61878544
               8.01418407                8.03234790               31.93765707                0.00010000               -2.03177071                0.81969968               -0.33189561               -0.66253078               20.32315697                0.83361150
               8.99337946                7.85687799               31.98249749                0.00010000               -2.03198191                0.74835310               -0.34657884               -1.19859987               20.61913548                1.32885647
               9.97354443                7.68053093               32.02852287                0.02109058               -1.90084105                0.40793028               -0.37618520               -1.74167089               20.92921825                2.22131699
              10.95536264                7.50608468               32.07664466                0.27868854               -0.81893816                0.03050835               -0.40797324               -1.04230873               10.58548726                2.64815489
              11.95716567                7.35243092               31.91340306                0.55319041                0.23297588                0.19420427               -0.78432415               -0.00281463                0.01927581                1.05381957
              12.96002215                7.19900703               31.74993191                0.96451304                0.28564861                0.40881319               -1.15472823                0.00659800                0.02077813               -0.63694107
               3.23800546                9.89334287               32.10397965                1.00000000                0.02913954               -0.02178660                0.04305086               -0.02279626               -0.01565194                0.74771577
               4.23829685                9.72114044               31.93952937                0.55884901                0.06760464                0.07675608               -0.23758565               -0.00091903                0.07247508               -0.62838660
               5.23935755                9.54852191               31.77674996                0.00959450               -0.72188975                0.17446701               -0.52529519                0.33136448               10.96024695               -1.62777869
               6.22385906                9.38203837               31.83001294                0.00010000               -1.77369987                0.83246637               -0.39446302                0.27577653               21.87536540                0.10200954
               7.20388355                9.21393535               31.88327877                0.00010000               -2.07368769                0.94010107               -0.38406896               -0.03105715               22.10931681                0.31537199
               8.18238530                9.04181333               31.93840190                0.00010000               -2.28132036                1.02016420               -0.37481338               -0.41362314               22.54620362                0.47000245
               9.15825714                8.86625421               31.99782415                0.00010000               -2.59104975                1.05929226               -0.32178928               -0.95623043               23.25386961                0.78190552
              10.13056431                8.68577296               32.06478802                0.06479638               -2.52084365                0.94098491               -0.17966396               -1.67146509               23.31440376                1.68039013
              11.10784027                8.50673415               32.12337388                0.32348540               -1.04903544                0.10546151               -0.39068512               -1.36101571               11.64275025                1.63570791
              12.10958360                8.35448991               31.95432150                0.56439514                0.23126445                0.21816677               -0.78143088               -0.02686760                0.12847605                0.75991465
              13.11246556                8.20291663               31.78228001                0.95036532                0.28819613                0.37845261               -1.15671482                0.00884701               -0.00434244               -0.66999864
               3.40949739               10.89336178               32.05846501                1.00000000                0.07275125                0.00189135               -0.09641091                0.02383011                0.40952341                0.63643529
               4.41022491               10.72210814               31.89037033                0.81808747                0.11157765                0.09677019               -0.37874674                0.04452923                0.82745770               -0.51922263
               5.41172895               10.55039625               31.73053336                0.50117763               -0.90005885                0.18743410               -0.65955112                0.73874887               12.90457123               -1.01736010
               6.39222373               10.39214032               31.80391988                0.36814745               -1.90550922                1.01019575               -0.55125582                0.51314669               24.37783638               -0.03445907
               7.37361876               10.22392984               31.86882672                0.35789965               -1.93154905                0.99944899               -0.48844845                0.00406425               24.18734128                0.13338243
               8.35359275               10.05275119               31.93496028                0.37219987               -2.16617723                1.09378554               -0.44374897               -0.17255552               24.63805184                0.23497706
               9.33029522                9.87806384               32.00623769                0.40982518               -2.69787824                1.18096312               -0.34891411               -0.46622056               25.62487330                0.42678509
              10.29963518                9.69935063               32.09012735                0.55048642               -3.54349227                1.35776671               -0.07114216               -1.58640884               25.37955033                1.12228763
              11.25942537                9.50819391               32.15557662                0.68647955               -1.95946750                0.14597582               -0.43262995               -1.96930854               13.04476356                0.92806087
              12.26044583                9.35679425               31.99126609                0.79960447                0.19601351                0.23043452               -0.80656026                0.00533197                1.01845145                0.58111469
              13.26334564                9.20657608               31.81576333                0.97439630                0.28998092                0.36594470               -1.17448710                0.06619095                0.47981193               -0.59287331
               1.73573698                0.96667245               33.47828293                1.00000000               -0.34300773               -0.36710673                1.27282195               -0.05825235               -0.94393753                0.96412795
               2.73230691                0.77625060               33.37443760                1.00000000               -0.29944954               -0.28796380                1.02718490               -0.03833103               -1.23084444                0.11041677
               3.72974799                0.58545730               33.26488592                1.00000000               -0.20241007               -0.21181995                0.76904773               -0.03823713               -1.20524988               -0.21246063
               4.72825870                0.39467680               33.16165384                0.62547816                0.06015546               -0.15918780                0.51974103                0.14910915               -0.36747007               -0.83431281
               5.73095110                0.20807189               33.06901767                0.71764147                0.19736486               -0.07763824                0.23720221               -0.07162929               -0.01256158                0.27423290
               6.73220600                0.02515116               32.97375653                0.80245182                0.12181300                0.01067452               -0.01894807               -0.04010039               -0.31894580                0.16015540
               7.73338736               -0.15653298               32.87494938                0.78515948                0.15306830                0.08516522               -0.27672706               -0.02091896               -0.56018415               -0.07173472
               8.73526737               -0.33745986               32.77471989                0.86264430                0.21329784                0.16850630               -0.54841992               -0.03167745               -0.84199361                0.10492596
               9.73765332               -0.51795495               32.67008933                1.00000000                0.26863288                0.24846610               -0.82427178               -0.03217114               -1.13617282                0.57952149
              10.74064003               -0.69842945               32.56378170                1.00000000                0.33531040                0.33680358               -1.10321837               -0.02992065               -1.09749068               -0.00888907
              11.74435953               -0.87904023               32.45990850                1.00000000                0.37195010                0.43387154               -1.37485171               -0.02918282               -0.97915973               -0.97393177
               1.92557631                1.96300138               33.43466968                1.00000000               -0.30451381               -0.35339546                1.13991854               -0.01695710               -0.14292081                1.31293114
               2.92253117                1.77337096               33.33055678                1.00000000               -0.27118907               -0.26843981                0.89573515                0.00342006               -0.15889461                0.15783504
               3.92015252                1.58333910               33.22610427                0.90365645               -0.20443320               -0.18739071                0.64354399                0.00063556                0.00032246               -0.54599434
               4.91844250                1.39308492               33.12513844                0.23817226               -0.25774496               -0.14081835                0.38621069                0.22946592                1.63016706               -1.25780149
               5.91499762                1.20729551               33.05308621                0.40011654               -0.21675358                0.00388028                0.13380020               -0.06536135                2.45005099                1.02367526
               6.91410743                1.02525791               32.96682172                0.50590367               -0.02569717                0.05610686               -0.10967887                0.02797436                1.53081349                0.46201394
               7.91448368                0.84431867               32.87585837                0.41555050                0.07770733                0.11044951               -0.35601528                0.06838538                1.43658910               -0.30071649
               8.91566158                0.66422521               32.78754357                0.51809638                0.16663619                0.20013309               -0.62034956                0.02807525                1.48852666                0.52005392
               9.91781641                0.48452971               32.69763740                1.00000000                0.26109404                0.25658871               -0.87616142                0.00460927                0.77623009                0.82537935
              10.92088346                0.30493858               32.59524571                1.00000000                0.34310352                0.33963210               -1.14374259                0.01182400                0.08742506                0.11984059
              11.92467848                0.12529849               32.49154260                1.00000000                0.37950166                0.45688497               -1.41430710                0.01406737                0.02531882               -1.13629872
               2.11465867                2.95960454               33.39804123                1.00000000               -0.26210914               -0.33022424                1.01667658               -0.01146147                0.05110376                1.65973076
               3.11203758                2.77088180               33.28760304                1.00000000               -0.23059625               -0.23243287                0.76920322                0.00904946                0.22808370                0.14014597
               4.11004675                2.58170949               33.18061719                0.60325796               -0.15729812               -0.13805081                0.53089727               -0.00786631                0.72903252               -1.32498437
               5.10889162                2.39186043               33.08012177                0.00010000               -0.62879329               -0.10590562                0.26183384                0.32581843                4.68996331               -2.07509565
               6.09747088                2.20814949               33.05221932                0.00010000               -0.65746491                0.00176670               -0.01741700                0.48388386                5.64768896               -1.20199135
               7.09574232                2.02627330               32.96599025                0.00010000               -0.08415566               -0.06264065               -0.21208156                0.32657687                2.37904551               -0.14926055
               8.09578777                1.84567601               32.87227372                0.00010000               -0.00622441               -0.05051822               -0.42092761                0.21398187                3.52063055                0.72073930
               9.09561783                1.66654281               32.80882303                0.00010000                0.06221785               -0.00124410               -0.72003041                0.09713507                4.26511704                1.32122210
              10.09703213                1.48717683               32.73028309                0.48734119                0.22449486                0.22942526               -0.92408365               -0.09085276                2.38168101                1.76905463
              11.10010773                1.30836319               32.62936809                1.00000000                0.34444710                0.32388418               -1.17058319               -0.02782022                0.84751047                0.84072092
              12.10392107                1.13009747               32.51993117                1.00000000                0.38133382                0.49358330               -1.45759807               -0.00024253                0.43303766               -1.05605704
               2.30279254                3.95639689               33.36141798                1.00000000               -0.21853362               -0.30910290                0.89165811               -0.01434135                0.10979752                1.55513719
               3.30060721                3.76872231               33.24336304                1.00000000               -0.18879835               -0.19562979                0.64217136                0.00462993                0.15827616               -0.02108160
               4.29901657                3.58057809               33.12619412                0.35650957               -0.10441690               -0.08690310                0.40214704               -0.05477303                1.11189619               -1.68678243
               5.29851887                3.39096681               33.02720577                0.00010000               -0.43770722               -0.04178380                0.15368972                0.21661497                5.22024434               -2.75352127
               6.29026243                3.20733084               32.99201577                0.00010000               -0.77032074               -0.04241506               -0.05565715                0.57345062                7.98346616               -2.98113314
               7.28311245                3.02400510               32.94689646                0.00010000               -0.58843084               -0.10009890               -0.26237205                0.34556983                7.16004187               -0.69611955
               8.27849381                2.84330831               32.89338127                0.00010000               -0.35044934               -0.14900024               -0.47377127                0.17074418                6.68985597                1.56829977
               9.27610347                2.66420033               32.83761615                0.00010000               -0.21574235               -0.15678646               -0.68744074                0.16310424                6.36348775                2.08948086
              10.27417897                2.48911822               32.77668511                0.21392191                0.06514720                0.02653652               -0.84299077               -0.03880229                4.11607838                3.23927959
              11.27740641                2.31141627               32.67520980                0.89383405                0.35130494                0.27874971               -1.14235862               -0.07818462                1.12177270                1.40478679
              12.28120506                2.13517015               32.55290177                1.00000000                0.37986553                0.49656936               -1.43125992               -0.02080583                0.10324241               -0.58977571
               2.48972103                4.95342248               33.32277679                1.00000000               -0.17720370               -0.27871793                0.75704694               -0.02330889                0.16839624                1.32463514
               3.48794899                4.76696921               33.19717617                0.82833337               -0.15071182               -0.14817081                0.50540730               -0.00890362                0.25792650               -0.28572675
               4.48670679                4.57997143               33.07329688                0.20193940               -0.07389108               -0.02713725                0.26516827               -0.09582528                1.29846300               -1.75165008
               5.48647117                4.39102475               32.96851159                0.00010000               -0.54025918                0.08913085                0.02763251                0.02031722                6.85883411               -2.78201768
               6.47590161                4.20730119               32.95580460                0.00010000               -0.98974583                0.08294567               -0.12320818                0.07720813               11.10848732               -1.29212934
               7.46667625                4.02427132               32.93468205                0.00010000               -0.84470908                0.08507282               -0.29781009               -0.04669857               10.40781585               -0.03494411
               8.45900742                3.84269601               32.90634904                0.00010000               -0.68031201                0.01047294               -0.48342104               -0.14087164                9.92922291                1.29749852
               9.45307001                3.66340708               32.87371493                0.00010000               -0.49836421               -0.04780154               -0.66804578               -0.15245622                9.76584788                2.55570863
              10.44904014                3.48770756               32.83998613                0.18001956               -0.02889534               -0.18163932               -0.84358699               -0.09493987                5.55312391                3.96358755
              11.45249210                3.31393818               32.72060153                0.67466649                0.34785220                0.20974732               -1.01235924               -0.02257120                0.74538091                1.53032332
              12.45599718                3.14002886               32.59011787                1.00000000                0.35050800                0.48984900               -1.33191881               -0.05104651                0.19723638               -0.29084955
               2.67523290                5.95082254               33.28161063                1.00000000               -0.13527192               -0.23460005                0.61288313               -0.02816913                0.13174929                1.08730349
               3.67388019                5.76575889               33.14758205                0.66570872               -0.10941895               -0.09296859                0.34904674               -0.01923987                0.32773451               -0.57326492
               4.67304453                5.58003534               33.01740552                0.13023419               -0.11423698                0.04128109                0.10287271               -0.08874223                1.89016997               -2.10248375
               5.67159545                5.39274942               32.91464493                0.00010000               -0.72422515                0.22537647               -0.08054617               -0.25292649                9.12829430               -1.27142630
               6.65856002                5.20898975               32.92921445                0.00010000               -1.24058890                0.23540366               -0.16764804               -0.24681903               14.32973918               -0.33515132
               7.64678367                5.02570655               32.92903347                0.00010000               -1.10096983                0.20852239               -0.32036445               -0.39700733               13.35577978                0.53699916
               8.63654063                4.84351777               32.92214593                0.00010000               -0.93704380                0.13183833               -0.47851847               -0.49847495               12.98166967                1.54084665
               9.62804279                4.66324429               32.91207024                0.00010000               -0.73957822                0.00679157               -0.63320057               -0.53407619               12.91956404                2.65333924
              10.62174906                4.48548543               32.90117584                0.18236573               -0.17045540               -0.19518949               -0.78436156               -0.27124341                6.96131873                3.78691768
              11.62463368                4.31561121               32.76907510                0.59610124                0.31268637                0.16801069               -0.94552745                0.03204816                0.50116062                1.62449385
              12.62800279                4.14496713               32.62852090                0.99885355                0.33691051                0.49422328               -1.29176664               -0.02316060                0.09351031               -0.21876143
               2.85928494                6.94873048               33.23826747                1.00000000               -0.09335519               -0.18061279                0.46321164               -0.02674808                0.05982388                0.91881205
               3.85835138                6.76510984               33.09553364                0.56741061               -0.06717625               -0.04163835                0.19494906               -0.01923293                0.28649355               -0.72836277
               4.85794141                6.58079705               32.95726354                0.08930536               -0.29465794                0.10104785               -0.06008391               -0.05611578                3.85477556               -2.42602878
               5.85245823                6.39553228               32.88591484                0.00010000               -0.99666584                0.28298926               -0.02648137               -0.46195399               12.07672134                0.72646762
               6.83800810                6.21200927               32.91219161                0.00010000               -1.41250680                0.35936618               -0.19234458               -0.49604320               16.56041678                0.44497984
               7.82420809                6.02844177               32.92858260                0.00010000               -1.32539567                0.34720522               -0.33457433               -0.68133834               15.96289685                0.92274202
               8.81150018                5.84533277               32.94047541                0.00010000               -1.18936336                0.24484671               -0.46232390               -0.85573615               15.79566776                1.68084998
               9.80042082                5.66354291               32.95069086                0.00010000               -1.01259148                0.07070071               -0.57621627               -0.97602991               15.88000252                2.59527450
              10.79124835                5.48380377               32.96118196                0.20176867               -0.33847290               -0.12439238               -0.67498025               -0.52837718                8.27843980                3.59838892
              11.79365136                5.31729840               32.81629085                0.55548346                0.27868914                0.17459841               -0.89861481                0.05013148                0.29094914                1.50091890
              12.79682213                5.14991332               32.66666449                0.97410549                0.31707698                0.48913766               -1.25613768               -0.01037482                0.06625219               -0.26632586
               3.04193922                7.94721028               33.19374686                1.00000000               -0.05102689               -0.12342421                0.31460547               -0.02511073                0.02191758                0.84566074
               4.04142896                7.76492612               33.04270700                0.52259823               -0.02197300                0.00182706                0.04421320               -0.01190942                0.17379638               -0.76429293
               5.04149977                7.58205630               32.89462802                0.06303991               -0.51424037                0.13862173               -0.22415804               -0.02995283                6.61678357               -2.57136772
               6.03114415                7.39840921               32.87244282                0.00010000               -1.28850477                0.35241700               -0.01830587               -0.38429244               15.50186688                1.12681254
               7.01572967                7.21617708               32.90165697                0.00010000               -1.56553774                0.50566037               -0.23323263               -0.50399375               18.20267421                0.77074061
               7.99983339                7.03265066               32.93124726                0.00010000               -1.57024526                0.53563713               -0.35166862               -0.84037519               18.30281595                1.04761254
               8.98432476                6.84841470               32.95978920                0.00010000               -1.48910968                0.40835294               -0.44142639               -1.18441124               18.41376347                1.66657198
               9.97005120                6.66465831               32.98850210                0.00010000               -1.34493684                0.18215014               -0.50994257               -1.41535389               18.66566080                2.42585198
              10.95742603                6.48299758               33.01880824                0.23287694               -0.52622222               -0.03920190               -0.54573265               -0.80943386                9.53587720                3.27120762
              11.95952676                6.31910318               32.86192563                0.53651032                0.25697074                0.18880869               -0.85751186                0.03272168                0.10941189                1.32515983
              12.96256544                6.15474989               32.70340882                0.95862103                0.30386868                0.46826499               -1.22464749                0.00088039                0.04079229               -0.40603370
               3.22335104                8.94626199               33.14891570                1.00000000               -0.00838610               -0.06774232                0.16809767               -0.02375329                0.00590377                0.84472549
               4.22326718                8.76514638               32.98981873                0.52720271                0.02541159                0.04147418               -0.10388330               -0.00440749                0.04011199               -0.75386402
               5.22385927                8.58356948               32.83132055                0.04169305               -0.63077889                0.15854428               -0.38600439                0.05253356                9.06012561               -2.42258309
               6.21065160                8.40258062               32.85258928                0.00010000               -1.50862496                0.52833465               -0.21393080               -0.08875552               19.02451159                0.44423709
               7.19368677                8.22212247               32.89185252                0.00010000               -1.77443188                0.72097689               -0.31609534               -0.34120017               20.19219830                0.63331272
               8.17516296                8.03915451               32.93411353                0.00010000               -1.89412336                0.78093157               -0.38371739               -0.81310071               20.59795464                0.88445885
               9.15580430                7.85349983               32.97874260                0.00010000               -1.88160493                0.70459527               -0.41351691               -1.34978676               20.92449839                1.42495172
              10.13753086                7.66718591               33.02445333                0.02003267               -1.75947512                0.36593664               -0.44563523               -1.89013825               21.25472313                2.40402897
              11.12061480                7.48301973               33.07233114                0.27305932               -0.74886837                0.04002071               -0.45675397               -1.10794884               10.75466657                2.73884654
              12.12255350                7.32107457               32.90532492                0.53518108                0.24657672                0.20965134               -0.83288601                0.00119780                0.01532037                1.10208946
              13.12554634                7.15927862               32.73813026                0.94935672                0.29928398                0.43280702               -1.20821925                0.00932142                0.02029117               -0.60250281
               3.40369539                9.94585543               33.10431326                1.00000000                0.03379264               -0.01640064                0.02380558               -0.02298788               -0.01675953                0.74508923
               4.40403332                9.76575561               32.93709751                0.55641502                0.07104010                0.08076046               -0.24941323               -0.00129326                0.06774609               -0.63381137
               5.40511619                9.58522719               32.77147751                0.00922349               -0.66086344                0.17767588               -0.53073107                0.23821703               11.15205044               -1.63075961
               6.39081605                9.40897590               32.82589596                0.00010000               -1.63922089                0.79434738               -0.43364997                0.15451668               22.22874948                0.03918721
               7.37233178                9.23059662               32.87922664                0.00010000               -1.93110133                0.90460189               -0.43131409               -0.14075468               22.41986348                0.31294311
               8.35219402                9.04826929               32.93437247                0.00010000               -2.15170721                0.98989794               -0.43881059               -0.51513764               22.89174664                0.49610516
               9.32929763                8.86250661               32.99426863                0.00010000               -2.47327414                1.03691913               -0.40150839               -1.06936378               23.68693690                0.84365142
              10.30272854                8.67197704               33.06267221                0.06788163               -2.39596204                0.91415142               -0.26475951               -1.78213708               23.64420170                1.87812691
              11.28137839                8.48379800               33.11920380                0.32153617               -0.97183610                0.12095159               -0.44218900               -1.40410380               11.72065409                1.66005556
              12.28329182                8.32329621               32.94622440                0.54590439                0.24826897                0.23621674               -0.83800994               -0.02507352                0.12098426                0.77862789
              13.28634377                8.16340603               32.77042122                0.93635509                0.30519527                0.39983890               -1.21674689                0.01143944               -0.00291529               -0.65478273
               3.58309094               10.94593398               33.05739520                1.00000000                0.07786239                0.00785474               -0.11744496                0.02231528                0.40802787                0.63519163
               4.58386956               10.76676159               32.88652208                0.81755834                0.11561896                0.10059818               -0.39170210                0.04307539                0.82645020               -0.52246219
               5.58540332               10.58712300               32.72391291                0.50031140               -0.77485289                0.18958159               -0.66647345                0.61401146               13.09025059               -1.01429170
               6.56837250               10.41846757               32.79824377                0.36836651               -1.69125132                0.94916691               -0.58645186                0.41022103               24.74959445               -0.07218787
               7.55157829               10.24021451               32.86367973                0.35805612               -1.77111431                0.96178962               -0.54639994               -0.05110336               24.54867941                0.12824811
               8.53295022               10.05895247               32.93018100                0.37196894               -2.04345081                1.06831843               -0.52050730               -0.22319528               25.03294998                0.24821649
               9.51070927                9.87423821               33.00234529                0.40897417               -2.61767429                1.17316072               -0.44404087               -0.53301230               26.15599059                0.46500564
              10.48059673                9.68546894               33.08902936                0.55341593               -3.47478578                1.34918979               -0.17989950               -1.65315344               25.70906110                1.28155828
              11.44121356                9.48543876               33.15090132                0.68689948               -1.90763673                0.16407623               -0.50035529               -1.99998482               13.06139985                0.91880030
              12.44244400                9.32579891               32.98283865                0.79007537                0.21709662                0.25026979               -0.87785773                0.00705008                1.02945683                0.58380321
              13.44555549                9.16727540               32.80366036                0.96756621                0.31114936                0.38693748               -1.24714264                0.06882150                0.49468969               -0.58624675
               1.83129904                1.02064641               34.49101192                1.00000000               -0.34449270               -0.36779610                1.27394473               -0.05772860               -0.95689840                0.97418960
               2.82785412                0.82191499               34.38470979                1.00000000               -0.30225752               -0.28724608                1.02728340               -0.03825183               -1.24888894                0.11623046
               3.82525389                0.62276142               34.27259361                1.00000000               -0.20830314               -0.20830235                0.76917929               -0.04205534               -1.22225643               -0.21108901
               4.82368805                0.42347799               34.16688865                0.62692737                0.03463383               -0.15118662                0.51929236                0.10122493               -0.39842590               -0.85167912
               5.82594657                0.22729202               34.07137358                0.71481377                0.17911737               -0.08309852                0.23171530               -0.07037593               -0.04529025                0.28008585
               6.82727040                0.03414880               33.97359502                0.79809185                0.13052313                0.00758620               -0.01684422               -0.04881517               -0.32614512                0.16272216
               7.82855703               -0.15775101               33.87225364                0.78544400                0.16370064                0.08099100               -0.26596337               -0.02874554               -0.56639525               -0.06772625
               8.83054441               -0.34887811               33.76937204                0.86776019                0.22287544                0.15982755               -0.52140087               -0.04061319               -0.85261556                0.10571789
               9.83301454               -0.53943052               33.66199909                1.00000000                0.27288348                0.23810981               -0.79410907               -0.04130961               -1.15633442                0.58329970
              10.83600208               -0.72980955               33.55286536                1.00000000                0.33336831                0.33078859               -1.07782504               -0.03121873               -1.11925139               -0.01075209
              11.83968191               -0.92035465               33.44624416                1.00000000                0.36798236                0.43135407               -1.35537191               -0.02333577               -0.99806851               -0.99419146
               2.02945318                2.01696845               34.44605258                1.00000000               -0.30390860               -0.35514021                1.13803743               -0.01565053               -0.14741526                1.32731869
               3.02641409                1.81904253               34.33950647                1.00000000               -0.27006714               -0.26775020                0.89366734                0.00508846               -0.17050496                0.16537568
               4.02405184                1.62067839               34.23248546                0.91731671               -0.19895457               -0.18315478                0.63426448               -0.00343748               -0.02184289               -0.53094286
               5.02243500                1.42196612               34.12886969                0.24727770               -0.20722169               -0.12848385                0.36655060                0.15984892                1.61028171               -1.25432654
               6.01990740                1.22646103               34.05431311                0.40408092               -0.15656203               -0.00484832                0.11059018               -0.06821285                2.45489897                1.00362203
               7.01930376                1.03422466               33.96565762                0.50787158               -0.00621847                0.05370759               -0.12694779                0.00755186                1.54665962                0.46005845
               8.01978303                0.84305890               33.87228225                0.42031315                0.08371354                0.11479851               -0.36464641                0.04205334                1.44729221               -0.28967736
               9.02097803                0.65272016               33.78137781                0.51831483                0.16420628                0.19627035               -0.61572833               -0.00127890                1.49534497                0.50801691
              10.02306716                0.46295058               33.68887447                1.00000000                0.25869644                0.25127106               -0.87504457               -0.01129547                0.78231229                0.83027722
              11.02615196                0.27349834               33.58377112                1.00000000                0.34632455                0.33593292               -1.15056851                0.01135901                0.08799933                0.12254994
              12.02999365                0.08395889               33.47732910                1.00000000                0.38416889                0.45987661               -1.42684663                0.02109946                0.02673188               -1.16336679
               2.22683788                3.01354361               34.40817502                1.00000000               -0.25919379               -0.33373202                1.01163801               -0.01055854                0.04962450                1.67822852
               3.22424594                2.81655998               34.29527324                1.00000000               -0.22881668               -0.23156061                0.76545915                0.01005180                0.22958343                0.15040716
               4.22226154                2.61909832               34.18592348                0.61823060               -0.15717734               -0.13192637                0.52715350               -0.01160583                0.71275226               -1.30690267
               5.22110239                2.42090831               34.08266253                0.00010000               -0.49688868               -0.09449483                0.24549920                0.23223746                4.64016897               -2.03720024
               6.21232377                2.22719505               34.05184991                0.00010000               -0.51394123               -0.01030187               -0.05428913                0.29665410                5.66290204               -1.18385876
               7.21082357                2.03522295               33.96372620                0.00010000               -0.07105853               -0.05172164               -0.24411684                0.17027136                2.44437285               -0.12500056
               8.21090260                1.84454496               33.86793892                0.00010000               -0.00982094               -0.03439180               -0.45208683                0.07216192                3.53906610                0.74986521
               9.21062715                1.65504729               33.80158619                0.00010000                0.05539254                0.01574250               -0.73312958               -0.02583233                4.28381365                1.35362500
              10.21201045                1.46559491               33.72086137                0.45628958                0.22969012                0.17918701               -0.96219394               -0.17659196                2.44140584                1.85751030
              11.21522095                1.27690911               33.61747617                1.00000000                0.35861692                0.32174089               -1.21055759               -0.04245710                0.87272908                0.87447049
              12.21918279                1.08884288               33.50512057                1.00000000                0.39618371                0.51016725               -1.50217000                0.00322812                0.44005040               -1.05839071
               2.42320926                4.01029381               34.37029055                1.00000000               -0.21488410               -0.31307532                0.88428427               -0.01512172                0.11299558                1.56809281
               3.42106041                3.81441131               34.24975685                1.00000000               -0.18689326               -0.19363038                0.63689460                0.00312099                0.16590295               -0.01495489
               4.41947139                3.61803987               34.13021640                0.36066045               -0.10386955               -0.07952698                0.40133141               -0.06390565                1.11843005               -1.68598921
               5.41898302                3.42007623               34.02872520                0.00010000               -0.39727730               -0.03468146                0.15184891                0.10950693                5.22992034               -2.71885105
               6.41152584                3.22625499               33.99137980                0.00010000               -0.68118721               -0.04299383               -0.07686678                0.30042963                8.02491420               -2.91549091
               7.40535928                3.03319023               33.94412600                0.00010000               -0.50619556               -0.09436393               -0.29500154                0.10688113                7.21300186               -0.63613310
               8.40140193                2.84237106               33.88847551                0.00010000               -0.29739202               -0.14163343               -0.51202362               -0.04355125                6.75134165                1.62443189
               9.39941144                2.65303501               33.83051744                0.00010000               -0.18642165               -0.14733622               -0.73034812               -0.05445057                6.47122433                2.17971143
              10.39767350                2.46653432               33.76821000                0.20332287                0.13217012               -0.01570153               -0.93429087               -0.11980826                4.20296934                3.36278466
              11.40205484                2.27993316               33.66348088                0.83211840                0.42585846                0.27410852               -1.23800476               -0.05533382                1.13084607                1.53609313
              12.40619067                2.09416224               33.53828629                1.00000000                0.41358281                0.52695580               -1.52029809               -0.03064694                0.15034039               -0.50988777
               2.61830043                5.00728210               34.33029520                1.00000000               -0.17381308               -0.28194211                0.74770305               -0.02506236                0.17551720                1.32745831
               3.61656230                4.81268737               34.20219605                0.82102378               -0.14909577               -0.14391962                0.49876879               -0.01282477                0.27017411               -0.29455792
               4.61531852                4.61750778               34.07592622                0.20107133               -0.07424491               -0.01737457                0.26018805               -0.11065095                1.31600800               -1.76883610
               5.61507740                4.42021468               33.96874215                0.00010000               -0.50500795                0.09637465                0.02286486               -0.09444998                6.91672406               -2.75499351
               6.60521836                4.22633517               33.95449320                0.00010000               -0.91161414                0.08717766               -0.14205586               -0.11938353               11.20299531               -1.23150711
               7.59684512                4.03333567               33.93154538                0.00010000               -0.75157822                0.07098398               -0.33377083               -0.23496358               10.49205904                0.03617974
               8.59018680                3.84171229               33.90127254                0.00010000               -0.57351221               -0.00433781               -0.53690659               -0.31655020               10.01839795                1.37966577
               9.58537488                3.65210057               33.86671880                0.00010000               -0.37353280               -0.06975655               -0.74266784               -0.32841239                9.86647700                2.65671032
              10.58271614                3.46528088               33.83110570                0.17092894                0.05557418               -0.17643680               -0.94002530               -0.14355035                5.69522511                4.05754781
              11.58648636                3.28239128               33.71043396                0.63872296                0.36977759                0.21422910               -1.05565604               -0.01410880                0.84509197                1.67433013
              12.59011169                3.09938200               33.57667821                1.00000000                0.36253294                0.52450541               -1.40039311               -0.04903723                0.22185042               -0.18925357
               2.81189746                6.00465497               34.28767959                1.00000000               -0.13192203               -0.23650305                0.60160672               -0.02967895                0.13153963                1.08163560
               3.81057824                5.81153292               34.15103324                0.65766816               -0.10831973               -0.08676767                0.34120575               -0.02365751                0.33633012               -0.59087797
               4.80973106                5.61769237               34.01841651                0.12752665               -0.11558021                0.05485540                0.09899703               -0.11090889                1.94165577               -2.13154649
               5.80826663                5.42200372               33.91389181                0.00010000               -0.68569402                0.21479789               -0.06927460               -0.38445532                9.25021724               -1.15036761
               6.79601718                5.22799855               33.92748087                0.00010000               -1.14918715                0.22248337               -0.18225777               -0.44681661               14.46827617               -0.25417906
               7.78528289                5.03460991               33.92564827                0.00010000               -0.98555733                0.18542953               -0.36173697               -0.57016968               13.46903569                0.61823703
               8.77630604                4.84228431               33.91707463                0.00010000               -0.80041421                0.10118207               -0.54320683               -0.66103355               13.10635274                1.63890208
               9.76927461                4.65163988               33.90536051                0.00010000               -0.58971288               -0.02369353               -0.72020281               -0.70799196               13.06596586                2.77855388
              10.76451178                4.46300559               33.89291756                0.17314120               -0.08015328               -0.20201576               -0.88859475               -0.35810405                7.14757307                3.94055581
              11.76767154                4.28421774               33.75937380                0.57013776                0.33583558                0.18705430               -1.01064706                0.03796859                0.60326489                1.73623803
              12.77122849                4.10465235               33.61526227                0.97329645                0.35569496                0.53082325               -1.37128702               -0.01653682                0.09491866               -0.13685437
               3.00395095                7.00255204               34.24283163                1.00000000               -0.08992002               -0.18058703                0.45012318               -0.02770704                0.05841885                0.91016641
               4.00305175                6.81095202               34.09743717                0.55967303               -0.06607015               -0.03508243                0.18540830               -0.02269664                0.29169977               -0.74282610
               5.00262954                6.61860489               33.95663962                0.08581940               -0.29848093                0.11533700               -0.06588905               -0.10131077                4.02378984               -2.45556372
               5.99708213                6.42451064               33.88590075                0.00010000               -0.94768529                0.24698062                0.02099260               -0.60227988               12.27552458                0.88405329
               6.98367584                6.23078484               33.91020759                0.00010000               -1.29630790                0.33010294               -0.20901814               -0.68377009               16.66270960                0.52352542
               7.97115597                6.03704427               33.92503147                0.00010000               -1.18698410                0.31153727               -0.38167993               -0.85108078               16.10553566                1.00666248
               8.95993615                5.84373593               33.93554081                0.00010000               -1.03311053                0.20335474               -0.53303535               -1.01454996               15.96960624                1.78835857
               9.95049376                5.65162670               33.94454495                0.00010000               -0.84799782                0.03645254               -0.66524230               -1.14356932               16.09111070                2.73665583
              10.94297620                5.46124056               33.95400392                0.19240990               -0.24473916               -0.13033135               -0.77825486               -0.60628303                8.47474110                3.78805620
              11.94559897                5.28613237               33.80705182                0.53425284                0.29677720                0.19286029               -0.95281696                0.06181303                0.36790919                1.60753056
              12.94891174                5.10999846               33.65379079                0.95425456                0.33127678                0.52507866               -1.32067910               -0.00805041                0.07045935               -0.17655859
               3.19454335                8.00104323               34.19681632                1.00000000               -0.04718973               -0.12132066                0.29970508               -0.02571822                0.02077072                0.83814499
               4.19407145                7.81083127               34.04309669                0.51651598               -0.01985613                0.00766051                0.03319871               -0.01380650                0.17309001               -0.77516939
               5.19414623                7.61999911               33.89234665                0.05986294               -0.50151840                0.15004331               -0.23389486               -0.10429667                6.86020932               -2.59769599
               6.18404108                7.42694333               33.87235669                0.00010000               -1.21690358                0.32059778               -0.00965619               -0.52003694               15.77382095                1.13622750
               7.16980816                7.23460060               33.89921626                0.00010000               -1.43654511                0.47197814               -0.26022259               -0.67219643               18.30839956                0.81777430
               8.15531018                7.04084066               33.92748952                0.00010000               -1.41877757                0.49338034               -0.40689019               -1.00760415               18.48846034                1.12175803
               9.14143260                6.84635140               33.95504161                0.00010000               -1.32057959                0.35808322               -0.51687235               -1.34391251               18.64546390                1.77717920
              10.12889859                6.65236893               33.98303156                0.00010000               -1.17760793                0.14073513               -0.59471989               -1.56979235               18.95221129                2.56727906
              11.11788045                6.46039896               34.01301565                0.22407260               -0.43743475               -0.03872563               -0.62401975               -0.88429076                9.73242245                3.45088319
              12.12014990                6.28807495               33.85310969                0.51767525                0.27274213                0.20207858               -0.90832630                0.04144661                0.14256952                1.41466266
              13.12333529                6.11515392               33.69087956                0.94202321                0.31853930                0.49730546               -1.28208623                0.00317508                0.04249636               -0.33049310
               3.38386049                9.00012562               34.15051094                1.00000000               -0.00407608               -0.06390343                0.15132671               -0.02411805                0.00496363                0.83898923
               4.38381973                8.81110523               33.98872218                0.52332151                0.02855311                0.04647969               -0.11605324               -0.00519010                0.03357878               -0.76153806
               5.38443155                8.62160576               33.82741896                0.04104503               -0.58699148                0.16576265               -0.39570122               -0.03643802                9.26797221               -2.43632048
               6.37207990                8.43092260               33.85027244                0.00010000               -1.40484827                0.51121442               -0.25227518               -0.23687594               19.33439625                0.34992606
               7.35633458                8.24022440               33.88850570                0.00010000               -1.64134039                0.68832039               -0.35939567               -0.50072837               20.39557905                0.64348852
               8.33925309                8.04691187               33.92998272                0.00010000               -1.74024774                0.74136556               -0.45020605               -0.97293720               20.84921251                0.93783266
               9.32152963                7.85089760               33.97422715                0.00010000               -1.71013689                0.65865723               -0.50033681               -1.51034650               21.21816175                1.52583867
              10.30505035                7.65444140               34.01961017                0.01779145               -1.59726305                0.31952665               -0.53270920               -2.04084829               21.59269164                2.58810823
              11.28958437                7.46046605               34.06750958                0.26618085               -0.66887018                0.04830627               -0.51223649               -1.17233724               10.94191144                2.85391387
              12.29167295                7.29017394               33.89674534                0.51708578                0.26164643                0.22368971               -0.88427615                0.00572496                0.01433787                1.16307034
              13.29481730                7.11994457               33.72576752                0.93459235                0.31443490                0.45684846               -1.26491879                0.01097978                0.01972048               -0.55212001
               3.57210178                9.99976516               34.10445576                1.00000000                0.03857444               -0.01119428                0.00502648               -0.02324404               -0.01787231                0.74168527
               4.57248752                9.81176087               33.93454110                0.55422144                0.07491632                0.08522604               -0.26260462               -0.00171567                0.06240318               -0.63812085
               5.57360010                9.62331437               33.76613534                0.00885935               -0.59013006                0.18169415               -0.53957114                0.13937371               11.32170884               -1.63081325
               6.56068492                9.43716762               33.82133994                0.00010000               -1.48978946                0.75391781               -0.47825025                0.02107731               22.55001850               -0.01928927
               7.54380431                9.24836701               33.87465249                0.00010000               -1.77533369                0.86821164               -0.48898841               -0.25895584               22.70945201                0.30691830
               8.52517825                9.05566797               33.92962569                0.00010000               -2.00540831                0.95932934               -0.51885593               -0.62546849               23.21316245                0.52296921
               9.50369615                8.85952455               33.98979398                0.00010000               -2.33325359                1.01565226               -0.50732721               -1.19357324               24.10192205                0.90637818
              10.47851317                8.65875946               34.05949283                0.06993985               -2.24974928                0.89130412               -0.39788668               -1.89747172               24.00020341                2.06399742
              11.45870116                8.46136509               34.11453010                0.31861652               -0.88636526                0.13544191               -0.49214614               -1.44755065               11.82748072                1.69276693
              12.46078587                8.29254874               33.93756130                0.52755474                0.26562275                0.25339352               -0.89438496               -0.02356070                0.11220308                0.80318080
              13.46401362                8.12429089               33.75794507                0.92250122                0.32277481                0.42141472               -1.27918051                0.01315145               -0.00234760               -0.63169906
               3.75940419               10.99990174               34.05611611                1.00000000                0.08320149                0.01365821               -0.13811995                0.02104254                0.40589646                0.63311730
               4.76023620               10.81280975               33.88253629                0.81718303                0.12040408                0.10488860               -0.40621981                0.04176325                0.82365217               -0.52473234
               5.76181227               10.62523964               33.71720390                0.49947125               -0.63937027                0.19252714               -0.67675252                0.48077676               13.25633780               -1.00958789
               6.74744880               10.44600095               33.79219085                0.36855752               -1.45785744                0.88333324               -0.62768191                0.29383770               25.08660604               -0.09881085
               7.73265512               10.25758864               33.85789872                0.35820164               -1.59313056                0.92216228               -0.61497223               -0.11004391               24.87799773                0.12054521
               8.71558619               10.06609846               33.92455014                0.37176279               -1.90442266                1.04304921               -0.61458707               -0.27810559               25.39818403                0.26124229
               9.69456667                9.87121064               33.99735687                0.40811742               -2.51629046                1.16860956               -0.56988715               -0.60449673               26.65715125                0.50230768
              10.66526038                9.67226748               34.08652936                0.55587363               -3.38612942                1.35080188               -0.35873710               -1.72706739               26.06760389                1.42956676
              11.62684408                9.46317489               34.14556951                0.68690287               -1.84922230                0.18098001               -0.56417169               -2.03699178               13.11726426                0.91015847
              12.62827593                9.29524181               33.97370894                0.78071939                0.23759748                0.26930710               -0.94605295                0.00890547                1.04043759                0.58824188
              13.63159603                9.12837287               33.79082048                0.96074943                0.33200976                0.40819807               -1.32057055                0.07134708                0.50950683               -0.57581755
               1.92920327                1.07607491               35.50376182                1.00000000               -0.34558343               -0.36902572                1.27679825               -0.05761214               -0.96891422                0.98360639
               2.92574743                0.86898184               35.39498327                1.00000000               -0.30396317               -0.28668157                1.02723448               -0.03707837               -1.26664492                0.12291504
               3.92312401                0.66145183               35.28026951                1.00000000               -0.21186069               -0.20614565                0.76466909               -0.04219231               -1.24064569               -0.20937485
               4.92151022                0.45368112               35.17203969                0.62790782                0.01074620               -0.14566201                0.50941749                0.04816218               -0.42794622               -0.86803849
               5.92333893                0.24779454               35.07365197                0.71030640                0.16464049               -0.09029307                0.22031399               -0.07316180               -0.06749862                0.28470968
               6.92480303                0.04428039               34.97341964                0.79005680                0.14717531                0.00475044               -0.02423327               -0.06011684               -0.31994738                0.16531096
               7.92628244               -0.15794471               34.86963011                0.78039326                0.18332916                0.07845596               -0.26601888               -0.03918101               -0.55136419               -0.06359546
               8.92846961               -0.35935704               34.76429187                0.86677606                0.23754344                0.15284283               -0.50372049               -0.05408699               -0.84162722                0.10663230
               9.93103330               -0.56003972               34.65420715                1.00000000                0.27701543                0.23126974               -0.77155026               -0.05134564               -1.16192223                0.59122910
              10.93400992               -0.76045602               34.54222520                1.00000000                0.33036256                0.32347916               -1.05211966               -0.03482175               -1.12907561               -0.00714368
              11.93764056               -0.96109394               34.43280106                1.00000000                0.36306333                0.42486890               -1.33409954               -0.01813282               -1.00548587               -0.99878773
               2.13572021                2.07238465               35.45743043                1.00000000               -0.30320227               -0.35718877                1.13844753               -0.01439007               -0.15254381                1.34084473
               3.13268819                1.86611503               35.34843013                1.00000000               -0.26838853               -0.26711373                0.89114361                0.00695337               -0.18392676                0.17500202
               4.13035244                1.65939037               35.23878956                0.92975239               -0.19338529               -0.18056683                0.62688242               -0.00510180               -0.04689434               -0.51493483
               5.12882049                1.45222450               35.13246945                0.25505453               -0.15223842               -0.12101010                0.35503879                0.08797943                1.58570794               -1.25638540
               6.12730768                1.24689161               35.05529801                0.40649275               -0.08745001               -0.01944558                0.08586606               -0.07851360                2.45772933                0.98617535
               7.12707149                1.04432790               34.96428276                0.50692012                0.02008327                0.05122623               -0.15141123               -0.01570074                1.57248658                0.46105655
               8.12770934                0.84283985               34.86856545                0.42155004                0.09523829                0.12123789               -0.38400355                0.01350763                1.47612035               -0.27862069
               9.12897625                0.64217139               34.77522900                0.51259892                0.16799972                0.19163554               -0.62173168               -0.03324188                1.51897509                0.50179963
              10.13106934                0.44227297               34.68013651                1.00000000                0.26062806                0.25156139               -0.87597475               -0.02278234                0.79360336                0.83592730
              11.13418881                0.24277878               34.57223434                1.00000000                0.35139083                0.32994305               -1.15677967                0.00874852                0.08987215                0.13276780
              12.13809715                0.04315475               34.46300567                1.00000000                0.39083391                0.45332038               -1.43665203                0.02723379                0.02935287               -1.17082817
               2.34145472                3.06893114               35.41827399                1.00000000               -0.25739354               -0.33730449                1.00959424               -0.00917474                0.04830470                1.69584647
               3.33888078                2.86363957               35.30291222                1.00000000               -0.22711107               -0.23073171                0.76219096                0.01102901                0.23046769                0.16262757
               4.33691250                2.65784049               35.19116026                0.63420188               -0.15561062               -0.12674053                0.51918754               -0.01571345                0.69412783               -1.28527905
               5.33576857                2.45126092               35.08503176                0.00010000               -0.36236180               -0.08571650                0.22935657                0.13492635                4.58890800               -2.00870152
               6.32966526                2.24740563               35.05113354                0.00010000               -0.36138990               -0.02569371               -0.08800914                0.10481195                5.67036083               -1.15331223
               7.32854077                2.04530492               34.96110791                0.00010000               -0.04780830               -0.04323198               -0.28113214                0.01398560                2.51562795               -0.09027538
               8.32870910                1.84448005               34.86323198                0.00010000               -0.00845594               -0.01882630               -0.49163655               -0.07046935                3.57750275                0.78326173
               9.32837165                1.64447567               34.79416043                0.00010000                0.06305869                0.02452783               -0.76266481               -0.13356671                4.32415686                1.40047591
              10.32997027                1.44499150               34.71103921                0.43087430                0.24657316                0.19283037               -0.99650197               -0.20636208                2.49470815                1.89561064
              11.33330312                1.24614285               34.60515694                1.00000000                0.37315085                0.32007836               -1.25164487               -0.06304069                0.89662333                0.89573839
              12.33743329                1.04797247               34.48988777                1.00000000                0.41301685                0.51300001               -1.53887962                0.00815670                0.44173917               -1.05762629
               2.54611985                4.06563856               35.37910366                1.00000000               -0.21204373               -0.31742622                0.87991644               -0.01506950                0.11580357                1.58054446
               3.54399942                3.86150039               35.25610093                1.00000000               -0.18515135               -0.19189551                0.63204992                0.00288307                0.17448061               -0.00805339
               4.54241683                3.65685556               35.13422074                0.36399417               -0.10227699               -0.07229496                0.39797340               -0.07109349                1.12663510               -1.68253623
               5.54195388                3.45051017               35.03024275                0.00010000               -0.35284547               -0.02513244                0.14674100               -0.00038610                5.23559852               -2.69272911
               6.53535992                3.24637774               34.99047843                0.00010000               -0.58385499               -0.04178255               -0.10481960                0.02230551                8.05191594               -2.83300473
               7.53027678                3.04346326               34.94099643                0.00010000               -0.41153589               -0.09161349               -0.33455408               -0.13585453                7.26203477               -0.56703083
               8.52712920                2.84246333               34.88314079                0.00010000               -0.22416563               -0.13949236               -0.55916609               -0.26542265                6.81973948                1.68481496
               9.52579346                2.64266194               34.82300919                0.00010000               -0.09271402               -0.13887278               -0.78628721               -0.20695057                6.54628313                2.25397761
              10.52527492                2.44612958               34.75799930                0.18935026                0.20767863               -0.04202779               -1.10508367               -0.21111907                4.32179695                3.55626571
              11.52994704                2.24918034               34.65044970                0.75218699                0.46630620                0.26945121               -1.37595041               -0.10982607                1.17855133                1.71329598
              12.53460104                2.05341475               34.52249581                1.00000000                0.46540064                0.56476716               -1.64342485               -0.05093984                0.20169162               -0.41388320
               2.74942967                5.06258261               35.33773085                1.00000000               -0.17082221               -0.28598747                0.74090360               -0.02626883                0.18213616                1.32989604
               3.74772145                4.85980166               35.20715154                0.81423163               -0.14744091               -0.14000898                0.49237626               -0.01587869                0.28134003               -0.30231549
               4.74648085                4.65639459               35.07850064                0.19932814               -0.07413864               -0.00822742                0.25355413               -0.12205731                1.33425387               -1.78393395
               5.74623867                4.45075827               34.96896889                0.00010000               -0.46612831                0.10366517                0.01952547               -0.21215292                6.96781901               -2.72786493
               6.73715829                4.24656998               34.95296348                0.00010000               -0.82502916                0.09070242               -0.16637977               -0.32382248               11.27833737               -1.15941368
               7.72973809                4.04347265               34.92800663                0.00010000               -0.64781659                0.05609719               -0.37840694               -0.42929642               10.55912300                0.11203669
               8.72420195                3.84169020               34.89561091                0.00010000               -0.45858518               -0.02178931               -0.60136650               -0.49740967               10.08800399                1.45838101
               9.72056639                3.64169822               34.85886158                0.00010000               -0.24862323               -0.08363575               -0.83757705               -0.49067715                9.94686095                2.74635957
              10.71922949                3.44415095               34.82118563                0.16020276                0.16275202               -0.23656274               -1.05320747               -0.23770121                5.84259801                4.22035704
              11.72382143                3.25153187               34.69948841                0.60251679                0.43580945                0.22688823               -1.19605175               -0.02379500                0.95841583                1.91037488
              12.72794568                3.05926781               34.56211001                0.97567831                0.41242496                0.58513619               -1.56129413               -0.05024730                0.23539341               -0.03274664
               2.95115638                6.05991882               35.29364277                1.00000000               -0.12865210               -0.23927702                0.59224893               -0.03123109                0.13103612                1.07582047
               3.94986986                5.85870021               35.15440616                0.64945408               -0.10686560               -0.08058951                0.33300228               -0.02859294                0.34496961               -0.60770626
               4.94901907                5.65669101               35.01938546                0.12417043               -0.11672143                0.06805212                0.09346619               -0.13219814                2.00050785               -2.15810987
               5.94753543                5.45258347               34.91325943                0.00010000               -0.64249898                0.19951031               -0.05904191               -0.51685742                9.36596537               -1.00683031
               6.93616909                5.24819178               34.92556929                0.00010000               -1.04824049                0.20872048               -0.20346435               -0.65124971               14.57684877               -0.16580450
               7.92657062                5.04458520               34.92179873                0.00010000               -0.86068269                0.16305629               -0.41354878               -0.74583759               13.55335975                0.70304336
               8.91895544                4.84202754               34.91128180                0.00010000               -0.65257236                0.07213811               -0.62311786               -0.82095482               13.20104187                1.73921356
               9.91351918                4.64098923               34.89766619                0.00010000               -0.41340985               -0.05466170               -0.83143118               -0.87078395               13.17889045                2.91443516
              10.91068724                4.44139833               34.88340394                0.16297588                0.04175495               -0.23420746               -1.04465931               -0.41321569                7.34241587                4.11803931
              11.91435427                4.25371811               34.74886216                0.54373420                0.37184879                0.20906209               -1.09474999                0.05601999                0.73638977                1.88925304
              12.91812422                4.06511747               34.60109516                0.95029405                0.37699409                0.57485260               -1.45461358               -0.01967760                0.10294388                0.00068463
               3.15124225                7.05779707               35.24726993                1.00000000               -0.08648585               -0.18124726                0.43854720               -0.02884422                0.05654178                0.90154296
               4.15037739                6.85818987               35.09924181                0.55142651               -0.06443097               -0.02812474                0.17491739               -0.02754357                0.29645551               -0.75680659
               5.14995363                6.65775564               34.95594576                0.08210206               -0.29883177                0.13160149               -0.07519928               -0.15082543                4.21711225               -2.48476809
               6.14440076                6.45474848               34.88633469                0.00010000               -0.89110325                0.20892943                0.06009995               -0.73978587               12.46816248                1.03764697
               7.13213156                6.25074439               34.90801125                0.00010000               -1.17075859                0.30213321               -0.23505873               -0.87094824               16.71488318                0.60375413
               8.12098558                6.04673377               34.92094900                0.00010000               -1.03763688                0.27746801               -0.44134422               -1.02023974               16.21575652                1.09480635
               9.11137883                5.84313297               34.92981470                0.00010000               -0.86028303                0.16221993               -0.62155338               -1.16961122               16.11331029                1.90503319
              10.10377992                5.64060498               34.93738601                0.00010000               -0.65712650               -0.00252802               -0.78187304               -1.30319804               16.27415320                2.89856702
              11.09823630                5.43946680               34.94561686                0.18205444               -0.12786203               -0.14443714               -0.92215563               -0.67913846                8.69288007                4.01602955
              12.10122268                5.25571311               34.79723451                0.51279753                0.32585497                0.19924037               -1.01589137                0.07290148                0.47982302                1.74620588
              13.10475340                5.07076486               34.64025090                0.93584171                0.35307143                0.55229071               -1.38508793               -0.00725359                0.07399636               -0.04842691
               3.34979390                8.05629387               35.19974097                1.00000000               -0.04334765               -0.11973661                0.28602729               -0.02633562                0.01933516                0.83046140
               4.34936043                7.85813772               35.04337097                0.50995416               -0.01749736                0.01406669                0.02101856               -0.01587403                0.17060467               -0.78535922
               5.34944395                7.65932304               34.88995012                0.05661748               -0.48047317                0.16493765               -0.24735948               -0.18304162                7.10529501               -2.62228839
               6.33975096                7.45676206               34.87224970                0.00010000               -1.13395628                0.29237056               -0.02120809               -0.66182827               16.03318495                1.10919459
               7.32676483                7.25423445               34.89645252                0.00010000               -1.29868562                0.44058105               -0.29889754               -0.84354992               18.38190956                0.86169222
               8.31377725                7.05013456               34.92310946                0.00010000               -1.25364133                0.45206103               -0.47655959               -1.17611660               18.64492645                1.20014410
               9.30169200                6.84527194               34.94945175                0.00010000               -1.13279346                0.30656310               -0.61109310               -1.50173112               18.85560206                1.89672370
              10.29112138                6.64093867               34.97660770                0.00010000               -0.98478315                0.09409121               -0.70363842               -1.72200063               19.23149073                2.73060107
              11.28199634                6.43850958               35.00632784                0.21398313               -0.33035700               -0.04416214               -0.73022667               -0.95770983                9.95116606                3.67652698
              12.28451424                6.25770292               34.84375910                0.49861635                0.29396509                0.20856286               -0.96408134                0.05066671                0.19596219                1.52174265
              13.28787564                6.07616329               34.67776709                0.92629101                0.33614009                0.52029225               -1.33816292                0.00318668                0.04426544               -0.23428907
               3.54702784                9.05540234               35.15194224                1.00000000                0.00028997               -0.06049472                0.13554654               -0.02444584                0.00397659                0.83268893
               4.54703074                8.85847120               34.98749767                0.51922442                0.03203090                0.05206826               -0.12963518               -0.00532864                0.02604792               -0.76824353
               5.54766846                8.66105439               34.82340653                0.04024690               -0.53889763                0.17514713               -0.40902605               -0.12838701                9.45820963               -2.44639581
               6.53625278                8.46059589               34.84754377                0.00010000               -1.28901934                0.49548235               -0.29423430               -0.39750391               19.61787279                0.24131806
               7.52188807                8.25955601               34.88466461                0.00010000               -1.49135117                0.65537566               -0.41618407               -0.66753286               20.57970525                0.64992139
               8.50642576                8.05577499               34.92510941                0.00010000               -1.56739864                0.70133498               -0.53240269               -1.13766269               21.07501780                0.99467852
               9.49054010                7.84926423               34.96873586                0.00010000               -1.51617476                0.61162567               -0.60948846               -1.67556272               21.49954160                1.63000049
              10.47610227                7.64248681               35.01379914                0.01421185               -1.41111206                0.26995630               -0.64091565               -2.19027804               21.94832943                2.76081891
              11.46231785                7.43858356               35.06208641                0.25779445               -0.57599760                0.05419115               -0.58058385               -1.23696240               11.15438101                3.00392795
              12.46458231                7.25988437               34.88763940                0.49885422                0.27892663                0.23466577               -0.93874588                0.00969083                0.01921088                1.23626846
              13.46789639                7.08117071               34.71283189                0.92030991                0.33140735                0.47779022               -1.32193578                0.01131573                0.01917718               -0.49138676
               3.74316726               10.05508398               35.10441379                1.00000000                0.04345460               -0.00633544               -0.01293690               -0.02345532               -0.01895795                0.73747960
               4.74360180                9.85917908               34.93184541                0.55199511                0.07921364                0.09026868               -0.27734603               -0.00169546                0.05640943               -0.64136666
               5.74475153                9.66282599               34.76068609                0.00837637               -0.51512703                0.18698690               -0.55260419                0.03498402               11.47119241               -1.62776252
               6.73329926                9.46667171               34.81633096                0.00010000               -1.32582323                0.70968282               -0.52351500               -0.11635044               22.83918661               -0.07304274
               7.71823507                9.26734196               34.86944687                0.00010000               -1.59917431                0.82884746               -0.55784333               -0.38097815               22.97485152                0.29956355
               8.70131578                9.06416126               34.92399535                0.00010000               -1.83830655                0.92767170               -0.61542221               -0.74037609               23.50676550                0.55184586
               9.68146894                8.85750445               34.98412209                0.00010000               -2.16596433                0.99471848               -0.64079804               -1.32452435               24.48521748                0.96839517
              10.65799649                8.64633780               35.05471447                0.07057631               -2.08047036                0.87501996               -0.58580594               -2.01385720               24.40008804                2.21385826
              11.63985953                8.43959341               35.10936088                0.31432860               -0.79377921                0.14897753               -0.54265331               -1.49400754               11.99134806                1.74002119
              12.64212091                8.26239623               34.92833670                0.50930435                0.28348754                0.26920537               -0.95062367               -0.02274224                0.10239594                0.83423175
              13.64552928                8.08571909               34.74483761                0.90888568                0.34083726                0.44187679               -1.34262053                0.01359423               -0.00287508               -0.60505576
               3.93836851               11.05527563               35.05463280                1.00000000                0.08863054                0.01916548               -0.15808186                0.02022005                0.40320464                0.63015079
               4.93925482               10.86027658               34.87839768                0.81688478                0.12534994                0.10974917               -0.42226777                0.04122617                0.81937856               -0.52600463
               5.94087551               10.66479413               34.71037785                0.49858049               -0.49225092                0.19681406               -0.69084728                0.33804637               13.40174199               -1.00207590
               6.92940980               10.47478954               34.78569013                0.36873275               -1.20482782                0.81178340               -0.67603470                0.17799520               25.38769535               -0.11904773
               7.91677895               10.27613296               34.85138028                0.35834782               -1.39770257                0.87909964               -0.69382494               -0.16866697               25.17398400                0.11205386
               8.90145575               10.07432843               34.91788926                0.37153549               -1.74529411                1.01671668               -0.72599735               -0.33472097               25.72807474                0.27435032
               9.88187307                9.86915860               34.99094754                0.40725161               -2.38597903                1.16541445               -0.72743123               -0.67664735               27.10497639                0.53594992
              10.85373617                9.65998720               35.08185462                0.55759217               -3.27469022                1.36494091               -0.61565419               -1.80580680               26.47944631                1.54503882
              11.81637927                9.44156311               35.13961788                0.68626188               -1.78671916                0.19697004               -0.62532129               -2.08396239               13.25638766                0.90521993
              12.81800178                9.26526848               34.96391759                0.77147638                0.25716410                0.28722457               -1.00990337                0.01034460                1.05359388                0.59584197
              13.82152255                9.09000824               34.77724894                0.95398408                0.35207661                0.42891520               -1.39292058                0.07330385                0.52496827               -0.56434268
               2.02947787                1.13298132               36.51654788                1.00000000               -0.34643382               -0.37081428                1.28162067               -0.05767103               -0.98198702                0.99337009
               3.02601353                0.91747956               36.40525448                1.00000000               -0.30466556               -0.28659484                1.02731181               -0.03608400               -1.28670026                0.12984003
               4.02338456                0.70153383               36.28788699                1.00000000               -0.21334330               -0.20448840                0.75808390               -0.04208637               -1.26242359               -0.20832537
               5.02174666                0.48525769               36.17707700                0.62892201               -0.00839568               -0.14113463                0.49668757               -0.00258071               -0.45971094               -0.88466847
               6.02321664                0.26969413               36.07577986                0.70512813                0.15733274               -0.09911586                0.19937432               -0.07324233               -0.08260723                0.28685286
               7.02489332                0.05572878               35.97311035                0.77995521                0.17204394                0.00287509               -0.04633121               -0.07011190               -0.30074458                0.16675511
               8.02665752               -0.15689359               35.86693327                0.77170375                0.21207525                0.07782075               -0.28294892               -0.04725753               -0.51521173               -0.06005157
               9.02913482               -0.36861974               35.75929763                0.86057350                0.25926196                0.15073223               -0.50672231               -0.06338760               -0.80954115                0.10722830
              10.03184276               -0.57946464               35.64656808                1.00000000                0.28459192                0.23017171               -0.76419265               -0.05843576               -1.14789175                0.60553527
              11.03482666               -0.78997070               35.53182297                1.00000000                0.32888544                0.31926594               -1.03467557               -0.03839076               -1.12186019                0.00072707
              12.03842047               -1.00073962               35.41956217                1.00000000                0.35938078                0.41952391               -1.31851563               -0.01513358               -0.99956384               -0.98622433
               2.24440291                2.12927317               36.46882153                1.00000000               -0.30264757               -0.35970052                1.14095892               -0.01347330               -0.15851349                1.35467278
               3.24137643                1.91461362               36.35732934                1.00000000               -0.26641416               -0.26689150                0.88908238                0.00856302               -0.19888642                0.18530236
               4.23907463                1.69948894               36.24502310                0.94167401               -0.18678654               -0.17861370                0.61913089               -0.00636304               -0.07322099               -0.49924752
               5.23764070                1.48384635               36.13597047                0.26190352               -0.09129749               -0.11483555                0.34366738                0.01873224                1.55559407               -1.26083933
               6.23724868                1.26870297               36.05603043                0.40738966               -0.00773212               -0.03728724                0.05840302               -0.08253129                2.45637480                0.96795469
               7.23748606                1.05575753               35.96262940                0.50383248                0.05552627                0.04875031               -0.18290790               -0.03369947                1.60643912                0.46333675
               8.23835920                0.84388461               35.86460218                0.42057796                0.11502049                0.12642197               -0.41232858               -0.00636673                1.52163941               -0.26823876
               9.23978647                0.63288759               35.76894317                0.50802897                0.17873411                0.19481804               -0.63815916               -0.04396512                1.56298175                0.49357720
              10.24193389                0.42283707               35.67135498                1.00000000                0.26468854                0.25544866               -0.88302379               -0.03001390                0.81633866                0.84520877
              11.24508024                0.21322196               35.56063553                1.00000000                0.35520837                0.32896114               -1.16312216                0.00483699                0.09588038                0.14856466
              12.24903805                0.00345562               35.44859606                1.00000000                0.39578104                0.44699186               -1.44452697                0.03013803                0.03338984               -1.15395590
               2.45852752                3.12578731               36.42836690                1.00000000               -0.25584974               -0.34126666                1.01033294               -0.00816326                0.04694267                1.71347611
               3.45596902                2.91214173               36.31051706                1.00000000               -0.22514781               -0.23013469                0.75894037                0.01153774                0.23023032                0.17579770
               4.45402456                2.69796155               36.19630723                0.65093768               -0.15308719               -0.12200904                0.50968445               -0.01965536                0.67240871               -1.26033354
               5.45290728                2.48296098               36.08724967                0.00010000               -0.21848635               -0.07809177                0.21388573                0.03917179                4.52794671               -1.97696305
               6.44965484                2.26894839               36.05008973                0.00010000               -0.19347953               -0.04690063               -0.12369026               -0.08476941                5.67974370               -1.11221618
               7.44903769                2.05670378               35.95810356                0.00010000               -0.01273534               -0.04033184               -0.32088166               -0.14309944                2.59538906               -0.04975936
               8.44940013                1.84563484               35.85810619                0.00010000                0.01326860               -0.00980914               -0.53297482               -0.20012005                3.63053922                0.81569792
               9.44930306                1.63527662               35.78633290                0.00010000                0.07539905                0.02629178               -0.78993927               -0.21491937                4.38638612                1.44294151
              10.45090811                1.42564433               35.70093133                0.41986799                0.25008981                0.23380718               -1.01869511               -0.19665309                2.54335069                1.87182604
              11.45430486                1.21660852               35.59244327                1.00000000                0.38238994                0.33228219               -1.28656830               -0.06975006                0.91279082                0.88878081
              12.45855591                1.00820022               35.47434297                1.00000000                0.42510529                0.51033576               -1.56665604                0.01388098                0.44119635               -1.05660443
               2.67153079                4.12244784               36.38788888                1.00000000               -0.20978469               -0.32231960                0.87866608               -0.01497946                0.11868607                1.59241012
               3.66943294                3.91001092               36.26239785                1.00000000               -0.18342600               -0.19029518                0.62749051                0.00256034                0.18408488               -0.00048712
               4.66786227                3.69704876               36.13817587                0.36677934               -0.09978189               -0.06485819                0.39136892               -0.07823612                1.13414423               -1.67600402
               5.66743731                3.48228451               36.03166002                0.00010000               -0.30258911               -0.01601407                0.13374731               -0.11100648                5.22985375               -2.65879597
               6.66181049                3.26776496               35.98928341                0.00010000               -0.47498462               -0.04461741               -0.13650706               -0.26205457                8.06603489               -2.74131305
               7.65793761                3.05495089               35.93743492                0.00010000               -0.30132638               -0.09648407               -0.38027921               -0.38670334                7.30647977               -0.49297289
               8.65578396                2.84368843               35.87729219                0.00010000               -0.12295075               -0.14479700               -0.61457275               -0.49228344                6.88066611                1.74085955
               9.65547860                2.63341342               35.81479170                0.00010000                0.04424824               -0.14529320               -0.86241356               -0.33704456                6.56654451                2.32042604
              10.65666893                2.42751322               35.74610833                0.17359939                0.28253775               -0.06804808               -1.21957148               -0.27563333                4.34875528                3.65354968
              11.66112935                2.21986760               35.63596187                0.69503913                0.47316778                0.27889002               -1.47963598               -0.17127215                1.23179370                1.84596229
              12.66613228                2.01366233               35.50541780                1.00000000                0.50029279                0.59637502               -1.73069134               -0.06950394                0.23231871               -0.34433361
               2.88310177                5.11934091               36.34511327                1.00000000               -0.16824607               -0.29077758                0.73720513               -0.02747873                0.18879806                1.33136317
               3.88141931                4.90833583               36.21204358                0.80770874               -0.14577596               -0.13611946                0.48602223               -0.01872661                0.29223067               -0.30955571
               4.88018625                4.69666439               36.08099731                0.19679197               -0.07241790                0.00181494                0.24499040               -0.13347248                1.35312494               -1.79634510
               5.87997095                4.48264070               35.96913266                0.00010000               -0.42194425                0.11084010                0.00951796               -0.33217758                7.00938487               -2.68864049
               6.87174737                4.26805604               35.95116560                0.00010000               -0.72954003                0.09348635               -0.19680046               -0.53311135               11.33496535               -1.08015493
               7.86538015                4.05477410               35.92397724                0.00010000               -0.53277175                0.03887588               -0.43148338               -0.63085831               10.60688841                0.18916100
               8.86109193                3.84273890               35.88924521                0.00010000               -0.33213844               -0.04118226               -0.67765450               -0.68639417               10.13268358                1.52972944
               9.85873738                3.63237076               35.84996726                0.00010000               -0.10753338               -0.10046390               -0.94480903               -0.66019324               10.00819467                2.82038904
              10.85894126                3.42428337               35.81004155                0.14793218                0.29964574               -0.32890395               -1.21637885               -0.33446202                5.97053276                4.37567059
              11.86473030                3.22218632               35.68651292                0.56416772                0.53175519                0.21945504               -1.38677560               -0.02884422                1.02668796                2.20859832
              12.86957637                3.02012772               35.54545233                0.94756101                0.48460704                0.64314046               -1.72450057               -0.07140632                0.20815587                0.17501178
               3.09299139                6.11663229               36.29952456                1.00000000               -0.12564472               -0.24281079                0.58580131               -0.03256227                0.13027119                1.06920025
               4.09173494                5.90728853               36.15769329                0.63976706               -0.10517176               -0.07423733                0.32369793               -0.03307541                0.35407764               -0.62419713
               5.09088795                5.69708506               36.02028584                0.12022883               -0.11664163                0.08402386                0.08408841               -0.15472811                2.06697320               -2.18080295
               6.08940211                5.48450131               35.91271098                0.00010000               -0.59365446                0.18163087               -0.05280703               -0.65207177                9.47237943               -0.84031345
               7.07901486                5.26963469               35.92341158                0.00010000               -0.93822626                0.19603305               -0.23282311               -0.85805403               14.65379925               -0.07342200
               8.07063758                5.05572841               35.91737729                0.00010000               -0.72777207                0.14277815               -0.47608047               -0.92412035               13.60596461                0.78843415
               9.06445942                4.84286479               35.90461227                0.00010000               -0.49536550                0.04638688               -0.71789662               -0.98254253               13.25989568                1.83619920
              10.06073027                4.63140414               35.88873189                0.00010000               -0.21476478               -0.08571179               -0.96933284               -1.02461815               13.23688650                3.04467581
              11.06016412                4.42093514               35.87202438                0.15171028                0.19889248               -0.28230576               -1.26013388               -0.45516987                7.54054602                4.29348816
              12.06470812                4.22425670               35.73747880                0.51671092                0.43286202                0.19866090               -1.19700133                0.07105510                0.91262026                2.11848900
              13.06882136                4.02652514               35.58617000                0.92952281                0.41132444                0.61151373               -1.53689761               -0.03403021                0.11444039                0.21288830
               3.30113804                7.11448470               36.25160258                1.00000000               -0.08330086               -0.18260692                0.42936665               -0.02942861                0.05400325                0.89250723
               4.30030503                6.90685108               36.10093551                0.54179945               -0.06295662               -0.02101525                0.16324814               -0.03001896                0.30041695               -0.77047485
               5.29987891                6.69834487               35.95513564                0.07809522               -0.29625705                0.15037600               -0.08958910               -0.20461556                4.43253240               -2.51345642
               6.29437989                6.48627332               35.88710274                0.00010000               -0.82598583                0.17084115                0.08977190               -0.87839426               12.65033060                1.17994596
               7.28335919                6.27197670               35.90550641                0.00010000               -1.03561224                0.27732002               -0.27199773               -1.05359646               16.71709825                0.68193398
               8.27366764                6.05762967               35.91620458                0.00010000               -0.87969223                0.24773588               -0.51409667               -1.18690792               16.29033014                1.18458851
               9.26576534                5.84366664               35.92310974                0.00010000               -0.67464900                0.12499666               -0.72900528               -1.31930767               16.21755098                2.02676208
              10.26017466                5.63065653               35.92890749                0.00010000               -0.43900198               -0.04181594               -0.93026554               -1.45536714               16.40936894                3.07654778
              11.25698531                5.41863725               35.93556081                0.17055505                0.01933643               -0.17375928               -1.12117427               -0.74543727                8.92973655                4.29218203
              12.26056139                5.22615954               35.78673400                0.49095407                0.36867881                0.19241016               -1.08882596                0.08212533                0.63776935                1.90808268
              13.26435888                5.03235799               35.62608903                0.91882696                0.37974887                0.56810045               -1.44137591               -0.01099214                0.07531082                0.09614120
               3.50767004                8.11298015               36.20253687                1.00000000               -0.03956519               -0.11890601                0.27425470               -0.02663627                0.01767186                0.82225494
               4.50727439                7.90686823               36.04351706                0.50282143               -0.01483203                0.02074174                0.00756060               -0.01581024                0.16654858               -0.79505989
               5.50737340                7.70009258               35.88739946                0.05295539               -0.45360023                0.17985012               -0.26499027               -0.26396804                7.34639353               -2.64646102
               6.49820239                7.48791814               35.87193252                0.00010000               -1.03934091                0.26971889               -0.05212762               -0.80560564               16.28041190                1.04932928
               7.48658658                7.27518109               35.89323831                0.00010000               -1.14964547                0.41258878               -0.34978185               -1.01155728               18.42775757                0.89888392
               8.47520948                7.06068313               35.91795833                0.00010000               -1.07700893                0.41449420               -0.56122412               -1.34009080               18.76983920                1.28164583
               9.46504641                6.84536472               35.94281975                0.00010000               -0.92785808                0.25803134               -0.72586018               -1.65249583               19.03666290                2.02369463
              10.45665232                6.63056783               35.96895879                0.00010000               -0.76470219                0.04472396               -0.84240189               -1.87065181               19.49092300                2.92014341
              11.44975236                6.41745995               35.99841112                0.20248951               -0.20112145               -0.05628422               -0.87805154               -1.03082470               10.19406576                3.96183481
              12.45262989                6.22810491               35.83382807                0.47932960                0.32261273                0.20810866               -1.02568704                0.05887462                0.27934130                1.64370461
              13.45620462                6.03788715               35.66411630                0.91138471                0.35747301                0.53441663               -1.38974059                0.00107388                0.04611313               -0.13057452
               3.71282916                9.11210658               36.15322188                1.00000000                0.00472354               -0.05779813                0.12119080               -0.02459968                0.00303010                0.82550094
               4.71287640                8.90726592               35.98612948                0.51487328                0.03602372                0.05826451               -0.14495065               -0.00478472                0.01759508               -0.77418936
               5.71354963                8.70194187               35.81923844                0.03912649               -0.48485634                0.18476044               -0.42685469               -0.22166083                9.63363239               -2.45460747
               6.70317927                8.49166770               35.84438775                0.00010000               -1.15932905                0.48211362               -0.34543327               -0.56039557               19.88640651                0.12686467
               7.69036305                8.28022847               35.88018202                0.00010000               -1.32485364                0.62307630               -0.48498390               -0.83488916               20.74358086                0.65351985
               8.67668220                8.06591955               35.91933467                0.00010000               -1.37661623                0.66209547               -0.63037916               -1.29861708               21.27385704                1.05559554
               9.66283073                7.84882727               35.96203738                0.00010000               -1.30079019                0.56580228               -0.74132341               -1.83667877               21.76570765                1.73668061
              10.65066639                7.63155100               36.00679185                0.00905924               -1.19995001                0.22066629               -0.77339467               -2.33459358               22.32197990                2.91205567
              11.63883173                7.41751157               36.05589791                0.24761243               -0.46773537                0.05870402               -0.67042165               -1.30378784               11.39715486                3.20432172
              12.64131169                7.23032171               35.87797043                0.48049812                0.29920686                0.24251378               -0.99768086                0.01309637                0.03420351                1.31962165
              13.64481587                7.04304633               35.69932881                0.90647080                0.35041813                0.49427814               -1.37808090                0.00994518                0.01869922               -0.43147566
               3.91685937               10.11182419               36.10419702                1.00000000                0.04840368               -0.00199198               -0.03003098               -0.02359952               -0.01988370                0.73206759
               4.91734341                9.90803352               35.92899418                0.54978525                0.08395182                0.09596013               -0.29373777               -0.00170387                0.04981764               -0.64337857
               5.91853841                9.70378779               35.75508325                0.00766149               -0.43177692                0.19363628               -0.57065431               -0.07340402               11.60418550               -1.62264839
               6.90870787                9.49756041               35.81086964                0.00010000               -1.14507293                0.66169767               -0.57127206               -0.25620835               23.10103850               -0.12430644
               7.89563695                9.28764261               35.86349562                0.00010000               -1.40347642                0.78672110               -0.63766681               -0.50313766               23.21412307                0.29492007
               8.88063834                9.07392504               35.91731725                0.00010000               -1.64777865                0.89390518               -0.72756098               -0.85318136               23.76973622                0.58411693
               9.86268138                8.85668076               35.97697802                0.00010000               -1.96810983                0.97257279               -0.79899412               -1.45368904               24.82189801                1.02916038
              10.84127614                8.63498115               36.04777671                0.06933268               -1.88877400                0.86684798               -0.82402666               -2.12670784               24.85781463                2.30503823
              11.82490590                8.41863403               36.10367703                0.30815106               -0.69595431                0.16268523               -0.59767290               -1.54744194               12.23969995                1.81097740
              12.82735706                8.23295518               35.91854883                0.49103992                0.30242009                0.28375735               -1.00816979               -0.02281279                0.09211689                0.87249467
              13.83095430                8.04777272               35.73109266                0.89542734                0.35972396                0.46085067               -1.40726215                0.01259454               -0.00461255               -0.58165934
               4.11993851               11.11206674               36.05295447                1.00000000                0.09402060                0.02425507               -0.17688978                0.01975224                0.39948873                0.62583699
               5.12087872               10.90918512               35.87409093                0.81678510                0.13080751                0.11516032               -0.43993433                0.04092374                0.81315511               -0.52570792
               6.12255466               10.70581459               35.70338695                0.49760108               -0.33392199                0.20268049               -0.71056030                0.18745195               13.52740327               -0.99284638
               7.11420028               10.50490165               35.77867015                0.36889857               -0.93094940                0.73412406               -0.73148448                0.05665599               25.65285527               -0.13889167
               8.10393567               10.29596290               35.84402222                0.35849569               -1.18099300                0.83202834               -0.78278512               -0.22532733               25.43678233                0.10545753
               9.09058042               10.08379765               35.91003019                0.37131642               -1.56174202                0.98726169               -0.85279921               -0.39000084               26.01873093                0.28833331
              10.07270083                9.86827873               35.98280825                0.40634667               -2.22007261                1.15979613               -0.91100498               -0.74353869               27.47565221                0.56398241
              11.04617897                9.64888796               36.07421628                0.55826389               -3.13959873                1.39068127               -0.94234909               -1.88539041               26.96453470                1.60578371
              12.00990886                9.42076527               36.13306309                0.68463583               -1.72311094                0.21312401               -0.68716627               -2.14425884               13.52340629                0.90841823
              13.01171675                9.23599686               35.95351087                0.76231526                0.27619157                0.30416784               -1.07027420                0.01087214                1.07252164                0.60867379
              14.01543269                9.05226334               35.76296206                0.94724504                0.37159433                0.44906229               -1.46467941                0.07448705                0.54243530               -0.55608242
               2.13215033                1.19139501               37.52939424                1.00000000               -0.34760128               -0.37359237                1.28984505               -0.05821179               -0.99744979                1.00416517
               3.12867432                0.96742891               37.41552950                1.00000000               -0.30486590               -0.28704155                1.02855588               -0.03563904               -1.31077955                0.13697202
               4.12605301                0.74301309               37.29543119                1.00000000               -0.21255910               -0.20279151                0.74991612               -0.04201693               -1.28925086               -0.20771734
               5.12442314                0.51820081               37.18197344                0.63071646               -0.01997911               -0.13657606                0.48009249               -0.04894157               -0.49865031               -0.90114327
               6.12565343                0.29303045               37.07763946                0.70088196                0.16057948               -0.10896203                0.16476244               -0.06888936               -0.10098722                0.28573245
               7.12763473                0.06857740               36.97249302                0.77011213                0.20687459                0.00240295               -0.08751174               -0.07632073               -0.27456407                0.16518077
               8.12979092               -0.15448355               36.86397113                0.76263809                0.25046239                0.07857122               -0.31938239               -0.05030532               -0.46234004               -0.05927502
               9.13264397               -0.37650357               36.75415742                0.85370876                0.28796014                0.15112299               -0.52913099               -0.06705163               -0.75496814                0.10898558
              10.13555013               -0.59750281               36.63892330                1.00000000                0.29673265                0.23167079               -0.77037336               -0.06278873               -1.11147223                0.62182622
              11.13857863               -0.81806660               36.52153169                1.00000000                0.33103729                0.31963622               -1.03082850               -0.04049954               -1.09842421                0.01072400
              12.14217087               -1.03888621               36.40643075                1.00000000                0.35922446                0.41810398               -1.31399771               -0.01466041               -0.98216329               -0.96174764
               2.35553432                2.18765909               37.48024961                1.00000000               -0.30254264               -0.36308532                1.14658830               -0.01291303               -0.16579954                1.36938320
               3.35250889                1.96455850               37.36621178                1.00000000               -0.26437086               -0.26709473                0.88800822                0.00984122               -0.21621956                0.19604222
               4.35024690                1.74098518               37.25117217                0.95342017               -0.17919230               -0.17660178                0.60967234               -0.00742020               -0.10160156               -0.48386158
               5.34892504                1.51683505               37.13934280                0.26859573               -0.02353277               -0.10843493                0.32825418               -0.04612378                1.51863815               -1.26646075
               6.34977624                1.29194083               37.05646607                0.40772488                0.08517395               -0.05610607                0.02476406               -0.07404021                2.44773971                0.94429374
               7.35062852                1.06860143               36.96062461                0.49997778                0.10260551                0.04634076               -0.22271922               -0.04206514                1.64502249                0.46229446
               8.35182835                0.84630216               36.86031887                0.41987025                0.14272812                0.12937751               -0.44686458               -0.01470762                1.58151270               -0.26261939
               9.35348308                0.62500766               36.76246582                0.50799639                0.19376996                0.19947721               -0.65607496               -0.04289993                1.62193963                0.48873070
              10.35570375                0.40481390               36.66247603                1.00000000                0.26911245                0.25887419               -0.89260575               -0.03505559                0.84713070                0.85539172
              11.35886533                0.18512977               36.54897190                1.00000000                0.35700648                0.33293587               -1.16944595                0.00247968                0.10508462                0.16301042
              12.36284388               -0.03470517               36.43411513                1.00000000                0.39785486                0.44524276               -1.45092282                0.03085336                0.03881141               -1.12406852
               2.57809326                3.18413331               37.43848065                1.00000000               -0.25482023               -0.34593488                1.01424799               -0.00756297                0.04500291                1.73182997
               3.57554506                2.96208702               37.31809103                1.00000000               -0.22325979               -0.22971828                0.75622587                0.01164934                0.22828507                0.18977124
               4.57362806                2.73948106               37.20135395                0.66760804               -0.15000228               -0.11698854                0.49888440               -0.02321348                0.64857477               -1.23368224
               5.57254501                2.51603211               37.08930947                0.00010000               -0.06109078               -0.06918933                0.19657120               -0.05271796                4.45718317               -1.94598151
               6.57240625                2.29190833               37.04865973                0.00010000               -0.00564567               -0.07326144               -0.16613383               -0.26992097                5.68205435               -1.07085758
               7.57243210                2.06950421               36.95469028                0.00010000                0.03421447               -0.04356547               -0.36396136               -0.30176337                2.67922645               -0.01383597
               8.57309054                1.84810400               36.85257248                0.00010000                0.04210679               -0.00803304               -0.56971627               -0.32304263                3.69785305                0.83830066
               9.57327423                1.62748598               36.77836165                0.00010000                0.08181863                0.02142199               -0.79305959               -0.28020932                4.44061186                1.44967533
              10.57472691                1.40767468               36.69066531                0.41754002                0.24365296                0.26382274               -1.02926524               -0.17588761                2.57474718                1.82821502
              11.57814729                1.18859212               36.57942557                1.00000000                0.38654515                0.34500865               -1.30691355               -0.06239626                0.91660064                0.86896107
              12.58245781                0.97001865               36.45855465                1.00000000                0.43105201                0.50619440               -1.58157116                0.01723652                0.43770872               -1.04441841
               2.79947564                4.18074039               37.39667698                1.00000000               -0.20815096               -0.32795583                0.88080466               -0.01503781                0.12144027                1.60438887
               3.79739413                3.95996413               37.26865074                1.00000000               -0.18190479               -0.18859561                0.62329073                0.00209931                0.19381912                0.00753211
               4.79583754                3.73864541               37.14204812                0.36861093               -0.09753565               -0.05616677                0.38148079               -0.08433336                1.14034757               -1.66734453
               5.79544341                3.51545126               37.03291770                0.00010000               -0.24659104               -0.00488013                0.11489631               -0.22283699                5.21637066               -2.62253217
               6.79090572                3.29047560               36.98774829                0.00010000               -0.35229123               -0.05348135               -0.17376292               -0.55571871                8.06835883               -2.64366120
               7.78839759                3.06773012               36.93339084                0.00010000               -0.17599911               -0.10953616               -0.43117419               -0.64849732                7.34158927               -0.42236625
               8.78738574                2.84614150               36.87084934                0.00010000               -0.00446858               -0.15696430               -0.67486336               -0.72594768                6.92263450                1.78314870
               9.78830822                2.62543610               36.80576092                0.00010000                0.18470584               -0.16600843               -0.93875592               -0.46957173                6.56236609                2.34886820
              10.79107985                2.41009036               36.73360787                0.15841171                0.34826111               -0.09631834               -1.23116456               -0.30192921                4.31122615                3.60995604
              11.79527344                2.19202994               36.62085698                0.65581001                0.46278553                0.27973943               -1.51067388               -0.19372611                1.25759247                1.90415844
              12.80033556                1.97541872               36.48788198                1.00000000                0.50621253                0.59985997               -1.74938939               -0.07251386                0.24640950               -0.28925242
               3.01934502                5.17757419               37.35247495                1.00000000               -0.16629974               -0.29634392                0.73681449               -0.02847252                0.19555713                1.33249376
               4.01768203                4.95831511               37.21687199                0.79813708               -0.14453781               -0.13198992                0.47995547               -0.02102265                0.30379998               -0.31761797
               5.01645427                4.73835772               37.08340045                0.19325014               -0.07119751                0.01456076                0.23470222               -0.14386473                1.37303421               -1.80964092
               6.01625808                4.51593450               36.96915925                0.00010000               -0.37206270                0.11779299               -0.00836966               -0.45525801                7.04366086               -2.63777187
               7.00901301                4.29083870               36.94902747                0.00010000               -0.62309111                0.09534670               -0.23431427               -0.74739888               11.37437658               -0.99657158
               8.00379625                4.06731349               36.91937696                0.00010000               -0.40737079                0.01982096               -0.49218226               -0.83911775               10.63320095                0.26290024
               9.00086560                3.84496471               36.88205782                0.00010000               -0.19311580               -0.06272515               -0.76295440               -0.88673322               10.14956794                1.58882432
               9.99993394                3.62416581               36.83996539                0.00010000                0.06144435               -0.12467890               -1.05817598               -0.83399077               10.00773723                2.86617642
              11.00209449                3.40574831               36.79685805                0.13487437                0.45052339               -0.41707615               -1.42767373               -0.41537486                6.05608763                4.44118968
              12.00894441                3.19418691               36.67175290                0.52899148                0.60677456                0.19184368               -1.51790300               -0.02724229                1.09359897                2.47142210
              13.01422998                2.98201585               36.52762000                0.92664120                0.52855701                0.66599118               -1.79611591               -0.08235372                0.17388380                0.37550598
               3.23742436                6.17481352               37.30535879                1.00000000               -0.12342145               -0.24696391                0.58259898               -0.03334727                0.12856475                1.06191791
               4.23619014                5.95732433               37.16088012                0.62787805               -0.10417547               -0.06792531                0.31354821               -0.03531246                0.36397828               -0.64169027
               5.23534085                5.73893662               37.02106723                0.11568976               -0.11664342                0.10075790                0.07037219               -0.17672179                2.14563585               -2.20806403
               6.23385727                5.51780712               36.91220329                0.00010000               -0.53810447                0.15956706               -0.05237100               -0.78877853                9.57584565               -0.65379876
               7.22457876                5.29238254               36.92091283                0.00010000               -0.81840237                0.18588212               -0.27120355               -1.06609528               14.69961634                0.02046974
               8.21748923                5.06812654               36.91227712                0.00010000               -0.58900017                0.12655106               -0.54857794               -1.10514682               13.62620900                0.87085817
               9.21279875                4.84488699               36.89692387                0.00010000               -0.33222126                0.02480120               -0.82529993               -1.15113339               13.27492634                1.92422753
              10.21084480                4.62294252               36.87827953                0.00010000               -0.00237506               -0.11283847               -1.13013383               -1.17779336               13.21605227                3.15421105
              11.21275125                4.40174883               36.85820127                0.13942658                0.38081285               -0.34123066               -1.52712703               -0.50828385                7.73228430                4.46760319
              12.21846106                4.19586681               36.72492213                0.48963053                0.51396837                0.16692919               -1.31142940                0.07475760                1.12846895                2.40195057
              13.22303062                3.98873854               36.57035721                0.91129995                0.45695623                0.63627696               -1.61208931               -0.04684843                0.10728899                0.45294455
               3.45365644                7.17263491               37.25585727                1.00000000               -0.08037721               -0.18469216                0.42303994               -0.02970161                0.05109145                0.88256798
               4.45285267                6.95695660               37.10250677                0.53163973               -0.06096969               -0.01408876                0.15054780               -0.03116863                0.30374390               -0.78408608
               5.45243705                6.74037288               36.95415398                0.07357475               -0.29080377                0.16771991               -0.11003287               -0.26076196                4.67164019               -2.54702240
               6.44703659                6.51912585               36.88813013                0.00010000               -0.75326785                0.13282593                0.10922095               -1.00767268               12.82621062                1.30311397
               7.43737169                6.29455634               36.90257129                0.00010000               -0.89238673                0.25769918               -0.32070957               -1.22829571               16.67022922                0.75732301
               8.42918886                6.06984451               36.91066707                0.00010000               -0.71723736                0.22554266               -0.59938703               -1.34961215               16.32775409                1.27289741
               9.42302694                5.84546073               36.91523460                0.00010000               -0.48363134                0.09655967               -0.85418316               -1.46547144               16.27262070                2.14821760
              10.41951623                5.62190904               36.91878070                0.00010000               -0.20112129               -0.07426770               -1.10992904               -1.60166853               16.47041705                3.26411309
              11.41900452                5.39892370               36.92319338                0.15798021                0.19668081               -0.21698257               -1.38716256               -0.80632098                9.18197251                4.62232099
              12.42344985                5.19752549               36.77545799                0.46891302                0.42725163                0.17368821               -1.16937221                0.08762580                0.85867278                2.09922045
              13.42754955                4.99474138               36.61142339                0.90321815                0.40997016                0.57867372               -1.48876491               -0.01887004                0.07518217                0.25127603
               3.66818695                8.17111967               37.20522606                1.00000000               -0.03581492               -0.11913557                0.26476612               -0.02687172                0.01601938                0.81302764
               4.66782880                7.95704256               37.04352218                0.49546333               -0.01152945                0.02768465               -0.00713704               -0.01576229                0.16132071               -0.80442533
               5.66795636                7.74229102               36.88465031                0.05086274               -0.41542228                0.19527833               -0.28672135               -0.34665717                7.57765493               -2.67198160
               6.65952036                7.52046364               36.87120714                0.00010000               -0.93310913                0.25351080               -0.09978090               -0.93768810               16.51035107                0.95376621
               7.64929418                7.29753652               36.88945688                0.00010000               -0.99638810                0.39063709               -0.41288913               -1.16925845               18.44935913                0.93146682
               8.63959259                7.07263739               36.91188498                0.00010000               -0.89346909                0.38417358               -0.66049133               -1.49298266               18.85988907                1.36433983
               9.63142480                6.84681819               36.93493455                0.00010000               -0.71220638                0.21894138               -0.86125725               -1.79050499               19.17892634                2.15559424
              10.62534847                6.62145717               36.95975966                0.00010000               -0.52082106                0.00004805               -1.01509112               -2.01219490               19.70942783                3.13871363
              11.62100838                6.39740918               36.98876681                0.18952281               -0.04762903               -0.07598108               -1.08531259               -1.10193644               10.46165396                4.32884132
              12.62439589                6.19934058               36.82324536                0.45985581                0.36065313                0.20152720               -1.09401165                0.06442343                0.40826269                1.77753647
              13.62822144                6.00031202               36.64997228                0.89736509                0.38255528                0.54117234               -1.43688337               -0.00265318                0.04693781               -0.03611971
               3.88127323                9.17025220               37.15436605                1.00000000                0.00928404               -0.05634702                0.10851931               -0.02477531                0.00191251                0.81700173
               4.88136607                8.95751029               36.98459865                0.51050165                0.04047961                0.06537514               -0.16216076               -0.00453152                0.00844930               -0.77927367
               5.88208283                8.74427845               36.81486943                0.03762320               -0.41643698                0.19667432               -0.44916744               -0.31554057                9.78988172               -2.46109330
               6.87303733                8.52419606               36.84063511                0.00010000               -1.01350280                0.47197727               -0.40860569               -0.72610279               20.12808131                0.01440881
               7.86181277                8.30236909               36.87496493                0.00010000               -1.14948982                0.59318211               -0.56418140               -0.99461684               20.88712746                0.65442233
               8.85004754                8.07752798               36.91250183                0.00010000               -1.17078527                0.62553450               -0.74339756               -1.44470084               21.44098801                1.12061272
               9.83839706                7.84983956               36.95390939                0.00010000               -1.06830988                0.52493053               -0.89374002               -1.97976734               22.01111763                1.84644156
              10.82868134                7.62191000               36.99833125                0.00218437               -0.96573421                0.17784836               -0.93306384               -2.46650902               22.70662383                3.03962128
              11.81908238                7.39740408               37.04867797                0.23546469               -0.34229291                0.06192967               -0.79390006               -1.37404656               11.67383532                3.47800544
              12.82183548                7.20155604               36.86768578                0.46194510                0.32356144                0.24825510               -1.06321034                0.01562432                0.06711235                1.41147274
              13.82555361                7.00556483               36.68527027                0.89312329                0.37181267                0.50703152               -1.43457635                0.00727553                0.01874647               -0.38479096
               4.09317526               10.16999273               37.10381317                0.99758492                0.05366632                0.00126348               -0.04650885               -0.02366020               -0.01980876                0.72603520
               5.09371193                9.95835006               36.92597066                0.54756295                0.08922594                0.10293152               -0.31253607               -0.00244280                0.04298080               -0.64409182
               6.09495978                9.74622451               36.74927301                0.00664052               -0.34021324                0.20256789               -0.59409560               -0.18426754               11.72272648               -1.61561213
               7.08690766                9.52990318               36.80490552                0.00010000               -0.94449294                0.61073134               -0.62597354               -0.40150241               23.33463261               -0.16885772
               8.07606992                9.30940016               36.85669354                0.00010000               -1.18397794                0.74099147               -0.72815865               -0.62066543               23.42475212                0.29159355
               9.06322810                9.08514808               36.90944413                0.00010000               -1.43112446                0.85706128               -0.85362200               -0.95432795               23.99957943                0.62075622
              10.04744743                8.85731680               36.96814220                0.00010000               -1.73871653                0.94691207               -0.97487449               -1.56654901               25.10079022                1.09078345
              11.02845377                8.62501414               37.03823394                0.06564868               -1.67830142                0.86568699               -1.09112887               -2.22891715               25.38147133                2.32399911
              12.01388141                8.39864777               37.09740742                0.29948873               -0.59530778                0.17776471               -0.66373508               -1.61190171               12.59220954                1.91885267
              13.01654762                8.20430568               36.90817330                0.47274504                0.32339792                0.29809169               -1.07017542               -0.02386858                0.08299606                0.91857012
              14.02034936                8.01045265               36.71669236                0.88217780                0.38017472                0.47914796               -1.47540106                0.01045967               -0.00761381               -0.57018213
               4.30408537               11.17027747               37.05109500                1.00000000                0.10000721                0.02847404               -0.19522884                0.02015586                0.39583184                0.62195563
               5.30508544               10.95956892               36.86959900                0.81652001                0.13794922                0.12188621               -0.46122113                0.03996825                0.80557558               -0.52384166
               6.30684435               10.74832981               36.69616665                0.49646627               -0.16269044                0.21052974               -0.73669264                0.03054551               13.63416101               -0.98205107
               7.30183163               10.53641069               36.77106044                0.36901367               -0.63448949                0.65075061               -0.79468412               -0.06464730               25.88443988               -0.16044038
               8.29415456               10.31718892               36.83572458                0.35862701               -0.93936452                0.77887547               -0.88193155               -0.27860992               25.66658252                0.10076511
               9.28304434               10.09466921               36.90083327                0.37109762               -1.34772685                0.95211278               -0.99230278               -0.43893167               26.26901090                0.30364398
              10.26720003                9.86877780               36.97272744                0.40545158               -2.01361610                1.14610047               -1.10887358               -0.79701404               27.75306312                0.58702897
              11.24277202                9.63922374               37.06300764                0.55748968               -2.98236126                1.42096024               -1.30445374               -1.95909679               27.53755262                1.59274571
              12.20755280                9.40095937               37.12587456                0.68159373               -1.66093911                0.23115947               -0.75649291               -2.21815359               13.95329239                0.92650474
              13.20955324                9.20751787               36.94251211                0.75321245                0.29580327                0.32121925               -1.13058734                0.00998326                1.10202878                0.62904898
              14.21346887                9.01514779               36.74795536                0.94049293                0.39156294                0.46951436               -1.53873082                0.07494226                0.56320814               -0.55670754
               2.23725834                1.25135387               38.54234478                1.00000000               -0.34973497               -0.37794462                1.30367197               -0.05951597               -1.01607120                1.01640112
               3.23376099                1.01885446               38.42582560                1.00000000               -0.30513670               -0.28815199                1.03208745               -0.03596877               -1.34007431                0.14443604
               4.23115560                0.78589751               38.30288531                1.00000000               -0.20978012               -0.20085610                0.74025298               -0.04232022               -1.32277581               -0.20741169
               5.22956538                0.55249611               38.18667885                0.63376557               -0.02391407               -0.13150086                0.45810720               -0.09167932               -0.55098089               -0.91801967
               6.23067732                0.31775555               38.07907510                0.69848103                0.17524916               -0.11869799                0.11424280               -0.06191016               -0.13454922                0.28149569
               7.23307037                0.08276922               37.97136012                0.76204316                0.25344982                0.00369431               -0.14972251               -0.08017229               -0.24872378                0.15922713
               8.23574632               -0.15077458               37.86054562                0.75461001                0.30064614                0.08054536               -0.37533929               -0.05110899               -0.39521557               -0.06253216
               9.23908329               -0.38305682               37.74871501                0.84811054                0.32463650                0.15147901               -0.56449514               -0.06946848               -0.67622377                0.11168787
              10.24223905               -0.61413358               37.63116062                1.00000000                0.31337194                0.23364853               -0.78654273               -0.06585389               -1.05418928                0.63497825
              11.24535073               -0.84463664               37.51120640                1.00000000                0.33700201                0.32249229               -1.03973894               -0.04127692               -1.06278628                0.02024717
              12.24897909               -1.07534333               37.39328222                1.00000000                0.36283583                0.41936832               -1.32079602               -0.01579662               -0.95629584               -0.93196306
               2.46916259                2.24757442               38.49175330                1.00000000               -0.30331079               -0.36786678                1.15709881               -0.01272402               -0.17487523                1.38543844
               3.46612948                2.01597294               38.37508951                1.00000000               -0.26255075               -0.26781310                0.88848977                0.01074779               -0.23678514                0.20726977
               4.46391157                1.78388894               38.25721655                0.96573960               -0.17049566               -0.17427736                0.59779744               -0.00849124               -0.13304515               -0.46843258
               5.46271957                1.55118110               38.14253555                0.27572558                0.05050461               -0.10148277                0.30646316               -0.10702976                1.47412947               -1.27273009
               6.46492167                1.31656857               38.05652571                0.40843880                0.19070723               -0.07532679               -0.01839509               -0.05685714                2.42943553                0.91226156
               7.46653371                1.08280616               37.95817501                0.49649700                0.16132896                0.04458056               -0.27362357               -0.04493006                1.68606774                0.45364736
               8.46814824                0.85003087               37.85566488                0.42018006                0.17671968                0.13224875               -0.48852371               -0.02043447                1.65679899               -0.26306056
               9.47006811                0.61845797               37.75582168                0.51032340                0.21110867                0.20159255               -0.67307747               -0.04443917                1.69431640                0.48929340
              10.47237042                0.38820290               37.65350286                1.00000000                0.27373654                0.26051890               -0.90046532               -0.03848021                0.88219017                0.86211060
              11.47554284                0.15858829               37.53724661                1.00000000                0.35787002                0.33696500               -1.17409009                0.00221199                0.11560552                0.17415497
              12.47952782               -0.07114965               37.41957761                1.00000000                0.39849824                0.44441659               -1.45445501                0.02984833                0.04514412               -1.08861009
               2.70020683                3.24399653               38.44865186                1.00000000               -0.25454065               -0.35165528                1.02258963               -0.00735912                0.04194955                1.75161679
               3.69766142                3.01349820               38.32564157                1.00000000               -0.22146071               -0.22961677                0.75437635                0.01120655                0.22438180                0.20458487
               4.69577761                2.78241196               38.20628492                0.68439970               -0.14581301               -0.11167865                0.48583481               -0.02705244                0.62339730               -1.20585456
               5.69474516                2.55046646               38.09118109                0.00010000                0.10687530               -0.05985050                0.17443374               -0.14089787                4.37663864               -1.91665749
               6.69791512                2.31624902               38.04676705                0.00010000                0.19821534               -0.10222864               -0.21685661               -0.45113854                5.66953369               -1.03753332
               7.69870947                2.08366083               37.95082433                0.00010000                0.08853484               -0.04946411               -0.41288110               -0.46219921                2.76653930                0.00851457
               8.69968582                1.85187039               37.84671186                0.00010000                0.06565038               -0.00824025               -0.60449032               -0.44837317                3.78381666                0.84130125
               9.70002248                1.62097503               37.77047171                0.00010000                0.08266571                0.01645337               -0.78647390               -0.34471552                4.49252962                1.41468541
              10.70133913                1.39107680               37.68034603                0.41465483                0.23625245                0.26583452               -1.02852113               -0.17227023                2.58932407                1.80190283
              11.70474752                1.16210266               37.56630500                1.00000000                0.38563992                0.35175791               -1.30781275               -0.05337747                0.91256787                0.84723636
              12.70905193                0.93354500               37.44271155                1.00000000                0.43044045                0.49807952               -1.57749381                0.01836575                0.43190613               -1.02205788
               2.93001208                4.24054132               38.40550497                1.00000000               -0.20738962               -0.33437772                0.88710964               -0.01547092                0.12373232                1.61708004
               3.92793819                4.01138060               38.27486366                1.00000000               -0.18049090               -0.18720540                0.61965466                0.00112205                0.20317816                0.01633643
               4.92640227                3.78165537               38.14580548                0.36972929               -0.09368177               -0.04797463                0.36822566               -0.09072248                1.14515869               -1.65659212
               5.92606455                3.54998409               38.03395795                0.00010000               -0.18488719                0.00666061                0.08872286               -0.33296907                5.19641914               -2.58649112
               6.92270452                3.31452400               37.98580815                0.00010000               -0.21980998               -0.06444759               -0.21890340               -0.85325754                8.06146473               -2.54303054
               7.92166835                3.08181688               37.92881143                0.00010000               -0.04189723               -0.12575011               -0.48824802               -0.91767920                7.36792307               -0.36211552
               8.92186658                2.84986607               37.86379492                0.00010000                0.11495203               -0.17147649               -0.73653238               -0.96103988                6.94953387                1.79895902
               9.92396739                2.61878704               37.79601658                0.00010000                0.29654040               -0.18996785               -0.99941498               -0.61385256                6.58451282                2.31391909
              10.92779738                2.39351959               37.72148503                0.14432915                0.40198470               -0.12815165               -1.19065609               -0.31136087                4.27957814                3.45534576
              11.93200709                2.16562344               37.60574839                0.62630333                0.46065406                0.27234757               -1.49494006               -0.18074261                1.24181776                1.91799544
              12.93701047                1.93881194               37.47043001                1.00000000                0.50033794                0.58088086               -1.72727119               -0.06775453                0.25380582               -0.23950049
               3.15821884                5.23730898               38.35984956                1.00000000               -0.16490325               -0.30264933                0.74027195               -0.03009231                0.20303603                1.33366114
               4.15656981                5.00975409               38.22164269                0.78806266               -0.14295833               -0.12803286                0.47400639               -0.02443150                0.31679428               -0.32638178
               5.15535967                4.78145247               38.08569135                0.18930261               -0.06763285                0.02574404                0.22105313               -0.15395945                1.39295331               -1.82339051
               6.15521715                4.55059967               37.96896527                0.00010000               -0.31712460                0.12351845               -0.03510663               -0.57417692                7.06940448               -2.57316289
               7.14901718                4.31496007               37.94647932                0.00010000               -0.51016667                0.09881281               -0.27945769               -0.96125014               11.39950588               -0.91086071
               8.14501382                4.08114583               37.91413359                0.00010000               -0.27611624                0.00192957               -0.55964966               -1.05184142               10.63979162                0.32957444
               9.14349486                3.84844086               37.87398612                0.00010000               -0.04609602               -0.08467539               -0.85210442               -1.09405934               10.13885261                1.62786287
              10.14409190                3.61717568               37.82880374                0.00010000                0.23903262               -0.15569921               -1.17122873               -1.00602882                9.93107583                2.86996977
              11.14827551                3.38851376               37.78148808                0.12188863                0.58742153               -0.47838585               -1.61762847               -0.46281199                6.10972704                4.34411549
              12.15584033                3.16754961               37.65615486                0.49942540                0.65221695                0.14835910               -1.55518670               -0.01183391                1.20457705                2.67141379
              13.16131985                2.94516261               37.50953001                0.91109865                0.54795209                0.64843545               -1.78782549               -0.08437369                0.15162366                0.55676351
               3.38452002                6.23448833               38.31117654                1.00000000               -0.12139506               -0.25200939                0.58280053               -0.03473737                0.12631057                1.05434087
               4.38330607                6.00881994               38.16396425                0.61507695               -0.10212624               -0.06133928                0.30283223               -0.04023444                0.37500218               -0.66033250
               5.38247750                5.78217025               38.02169328                0.11066923               -0.11163283                0.11844315                0.05103738               -0.20184022                2.23663482               -2.24062103
               6.38107341                5.55245446               37.91166356                0.00010000               -0.47720683                0.13660407               -0.05800370               -0.92001801                9.67655550               -0.44760903
               7.37293336                5.31650026               37.91798751                0.00010000               -0.69613442                0.18095222               -0.31770461               -1.26946690               14.71606847                0.11314264
               8.36715073                5.08185547               37.90640573                0.00010000               -0.44889098                0.11669667               -0.62917638               -1.28910464               13.61568151                0.94685770
               9.36395554                4.84817256               37.88810627                0.00010000               -0.16884046                0.00897246               -0.94071577               -1.32865753               13.24337005                1.99723769
              10.36377392                4.61567306               37.86612921                0.00010000                0.21058338               -0.13585107               -1.30078638               -1.33441759               13.09862460                3.23231248
              11.36816721                4.38395188               37.84148184                0.12664687                0.56738207               -0.39978171               -1.81397433               -0.57052352                7.92225603                4.61067953
              12.37512156                4.16859063               37.71125021                0.46403307                0.59648925                0.11355522               -1.39490013                0.07466410                1.40778025                2.68498367
              13.38009699                3.95178065               37.55392821                0.89575090                0.49754347                0.63029125               -1.64753734               -0.05040350                0.08787086                0.68631198
               3.60886086                7.23226879               38.26006338                1.00000000               -0.07776678               -0.18782066                0.41965156               -0.03024076                0.04790686                0.87186203
               4.60808320                7.00852730               38.10394647                0.52164733               -0.05862559               -0.00660548                0.13715653               -0.03384912                0.30562287               -0.79732984
               5.60768835                6.78382133               37.95293498                0.06858250               -0.27982054                0.18836204               -0.13579192               -0.32157540                4.93170415               -2.58255358
               6.60248679                6.55333175               37.88928716                0.00010000               -0.67307594                0.10170086                0.11158774               -1.13563948               12.99791355                1.40465591
               7.59422683                6.31857911               37.89909222                0.00010000               -0.74636823                0.24582635               -0.37982457               -1.39447066               16.57926149                0.82716284
               8.58755942                6.08347976               37.90421684                0.00010000               -0.55613570                0.21398460               -0.69508270               -1.50899654               16.32885085                1.35574907
               9.58310412                5.84862031               37.90602607                0.00010000               -0.29675974                0.08146249               -0.99273030               -1.61131977               16.27251544                2.26278407
              10.58162423                5.61445866               37.90670891                0.00010000                0.04216744               -0.09407512               -1.31351507               -1.74337444               16.43238989                3.44992932
              11.58394747                5.38051813               37.90781756                0.14459558                0.39403059               -0.26998479               -1.71519930               -0.86527021                9.45410374                4.99477328
              12.58950484                5.16982072               37.76334655                0.44710924                0.49921327                0.14186086               -1.24637187                0.08592110                1.16578241                2.30967810
              13.59393173                4.95776844               37.59631373                0.88897387                0.44268958                0.57686134               -1.52556184               -0.02560082                0.06919100                0.40205900
               3.83139819                8.23073192               38.20783219                1.00000000               -0.03216347               -0.12046449                0.25770725               -0.02734101                0.01455724                0.80277348
               4.83107655                8.00868784               38.04337432                0.48830973               -0.00783221                0.03523336               -0.02312490               -0.01678095                0.15554687               -0.81300622
               5.83124154                7.78593749               37.88166503                0.04863326               -0.37368537                0.21379913               -0.31216558               -0.42884477                7.79597386               -2.69344919
               6.82360284                7.55448848               37.86993691                0.00010000               -0.81728031                0.24628760               -0.16080247               -1.06810501               16.72306559                0.82648214
               7.81489594                7.32141678               37.88498052                0.00010000               -0.83366258                0.37505769               -0.48859072               -1.31706322               18.45067078                0.95862990
               8.80692959                7.08613516               37.90474850                0.00010000               -0.70728431                0.36464441               -0.77225844               -1.63084492               18.91372705                1.44465587
               9.80075025                6.84980181               37.92559460                0.00010000               -0.49604905                0.19640651               -1.01491223               -1.91120340               19.27270188                2.28774578
              10.79700861                6.61379155               37.94865697                0.00010000               -0.26252545               -0.02947521               -1.22236686               -2.14217842               19.85938523                3.38360089
              11.79549974                6.37855218               37.97670487                0.17525950                0.12905295               -0.10435305               -1.36938089               -1.16786397               10.75842600                4.79428464
              12.79958967                6.17142784               37.81194783                0.44035789                0.40948977                0.19012548               -1.16655728                0.06612458                0.60883042                1.91898880
              13.80368954                5.96331787               37.63537863                0.88414355                0.40998656                0.54309924               -1.48127059               -0.00649241                0.04632987                0.03776467
               4.05240221                9.22985950               38.15539226                1.00000000                0.01397928               -0.05579873                0.09757786               -0.02525146                0.00053411                0.80714521
               5.05254200                9.00923197               37.98288626                0.50591547                0.04543025                0.07317517               -0.18131462               -0.00477757               -0.00100494               -0.78346295
               6.05331081                8.78809731               37.81025509                0.03568401               -0.34483034                0.21204185               -0.47615661               -0.40789647                9.92813653               -2.46389785
               7.04564540                8.55825750               37.83621564                0.00010000               -0.85359644                0.46347226               -0.47384021               -0.88199506               20.33861014               -0.09342265
               8.03623889                8.32608026               37.86889839                0.00010000               -0.95439489                0.56490268               -0.65570472               -1.13937062               21.00773754                0.65245741
               9.02655750                8.09077265               37.90446672                0.00010000               -0.95076125                0.59367759               -0.86974063               -1.56400754               21.57317238                1.18752554
              10.01722366                7.85254844               37.94416258                0.00010000               -0.82636058                0.49382849               -1.06259461               -2.08731862               22.22682188                1.95905092
              11.01003029                7.61386915               37.98813058                0.00010000               -0.71348802                0.14965951               -1.12299437               -2.57428143               23.08677024                3.15383269
              12.00295390                7.37843107               38.04001990                0.22122749               -0.19843247                0.06311615               -0.96875532               -1.44674698               11.98798900                3.85450776
              13.00606164                7.17362323               37.85670622                0.44332978                0.35339615                0.25362082               -1.13718322                0.01708607                0.13144986                1.50902951
              14.01002182                6.96863042               37.67063728                0.88023931                0.39601864                0.51830561               -1.49490348                0.00443777                0.01940909               -0.36309178
               4.27214822               10.22961594               38.10326684                0.99305996                0.05949680                0.00413428               -0.06237099               -0.02421285               -0.01848799                0.71983859
               5.27274319               10.01015134               37.92274346                0.54492859                0.09549292                0.11098208               -0.33478636               -0.00305159                0.03659091               -0.64468107
               6.27405808                9.79017833               37.74320134                0.00525513               -0.23815998                0.21444866               -0.62362458               -0.29638958               11.82782922               -1.60673473
               7.26797999                9.56375792               37.79835017                0.00010000               -0.72323524                0.55627455               -0.68973544               -0.53888716               23.54040258               -0.20738523
               8.25959338                9.33271484               37.84893245                0.00010000               -0.93993642                0.69179253               -0.82913515               -0.72468016               23.60491397                0.28863980
               9.24918126                9.09800871               37.90024481                0.00010000               -1.18430009                0.81598006               -0.99226738               -1.03180931               24.19422129                0.66094795
              10.23590737                8.85967838               37.95748053                0.00010000               -1.47704524                0.91501907               -1.16014934               -1.64299494               25.31970254                1.15610068
              11.21964036                8.61678474               38.02595413                0.05909916               -1.45483252                0.86631645               -1.34935745               -2.30556273               25.96499724                2.27766372
              12.20681072                8.37981450               38.09040233                0.28788938               -0.49541605                0.19650125               -0.75094246               -1.68840745               13.05028881                2.08059979
              13.20973204                8.17650026               37.89714532                0.45445774                0.34765882                0.31384998               -1.14100237               -0.02578154                0.07844038                0.97306905
              14.21376390                7.97368399               37.70158464                0.86911074                0.40318639                0.49863893               -1.55103655                0.00779943               -0.01178730               -0.57802722
               4.49084716               11.22994219               38.04904989                1.00000000                0.10714218                0.03262443               -0.21457548                0.02083634                0.39261410                0.61955595
               5.49191858               11.01145161               37.86486651                0.81622760                0.14646383                0.13002720               -0.48794267                0.03974427                0.79859511               -0.52283194
               6.49377644               10.79238628               37.68865310                0.49518685                0.02062810                0.22079545               -0.77017802               -0.13159512               13.72451800               -0.97008688
               7.49233115               10.56938299               37.76277647                0.36913407               -0.31409731                0.56250683               -0.86639919               -0.18839296               26.08299075               -0.18335526
               8.48749449               10.33991611               37.82638359                0.35876663               -0.66866878                0.72012769               -0.99148318               -0.32442542               25.86297387                0.09753103
               9.47895777               10.10709225               37.89018413                0.37085806               -1.09533802                0.90835354               -1.14263007               -0.47571364               26.47976185                0.32026007
              10.46558773                9.87084882               37.96063077                0.40454020               -1.75874319                1.11704455               -1.30893277               -0.82680262               27.93840615                0.60912787
              11.44378291                9.63119548               38.04812720                0.55491673               -2.80587481                1.44107364               -1.63700413               -2.01013159               28.19377606                1.50081703
              12.40947024                9.38236109               38.11793323                0.67682720               -1.60531913                0.25465890               -0.84344774               -2.29881137               14.55311839                0.96660565
              13.41167652                9.17990023               37.93089912                0.74410630                0.31700611                0.33999684               -1.19647544                0.00655427                1.14851419                0.65956089
              14.41581036                8.97860320               37.73218745                0.93380485                0.41338340                0.49192156               -1.62010178                0.07494326                0.58841422               -0.57067528
               2.34486728                1.31290601               39.55546768                1.00000000               -0.35349770               -0.38452262                1.32554815               -0.06190930               -1.03809542                1.03017454
               3.34133230                1.07178981               39.43617125                1.00000000               -0.30615160               -0.29018933                1.03903255               -0.03741824               -1.37489545                0.15238425
               4.33874425                0.83020238               39.31023625                1.00000000               -0.20592864               -0.19854651                0.72957224               -0.04357003               -1.36375371               -0.20732770
               5.33721373                0.58812700               39.19113558                0.63805388               -0.02315333               -0.12487989                0.43039801               -0.13368707               -0.62126999               -0.93537557
               6.33828118                0.34375915               39.07992432                0.69828122                0.19880036               -0.12650393                0.04758059               -0.05531160               -0.19289625                0.27513882
               7.34118974                0.09813214               38.96949857                0.75602722                0.31252703                0.00780198               -0.23335773               -0.08449719               -0.22846480                0.14862844
               8.34453172               -0.14597273               38.85646434                0.74731263                0.36573834                0.08474308               -0.45144601               -0.05216929               -0.31236413               -0.07109517
               9.34850450               -0.38848315               38.74286752                0.84300278                0.37216141                0.15199775               -0.61078997               -0.07305731               -0.57093753                0.11299803
              10.35197495               -0.62948773               38.62319245                1.00000000                0.33483981                0.23584374               -0.81104707               -0.06817929               -0.97808589                0.64417939
              11.35520130               -0.86974208               38.50073691                1.00000000                0.34591846                0.32563402               -1.05740085               -0.04128574               -1.01782312                0.02896207
              12.35889332               -1.11011625               38.38001483                1.00000000                0.36920189                0.42095459               -1.33549518               -0.01827180               -0.92407004               -0.89882610
               2.58536439                2.30906078               39.50339159                1.00000000               -0.30544538               -0.37460205                1.17472129               -0.01300962               -0.18599537                1.40294505
               3.58230993                2.06888792               39.38398157                1.00000000               -0.26122174               -0.26926237                0.89132306                0.01117324               -0.26132225                0.21910255
               4.58013995                1.82821692               39.26312812                0.97919589               -0.16057287               -0.17136744                0.58295336               -0.00987340               -0.16869358               -0.45256495
               5.57909847                1.58687820               39.14547206                0.28368164                0.12927714               -0.09252175                0.27685925               -0.16704412                1.42133051               -1.27889285
               6.58272549                1.34249411               39.05609817                0.41022102                0.30561147               -0.09419632               -0.07394309               -0.03977683                2.40115808                0.87243069
               7.58521070                1.09821016               38.95515213                0.49398018                0.22960895                0.04529722               -0.33993561               -0.04955354                1.73013310                0.43645212
               8.58731767                0.85487470               38.85054840                0.42093060                0.21603653                0.13863545               -0.54344291               -0.02927806                1.75259851               -0.27228700
               9.58953143                0.61303683               38.74900427                0.51234469                0.23024739                0.20339626               -0.69424807               -0.05089223                1.78627838                0.48888819
              10.59192262                0.37287070               38.64446673                1.00000000                0.27856321                0.26091480               -0.90508110               -0.04087093                0.92349022                0.86428080
              11.59510270                0.13351426               38.52549010                1.00000000                0.35810764                0.33885717               -1.17513060                0.00272110                0.12753914                0.18321655
              12.59908477               -0.10590670               38.40502603                1.00000000                0.39820743                0.44206678               -1.45313227                0.02737931                0.05231203               -1.04915219
               2.82495282                3.30541397               39.45893244                1.00000000               -0.25531902               -0.35882456                1.03720142               -0.00751482                0.03738604                1.77307474
               3.82239963                3.06640456               39.33317855                1.00000000               -0.21981637               -0.22990831                0.75371205                0.01041580                0.21787398                0.22056736
               4.82055649                2.82677504               39.21107065                0.70078741               -0.14019886               -0.10548914                0.46867870               -0.03107573                0.59658815               -1.17627679
               5.81959565                2.58627657               39.09279815                0.00010000                0.27985954               -0.04704699                0.14319713               -0.23145756                4.28778562               -1.88938728
               6.82615368                2.34187523               39.04432260                0.00010000                0.41112107               -0.12956934               -0.27834463               -0.63412220                5.64421377               -1.01417535
               7.82781807                2.09903809               38.94643265                0.00010000                0.14829036               -0.05158092               -0.47403721               -0.62583356                2.86192640                0.01402785
               8.82911949                1.85679998               38.84048268                0.00010000                0.08362931               -0.00141426               -0.65279304               -0.57998577                3.89746224                0.81914300
               9.82949066                1.61558478               38.76263217                0.00010000                0.07803026                0.01728079               -0.78845932               -0.41462477                4.56448134                1.34463046
              10.83068010                1.37573056               38.67009488                0.40932668                0.22712327                0.25922597               -1.01495902               -0.17663622                2.59945789                1.78319065
              11.83403313                1.13703507               38.55326932                1.00000000                0.38013712                0.35128619               -1.29179032               -0.04716759                0.90532452                0.82860177
              12.83828284                0.89872509               38.42700477                1.00000000                0.42497124                0.48584742               -1.55606580                0.01718579                0.42590368               -0.99103371
               3.06323290                4.30188429               39.41441918                1.00000000               -0.20757214               -0.34190612                0.89872886               -0.01612017                0.12558753                1.63089026
               4.06115718                4.06428975               39.28104383                1.00000000               -0.17932347               -0.18588394                0.61658229               -0.00003300                0.21207337                0.02619985
               5.05964643                3.82610714               39.14941264                0.36916812               -0.08940236               -0.03864591                0.35082844               -0.09591125                1.14804286               -1.64355386
               6.05936913                3.58593726               39.03469215                0.00010000               -0.11824516                0.02445365                0.05221072               -0.44709306                5.17310186               -2.55274011
               7.05728153                3.33990273               38.98337022                0.00010000               -0.07999284               -0.07165512               -0.27458599               -1.15387978                8.05060896               -2.44022893
               8.05776928                3.09717854               38.92362588                0.00010000                0.09448682               -0.13637053               -0.55470982               -1.18945480                7.39268511               -0.31502231
               9.05917126                2.85484642               38.85611869                0.00010000                0.22695423               -0.17946835               -0.80114441               -1.19715445                6.97982923                1.78397551
              10.06230836                2.61338245               38.78577262                0.00010000                0.38841702               -0.20661032               -1.04648679               -0.76141789                6.65166810                2.21234916
              11.06693961                2.37805522               38.70979474                0.13094051                0.44282299               -0.15483709               -1.14424467               -0.32923223                4.29279397                3.22159548
              12.07116482                2.14053999               38.59095818                0.59955083                0.45544220                0.25391517               -1.45380468               -0.16420454                1.20957910                1.91895448
              13.07604845                1.90381025               38.45333656                0.99658436                0.48836293                0.54639129               -1.68219377               -0.06150873                0.25600747               -0.18380839
               3.29981950                5.29857584               39.36728039                1.00000000               -0.16433754               -0.30988863                0.74838887               -0.03178383                0.21080970                1.33506554
               4.29817612                5.06268688               39.22635212                0.77626373               -0.14143723               -0.12379250                0.46785669               -0.02787289                0.33076690               -0.33542421
               5.29699076                4.82600212               39.08782151                0.18483917               -0.06589616                0.03867186                0.20263817               -0.15967173                1.41182153               -1.83675039
               6.29685820                4.58676564               38.96845712                0.00010000               -0.25779747                0.12978891               -0.07173780               -0.69174873                7.09276757               -2.49728363
               7.29183481                4.34044212               38.94343832                0.00010000               -0.38864582                0.10648796               -0.33360954               -1.17892717               11.41616446               -0.82099481
               8.28908528                4.09631068               38.90818397                0.00010000               -0.14311538               -0.00990522               -0.63378606               -1.26583440               10.63398264                0.38810086
               9.28897250                3.85321062               38.86501573                0.00010000                0.09841074               -0.10273134               -0.94154590               -1.30433459               10.11051770                1.64251431
              10.29105350                3.61145257               38.81654082                0.00010000                0.39827050               -0.18494177               -1.27199913               -1.17217130                9.80673480                2.81677264
              11.29693791                3.37263382               38.76450548                0.10926259                0.69702554               -0.52111395               -1.74709260               -0.51017136                6.18240160                4.08056596
              12.30499401                3.14211337               38.64064917                0.47338616                0.67871197                0.09174042               -1.52087185                0.00122804                1.38451485                2.81217565
              13.31051215                2.90965291               38.49186349                0.89722704                0.55181375                0.59354098               -1.72890948               -0.07686674                0.14010150                0.71686006
               3.53437515                6.29568652               39.31701480                1.00000000               -0.12016998               -0.25796679                0.58711162               -0.03581728                0.12303906                1.04634077
               4.53317345                6.06181390               39.16693677                0.60262753               -0.10004543               -0.05434729                0.29125396               -0.04442730                0.38522557               -0.67873631
               5.53237424                5.82688057               39.02208797                0.10506056               -0.10396492                0.13739686                0.02364372               -0.22705884                2.33955956               -2.27132548
               6.53109415                5.58853304               38.91104322                0.00010000               -0.41081465                0.10899877               -0.06736286               -1.04343315                9.76934843               -0.22440131
               7.52415795                5.34203249               38.91455874                0.00010000               -0.57050279                0.18322335               -0.37296892               -1.46800825               14.70431902                0.20410931
               8.51968410                5.09698044               38.89969359                0.00010000               -0.31076355                0.11530259               -0.71579181               -1.47469779               13.58081426                1.01485250
               9.51794268                4.85279179               38.87810955                0.00010000               -0.01211824                0.00087361               -1.05769921               -1.51420682               13.17331670                2.05029121
              10.51944173                4.60968361               38.85226380                0.00010000                0.40663505               -0.15363504               -1.46418944               -1.49198997               12.89485045                3.26730861
              11.52607538                4.36763294               38.82192178                0.11388063                0.73642781               -0.45188443               -2.06619877               -0.63988880                8.14082189                4.66434193
              12.53417029                4.14237480               38.69702413                0.44024435                0.66783264                0.04540295               -1.41913728                0.06617183                1.77989852                2.92018123
              13.53943203                3.91568107               38.53740646                0.88179877                0.52617441                0.58396153               -1.63399600               -0.04502971                0.06872171                0.88533328
               3.76684839                7.29341651               39.26425030                1.00000000               -0.07548691               -0.19201306                0.41937615               -0.03072302                0.04473465                0.86057692
               4.76609352                7.06159994               39.10524990                0.51175950               -0.05589772                0.00143715                0.12318759               -0.03665055                0.30622462               -0.80930268
               5.76573044                6.82875005               38.95143814                0.06371603               -0.26279487                0.21106773               -0.16426183               -0.38576553                5.20615366               -2.61447014
               6.76083763                6.58894561               38.89036188                0.00010000               -0.58515982                0.07658813                0.09291163               -1.25357175               13.16547932                1.48278869
               7.75402724                6.34410659               38.89497480                0.00010000               -0.60028021                0.24352303               -0.44748088               -1.54954161               16.45327363                0.88744596
               8.74883202                6.09861673               38.89676541                0.00010000               -0.40210258                0.21500955               -0.79794621               -1.66547700               16.29884941                1.42960377
               9.74598519                5.85322809               38.89537999                0.00010000               -0.12297361                0.08224015               -1.13742855               -1.76045828               16.22003699                2.36262716
              10.74637255                5.60837987               38.89251040                0.00010000                0.27318781               -0.09880482               -1.52630080               -1.88238918               16.28306857                3.61601179
              11.75144895                5.36359613               38.88888939                0.13077265                0.59483872               -0.32702087               -2.07454173               -0.92738949                9.76639659                5.36275617
              12.75826932                5.14302143               38.75053055                0.42594106                0.57750349                0.09929447               -1.30143660                0.07322282                1.59336854                2.50760796
              13.76299902                4.92133214               38.58091215                0.87578083                0.47296920                0.55313467               -1.54438445               -0.02620820                0.05871685                0.52716713
               3.99739383                8.29184626               39.21038020                1.00000000               -0.02869407               -0.12280296                0.25319973               -0.02798544                0.01323369                0.79186294
               4.99710689                8.06184264               39.04305968                0.48081213               -0.00402905                0.04359780               -0.04066816               -0.01773532                0.14997488               -0.82053247
               5.99731325                7.83110193               38.87840700                0.04589735               -0.32203568                0.23570650               -0.34225963               -0.50960499                7.99970142               -2.70967722
               6.99066618                7.59006480               38.86799109                0.00010000               -0.69086254                0.24843649               -0.23834398               -1.19351856               16.92815153                0.67851883
               7.98349600                7.34690295               38.87968507                0.00010000               -0.67065608                0.36798576               -0.57288564               -1.45474858               18.43830104                0.97612374
               8.97725306                7.10128063               38.89643981                0.00010000               -0.52628172                0.35827286               -0.89273616               -1.75257888               18.93359183                1.51695436
               9.97297037                6.85443660               38.91463630                0.00010000               -0.29135770                0.19532790               -1.18124881               -2.01443309               19.31165275                2.41255354
              10.97142590                6.60770751               38.93531232                0.00010000               -0.00421697               -0.03451918               -1.45871117               -2.25785981               19.91087071                3.64158515
              11.97288603                6.36109253               38.96137919                0.16001022                0.32364129               -0.13996830               -1.74203965               -1.22646276               11.09763220                5.35519684
              12.97789873                6.14436069               38.79991422                0.42104313                0.47002060                0.17588551               -1.23768190                0.06145067                0.91990742                2.05564180
              13.98228644                5.92674376               38.62034687                0.87163077                0.43877104                0.53824214               -1.52552098               -0.00766008                0.04392790                0.08017059
               4.22629591                9.29096045               39.15631761                1.00000000                0.01872325               -0.05571935                0.08842449               -0.02593388               -0.00074009                0.79611675
               5.22648315                9.06247189               38.98097236                0.50108471                0.05101321                0.08167767               -0.20264243               -0.00469551               -0.01005474               -0.78678278
               6.22731618                8.83346418               38.80534630                0.03318862               -0.26584547                0.22949397               -0.50890082               -0.49805729               10.05479153               -2.46308450
               7.22116624                8.59391434               38.83115830                0.00010000               -0.67998678                0.45649233               -0.53963079               -1.03397282               20.52907481               -0.19532748
               8.21371644                8.35146631               38.86185084                0.00010000               -0.74597211                0.53924062               -0.75743003               -1.26772973               21.10341033                0.64700616
               9.20624679                8.10578218               38.89510701                0.00010000               -0.72233994                0.56844970               -1.00610906               -1.65101358               21.67007694                1.25024855
              10.19926964                7.85713465               38.93265750                0.00010000               -0.58436857                0.47670125               -1.24236542               -2.14654524               22.40088683                2.07067236
              11.19455942                7.60768949               38.97587136                0.00010000               -0.45015624                0.14316350               -1.34628063               -2.64659337               23.43559505                3.27825030
              12.19026652                7.36079676               39.02930287                0.20508614               -0.03561597                0.06269609               -1.21955513               -1.51701920               12.34615616                4.36433977
              13.19384710                7.14653914               38.84494212                0.42477581                0.39065750                0.26067351               -1.22011533                0.01678041                0.25236532                1.60675075
              14.19807967                6.93209699               38.65537220                0.86784335                0.42325649                0.52990878               -1.56405514                0.00321156                0.02113499               -0.37430082
               4.45385227               10.29073187               39.10256575                0.98856124                0.06569777                0.00710212               -0.07711369               -0.02514187               -0.01653626                0.71233789
               5.45450925               10.06347620               38.91927493                0.54211543                0.10286927                0.11971500               -0.36039629               -0.00345337                0.03052708               -0.64509797
               6.45590966                9.83569181               38.73680051                0.00346334               -0.12623234                0.22801858               -0.65981473               -0.40864866               11.91988906               -1.59568066
               7.45198460                9.59919465               38.79111081                0.00010000               -0.48180448                0.49883211               -0.76202042               -0.67046657               23.71788150               -0.24459983
               8.44627357                9.35768776               38.84011083                0.00010000               -0.67100778                0.63854770               -0.93905015               -0.81275446               23.75346440                0.28601756
               9.43856445                9.11264962               38.88959878                0.00010000               -0.90707033                0.77067851               -1.14146930               -1.07857681               24.35094584                0.70077650
              10.42813216                8.86397062               38.94493922                0.00010000               -1.18662643                0.87626176               -1.34864055               -1.66617014               25.48806624                1.22501579
              11.41483192                8.61057078               39.01124679                0.04931664               -1.22180847                0.86022232               -1.56313293               -2.34192544               26.58273132                2.20512857
              12.40369599                8.36234645               39.08238857                0.27306060               -0.39489009                0.22164642               -0.87482875               -1.77099482               13.59110051                2.31843258
              13.40693412                8.14957416               38.88535325                0.43621002                0.37694943                0.33311730               -1.22558396               -0.02911574                0.08630949                1.03530459
              14.41123498                7.93734193               38.68567163                0.85633672                0.43008633                0.52158420               -1.64016824                0.00581951               -0.01620785               -0.61030751
               4.68030443               11.29110249               39.04680349                1.00000000                0.11497158                0.03706220               -0.23460861                0.02158554                0.38847572                0.61597266
               5.68145414               11.06486619               38.85984014                0.81578835                0.15601628                0.13899970               -0.51879503                0.04059250                0.79076248               -0.52242920
               6.68342475               10.83802456               38.68076309                0.49369771                0.21534064                0.23327485               -0.81163320               -0.29725081               13.79923551               -0.95658275
               7.68576095               10.60389099               38.75373246                0.36922123                0.02908133                0.46963367               -0.94612458               -0.31172954               26.25015110               -0.20649642
               8.68400638               10.36423726               38.81589492                0.35889238               -0.36842791                0.65495015               -1.11000615               -0.36148040               26.02420679                0.09433364
               9.67839240               10.12119575               38.87798067                0.37062375               -0.79906488                0.85461306               -1.30215529               -0.49607393               26.65044881                0.33736788
              10.66802508                9.87465988               38.94654879                0.40362071               -1.45236544                1.06892606               -1.50536956               -0.82579901               28.05661839                0.63561655
              11.64934509                9.62489393               39.03026755                0.55022834               -2.60909150                1.43231491               -1.86922743               -2.02019241               28.90065229                1.35956877
              12.61584325                9.36522969               39.10900560                0.67000868               -1.55378928                0.28832457               -0.96176797               -2.36989635               15.28653801                1.03760488
              13.61826930                9.15320149               38.91858260                0.73502452                0.34086261                0.36273303               -1.27548365               -0.00153252                1.21989732                0.70217687
              14.62266050                8.94252867               38.71555332                0.92716231                0.43912009                0.51867361               -1.71663727                0.07527076                0.61833292               -0.60094630
               2.45508927                1.37610954               40.56885575                1.00000000               -0.35947677               -0.39409796                1.35791042               -0.06545943               -1.06354205                1.04560658
               3.45149451                1.12628150               40.44660625                1.00000000               -0.30865386               -0.29338148                1.05044999               -0.03991732               -1.41485502                0.16084705
               4.44891620                0.87596720               40.31747676                1.00000000               -0.20212953               -0.19639566                0.71783058               -0.04519150               -1.41171656               -0.20753630
               5.44745192                0.62511564               40.19528681                0.64335701               -0.02298918               -0.11749590                0.39461462               -0.18040771               -0.71289929               -0.95296464
               6.44845641                0.37091062               40.08002672                0.70018182                0.22545646               -0.12917172               -0.03519106               -0.05321510               -0.28270928                0.26770086
               7.45196104                0.11443465               39.96669296                0.75193399                0.38368357                0.01664646               -0.33902250               -0.09125043               -0.21660082                0.13317662
               8.45613008               -0.14036459               39.85151670                0.74015547                0.44876970                0.09313942               -0.55034587               -0.05345081               -0.21041816               -0.08689373
               9.46093644               -0.39307036               39.73649921                0.83684862                0.43389262                0.15414403               -0.67046577               -0.07780705               -0.43471632                0.10997383
              10.46480794               -0.64379855               39.61493967                1.00000000                0.36177229                0.23846362               -0.84292430               -0.07002474               -0.88237829                0.65192599
              11.46817188               -0.89356377               39.49005838                1.00000000                0.35669586                0.32839776               -1.08012452               -0.04094225               -0.96421907                0.03739974
              12.47194185               -1.14334226               39.36657232                1.00000000                0.37699694                0.42196194               -1.35418015               -0.02181531               -0.88639812               -0.86223928
               2.70426271                2.37216856               40.51524772                1.00000000               -0.30962117               -0.38395478                1.20181096               -0.01343400               -0.19926992                1.42195392
               3.70116650                2.12334769               40.39291597                1.00000000               -0.26077501               -0.27171105                0.89760890                0.01104382               -0.28994086                0.23114031
               4.69904721                1.87400324               40.26887562                0.99453062               -0.14951857               -0.16826453                0.56532951               -0.01167090               -0.20831286               -0.43562248
               5.69817613                1.62394068               40.14807274                0.29294932                0.21087722               -0.08285122                0.24153911               -0.22936684                1.35964397               -1.28188412
               6.70326476                1.36961890               40.05504685                0.41371173                0.42550092               -0.11085798               -0.14453909               -0.03155451                2.36214913                0.82547075
               7.70668615                1.11460112               39.95137630                0.49280629                0.30416624                0.05164928               -0.42706416               -0.06126132                1.77817405                0.41004676
               8.70934808                0.86056680               39.84479603                0.42143126                0.25945999                0.15237786               -0.61983055               -0.04122878                1.87592973               -0.29604871
               9.71187535                0.60847108               39.74193671                0.51214380                0.25031566                0.20848258               -0.72625007               -0.06086290                1.90914321                0.48019445
              10.71435439                0.35858608               39.63540124                1.00000000                0.28294840                0.26055719               -0.90644810               -0.04338338                0.97699023                0.86399258
              11.71753431                0.10972021               39.51374400                1.00000000                0.35738999                0.33851915               -1.17177231                0.00317580                0.14151548                0.19191900
              12.72150219               -0.13912264               39.39051496                1.00000000                0.39678791                0.43780268               -1.44606529                0.02357666                0.06066431               -1.00495889
               2.95246233                3.36843044               40.46939589                1.00000000               -0.25816347               -0.36786903                1.06005686               -0.00772541                0.03093326                1.79583262
               3.94988069                3.12084728               40.34071582                1.00000000               -0.21862730               -0.23083258                0.75548181                0.00955820                0.20792983                0.23719508
               4.94808978                2.87260191               40.21565850                0.71899961               -0.13158870               -0.09849072                0.44418481               -0.03605372                0.56573931               -1.14315713
               5.94724892                2.62345862               40.09404503                0.00010000                0.45375522               -0.03351816                0.09701001               -0.32577888                4.18830022               -1.85761797
               6.95716489                2.36869346               40.04120016                0.00010000                0.62695001               -0.15075966               -0.35604919               -0.82363804                5.61009618               -0.99970457
               7.95978792                2.11546764               39.94134358                0.00010000                0.21353275               -0.04180013               -0.55921787               -0.79615291                2.96839685                0.00433202
               8.96143554                1.86268296               39.83365600                0.00010000                0.09559879                0.02228613               -0.73139430               -0.71999995                4.04955349                0.77293052
               9.96169990                1.61109930               39.75470252                0.00010000                0.06277996                0.03271451               -0.80773412               -0.49105089                4.67959363                1.24108759
              10.96269114                1.36141259               39.66004685                0.40145739                0.21221135                0.24774116               -0.98812100               -0.18896858                2.62004921                1.76448917
              11.96594412                1.11320662               39.54046920                1.00000000                0.37039741                0.34512366               -1.26196212               -0.04381289                0.89652886                0.81278689
              12.97009909                0.86541379               39.41159023                1.00000000                0.41549665                0.46998488               -1.52012386                0.01430075                0.42002144               -0.95307582
               3.19927452                4.36481118               40.42347955                1.00000000               -0.20883255               -0.35078889                0.91715348               -0.01655112                0.12664240                1.64526650
               4.19718619                4.11873104               40.28719531                1.00000000               -0.17798594               -0.18473067                0.61397311               -0.00072095                0.21997996                0.03716487
               5.19571480                3.87203343               40.15282205                0.36804317               -0.08085964               -0.02798950                0.32890246               -0.10296977                1.14762530               -1.62695408
               6.19556900                3.62327032               40.03500216                0.00010000               -0.04659135                0.04221556                0.00449776               -0.56114702                5.14599458               -2.51548665
               7.19478297                3.36660371               39.98031643                0.00010000                0.06022923               -0.06709031               -0.34411243               -1.45282378                8.04015854               -2.33373068
               8.19677359                3.11376512               39.91771724                0.00010000                0.22667260               -0.13137545               -0.63625361               -1.46315274                7.42501260               -0.27660564
               9.19931643                2.86101252               39.84777203                0.00010000                0.32755571               -0.16913360               -0.87520514               -1.43634619                7.02922394                1.74689343
              10.20332470                2.60912537               39.77508685                0.00010000                0.45756377               -0.20396752               -1.09119390               -0.92173336                6.77753217                2.05849681
              11.20846770                2.36354091               39.69860014                0.11777741                0.46660767               -0.17072710               -1.08771974               -0.36893184                4.34678900                2.90615807
              12.21265685                2.11662268               39.57667230                0.57277067                0.44530768                0.22602808               -1.39533097               -0.15176777                1.17108657                1.91813885
              13.21737385                1.87027706               39.43678613                0.98041193                0.47170010                0.50080606               -1.61890902               -0.05485545                0.25382171               -0.12247565
               3.44429158                5.36141466               40.37481734                1.00000000               -0.16475631               -0.31829692                0.76184529               -0.03308161                0.21879375                1.33679431
               4.44264402                5.11715267               40.23099982                0.76172316               -0.14002403               -0.11918013                0.46168577               -0.03106627                0.34596741               -0.34501373
               5.44149110                4.87204212               40.08974411                0.17951191               -0.05941602                0.05468440                0.17772039               -0.17011528                1.43058974               -1.85329082
               6.44145570                4.62430293               39.96753051                0.00010000               -0.19387438                0.13956745               -0.11940211               -0.81349255                7.11977784               -2.40571379
               7.43761362                4.36735165               39.93980713                0.00010000               -0.26698242                0.12211239               -0.39784484               -1.39382039               11.43211886               -0.72481016
               8.43611605                4.11284013               39.90145787                0.00010000               -0.01326282               -0.00970186               -0.71639425               -1.48043752               10.62689314                0.44223734
               9.43734836                3.85930029               39.85515520                0.00010000                0.23103960               -0.10991986               -1.03061668               -1.51424720               10.08406999                1.63583493
              10.44073684                3.60701995               39.80336376                0.00010000                0.52334174               -0.20378640               -1.35197101               -1.33841227                9.67621501                2.70868347
              11.44781519                3.35799805               39.74654622                0.09704484                0.77178861               -0.53430498               -1.82017011               -0.57685752                6.31532361                3.66822048
              12.45617262                3.11772718               39.62573742                0.44865814                0.69390205                0.02450901               -1.44839790                0.00049296                1.63369979                2.91268168
              13.46169324                2.87542991               39.47495182                0.88301761                0.55206188                0.50807979               -1.64293880               -0.06308093                0.13427325                0.85559063
               3.68713687                6.35844524               40.32291878                1.00000000               -0.11994636               -0.26498665                0.59573054               -0.03654171                0.11838186                1.03786938
               4.68593741                6.11634743               40.16978933                0.59082489               -0.09873200               -0.04671688                0.27949402               -0.04711463                0.39374906               -0.69705154
               5.68516223                5.87312712               40.02216615                0.09869486               -0.09738970                0.15853886               -0.00912903               -0.25387118                2.46128421               -2.30473220
               6.68398962                5.62606167               39.91031630                0.00010000               -0.33964348                0.08683597               -0.08125423               -1.16385756                9.86355590                0.00871780
               7.67836937                5.36904596               39.91052813                0.00010000               -0.43867092                0.19250246               -0.43862620               -1.66077156               14.67041714                0.29701680
               8.67521620                5.11357108               39.89208990                0.00010000               -0.17588490                0.12427462               -0.80714586               -1.66083320               13.53487183                1.07673582
               9.67485167                4.85881412               39.86695229                0.00010000                0.13212489                0.00229066               -1.17037265               -1.70549616               13.08470704                2.08297070
              10.67785870                4.60504965               39.83684542                0.00010000                0.56858252               -0.16447877               -1.60379933               -1.64599813               12.64653814                3.24916770
              11.68622332                4.35285481               39.80015786                0.10135362                0.86880750               -0.48411044               -2.23708225               -0.72483629                8.42645326                4.58659198
              12.69523485                4.11711286               39.68286746                0.41759128                0.72417226               -0.03221941               -1.39031477                0.03803400                2.25180266                3.09204392
              13.70070676                3.88043865               39.52124829                0.86821126                0.54719162                0.49707289               -1.58289846               -0.03493899                0.05469112                1.03611494
               3.92775636                7.35611493               40.26845090                1.00000000               -0.07365083               -0.19716863                0.42259986               -0.03130862                0.04202196                0.84842816
               4.92701985                7.11621833               40.10641022                0.50179879               -0.05284559                0.01036448                0.10799843               -0.03950970                0.30752532               -0.81962664
               5.92669945                6.87521290               39.94964974                0.06007787               -0.23800689                0.23543353               -0.19700581               -0.45183786                5.48816462               -2.64020646
               6.92225971                6.62603965               39.89114540                0.00010000               -0.49053345                0.06003807                0.05526627               -1.35565004               13.32347989                1.53072421
               7.91688878                6.37120170               39.89014260                0.00010000               -0.45642453                0.25086329               -0.52479452               -1.69350742               16.30639262                0.94282243
               8.91313122                6.11532562               39.88825792                0.00010000               -0.25644535                0.22807842               -0.90405188               -1.82108036               16.24936520                1.49381991
               9.91175987                5.85934610               39.88327750                0.00010000                0.03224899                0.09806237               -1.27963217               -1.91680661               16.13029909                2.44163882
              10.91377620                5.60373037               39.87618289                0.00010000                0.47476909               -0.08936739               -1.72877170               -2.02029123               16.03710744                3.74176791
              11.92125525                5.34831584               39.86632672                0.11693380                0.77866253               -0.38060833               -2.40750020               -1.00102035               10.15174234                5.64416545
              12.92934945                5.11708279               39.73731782                0.40547844                0.65438144                0.05081240               -1.32535046                0.04204135                2.16701046                2.66151903
              13.93434288                4.88537137               39.56542604                0.86309910                0.49934290                0.50112910               -1.54519913               -0.02134051                0.04803025                0.60425968
               4.16630390                8.35450186               40.21289618                1.00000000               -0.02546494               -0.12593196                0.25140593               -0.02863666                0.01197613                0.78046149
               5.16604925                8.11655472               40.04256096                0.47297653                0.00001306                0.05313681               -0.06024459               -0.01868538                0.14477877               -0.82691372
               6.16630416                7.87783579               39.87481984                0.04246556               -0.25807191                0.26146071               -0.37859423               -0.58855179                8.18440237               -2.72193416
               7.16088781                7.62726243               39.86517003                0.00010000               -0.55454587                0.25957950               -0.32543024               -1.31549611               17.11319727                0.51910323
               8.15521324                7.37406322               39.87352281                0.00010000               -0.51188103                0.36964581               -0.66310471               -1.58300882               18.42104572                0.98309083
               9.15065019                7.11813265               39.88689378                0.00010000               -0.35512273                0.36465097               -1.01674106               -1.86333473               18.92539592                1.57715381
              10.14811079                6.86077537               39.90196962                0.00010000               -0.10835274                0.21564358               -1.35139376               -2.10765835               19.29851882                2.52124344
              11.14848314                6.60326230               39.91948274                0.00010000                0.23698509               -0.01153395               -1.71011587               -2.36060568               19.83842173                3.88813082
              12.15285049                6.34524264               39.94186407                0.14412853                0.52685024               -0.18036771               -2.19600705               -1.27910857               11.50450852                5.97118589
              13.15902014                6.11812911               39.78719420                0.40213063                0.54261487                0.16182072               -1.30166652                0.04543777                1.39348576                2.16717210
              14.16370279                5.89046123               39.60486821                0.85961916                0.46826468                0.52241358               -1.57291427               -0.00471371                0.04092810                0.07800561
               4.40307791                9.35359629               40.15716075                1.00000000                0.02343116               -0.05625230                0.08107425               -0.02676039               -0.00170407                0.78397551
               5.40331222                9.11728107               39.97883341                0.49569262                0.05713980                0.09134372               -0.22622564               -0.00422299               -0.01844014               -0.78883450
               6.40422070                8.88044211               39.80007707                0.03003243               -0.17949316                0.25060708               -0.54860146               -0.58670018               10.17344730               -2.45825608
               7.39972235                8.63123124               39.82542303                0.00010000               -0.49311594                0.45146721               -0.61174852               -1.18540024               20.70153808               -0.28543233
               8.39435838                8.37859462               39.85374979                0.00010000               -0.52849894                0.51639446               -0.86403935               -1.38255767               21.17571332                0.63325462
               9.38915238                8.12261864               39.88434454                0.00010000               -0.49406664                0.55089696               -1.14684683               -1.71070201               21.73409904                1.30151944
              10.38447705                7.86365898               39.91931527                0.00010000               -0.35277786                0.47560160               -1.42669266               -2.16045236               22.52235030                2.17352882
              11.38209682                7.60349969               39.96120497                0.00010000               -0.18353927                0.16144113               -1.60307485               -2.67939973               23.71549980                3.43873794
              12.38080627                7.34470849               40.01562880                0.18733127                0.14713963                0.06188906               -1.57991233               -1.57523541               12.76140953                5.03239065
              13.38503961                7.12031920               39.83230391                0.40641559                0.43890480                0.27183789               -1.31180339                0.01330906                0.47193289                1.69447109
              14.38958436                6.89581964               39.63935618                0.85589892                0.45447499                0.54177405               -1.64921513                0.00505396                0.02471482               -0.42448314
               4.63839914               10.35337682               40.10172457                0.98423671                0.07198317                0.00949330               -0.08995249               -0.02624854               -0.01441289                0.70286788
               5.63911897               10.11838160               39.91553554                0.53880023                0.11104243                0.12957674               -0.38912043               -0.00334345                0.02492704               -0.64430718
               6.64061999                9.88284793               39.73000505                0.00114760               -0.00458345                0.24436842               -0.70360544               -0.52208453               12.00072217               -1.58111943
               7.63902730                9.63629178               39.78310976                0.00010000               -0.22226499                0.43892621               -0.84117485               -0.79884161               23.87090259               -0.28208221
               8.63617469                9.38439111               39.83015145                0.00010000               -0.38277527                0.58200027               -1.05413036               -0.88845795               23.87133165                0.28101370
               9.63137179                9.12915059               39.87741542                0.00010000               -0.60769965                0.72285946               -1.29626344               -1.09716055               24.46807885                0.73363817
              10.62402069                8.87028740               39.93050772                0.00010000               -0.87630816                0.83415187               -1.53766271               -1.63516496               25.62335982                1.29190067
              11.61384563                8.60649112               39.99469147                0.03620118               -0.97472125                0.84228173               -1.73149204               -2.32823309               27.19356765                2.17401396
              12.60452627                8.34648042               40.07290576                0.25502696               -0.28352339                0.25853207               -1.05915278               -1.84227824               14.17679302                2.65960673
              13.60817516                8.12356587               39.87263364                0.41820702                0.41383599                0.35829356               -1.32871923               -0.03482825                0.12290489                1.10183243
              14.61280299                7.90129672               39.66878128                0.84391303                0.46278244                0.55006278               -1.75130169                0.00564517               -0.01937261               -0.66943459
               4.87254338               11.35378616               40.04435772                1.00000000                0.12308612                0.04093376               -0.25393164                0.02306857                0.38279195                0.60996585
               5.87377424               11.11987260               39.85449061                0.81506584                0.16627290                0.14910041               -0.55331679                0.04269311                0.78108636               -0.52080653
               6.87586883               10.88532948               39.67242043                0.49201091                0.42140514                0.24815503               -0.86118846               -0.46825704               13.85956759               -0.94034239
               7.88220234               10.64000976               39.74385398                0.36929152                0.39307892                0.37179879               -1.03174136               -0.43723867               26.38993823               -0.22952757
               8.88373041               10.39023462               39.80418347                0.35901010               -0.04447344                0.58435127               -1.23313294               -0.39112381               26.15074967                0.08990769
               9.88131287               10.13707583               39.86414103                0.37040161               -0.46485984                0.79252454               -1.46648309               -0.50052280               26.77824713                0.35241633
              10.87443322                9.88034201               39.93052338                0.40268447               -1.09868662                1.00546083               -1.70009514               -0.79527296               28.14980817                0.66844242
              11.85933914                9.62034533               40.01074266                0.54320641               -2.37736328                1.38542040               -1.98316733               -1.97379342               29.60151446                1.24330850
              12.82688595                9.34987913               40.09869787                0.66095303               -1.49061939                0.33987054               -1.13036495               -2.40704417               16.08157324                1.15105103
              13.82952675                9.12748508               39.90538945                0.72605506                0.36748116                0.39192051               -1.37507125               -0.01775250                1.32717147                0.75642362
              14.83423557                8.90682090               39.69785470                0.92066161                0.47088224                0.55241840               -1.83784525                0.07684107                0.65188692               -0.64837119
               2.56809543                1.44103419               41.58262588                1.00000000               -0.36812442               -0.40744681                1.40328056               -0.06998238               -1.09267517                1.06285425
               3.56441419                1.18238730               41.45718025                1.00000000               -0.31330387               -0.29861502                1.06776149               -0.04210945               -1.46056568                0.16964921
               4.56182935                0.92325394               41.32459286                1.00000000               -0.20042014               -0.19312056                0.70428143               -0.04581596               -1.46935424               -0.21015372
               5.56040579                0.66349585               41.19902788                0.64952700               -0.03042568               -0.10135510                0.34778058               -0.23761777               -0.82874014               -0.96849144
               6.56122084                0.39907290               41.07922050                0.70408172                0.24809755               -0.12428208               -0.13309078               -0.05893557               -0.40448391                0.25828670
               7.56536774                0.13142899               40.96271812                0.74971507                0.46481345                0.03314826               -0.46682367               -0.10138082               -0.21520263                0.11261053
               8.57051711               -0.13426925               40.84545743                0.73284067                0.55097325                0.10836822               -0.67501876               -0.05350927               -0.08662898               -0.11237089
               9.57638720               -0.39715868               40.72945820                0.82819956                0.51255490                0.15960899               -0.74706176               -0.08296646               -0.26123261                0.09947504
              10.58076821               -0.65737235               40.60633396                1.00000000                0.39485375                0.24157291               -0.88065848               -0.07163852               -0.76366466                0.66164708
              11.58428428               -0.91636531               40.47913442                1.00000000                0.36846413                0.33071470               -1.10565333               -0.04019817               -0.90214412                0.04619695
              12.58813749               -1.17524633               40.35293123                1.00000000                0.38532144                0.42225294               -1.37455431               -0.02623710               -0.84396085               -0.82207867
               2.82604249                2.43695972               41.52742781                1.00000000               -0.31592724               -0.39676972                1.24076675               -0.01404648               -0.21428126                1.44232435
               3.82288322                2.17940115               41.40193375                1.00000000               -0.26127828               -0.27590904                0.90827194                0.01222223               -0.32220329                0.24361472
               4.82081692                1.92132273               41.27443471                1.00000000               -0.13815469               -0.16442391                0.54769443               -0.01030764               -0.24908369               -0.42296135
               5.82012012                1.66248229               41.15030285                0.30404612                0.29239939               -0.06505307                0.20310881               -0.30392203                1.28960896               -1.29223813
               6.82666491                1.39783008               41.05320739                0.41964305                0.54524417               -0.12306746               -0.23361330               -0.04428026                2.30680623                0.76990976
               7.83102501                1.13176047               40.94661085                0.49343232                0.38054712                0.06774008               -0.54068788               -0.08266107                1.82915620                0.37166304
               8.83427585                0.86681443               40.83815179                0.42135471                0.30420381                0.17759193               -0.72582151               -0.05442769                2.03421759               -0.34162017
               9.83710908                0.60443741               40.73447927                0.50826605                0.26896421                0.22075405               -0.77509503               -0.07332803                2.07807679                0.45634599
              10.83965514                0.34504338               40.62633776                1.00000000                0.28551009                0.25968951               -0.90443758               -0.04746890                1.05113595                0.86437090
              11.84281929                0.08694183               40.50205465                1.00000000                0.35504973                0.33639103               -1.16344672                0.00344287                0.15769116                0.20105617
              12.84675613               -0.17102380               40.37610472                1.00000000                0.39368481                0.43193641               -1.43284217                0.01862181                0.07011819               -0.95579556
               3.08293163                3.43309879               41.48013358                1.00000000               -0.26360118               -0.37957746                1.09293476               -0.00837980                0.02404710                1.81924624
               4.08029562                3.17686912               41.34828819                1.00000000               -0.21947844               -0.23260556                0.76054958                0.00988635                0.19345269                0.25356834
               5.07854206                2.91996546               41.21995435                0.73806456               -0.12378129               -0.09201481                0.41384453               -0.03495885                0.52936323               -1.10884248
               6.07781999                2.66219478               41.09473835                0.00010000                0.62574973               -0.01701212                0.03741860               -0.43396893                4.08260798               -1.83279253
               7.09105706                2.39661156               41.03720162                0.00010000                0.84550888               -0.16044688               -0.45814164               -1.03531393                5.56751536               -0.99127758
               8.09473017                2.13278379               40.93524830                0.00010000                0.28472838               -0.01141652               -0.68207964               -0.97700281                3.08344009               -0.01603441
               9.09675162                1.86928259               40.82585479                0.00010000                0.09807586                0.07353290               -0.85501847               -0.87085582                4.25128925                0.70814928
              10.09669169                1.60725640               40.74647749                0.00010000                0.02813907                0.07268673               -0.85318181               -0.57696647                4.86569068                1.10733738
              11.09731441                1.34782144               40.65033246                0.39096366                0.18643137                0.23178118               -0.94819710               -0.21295497                2.66734379                1.74395076
              12.10042031                1.09036251               40.52803008                1.00000000                0.35633922                0.33463517               -1.21987245               -0.04238848                0.88573691                0.79821797
              13.10444119                0.83339240               40.39660230                1.00000000                0.40208747                0.45114712               -1.47109061                0.01004347                0.41392861               -0.90959273
               3.33833423                4.42936817               41.43276225                1.00000000               -0.21199530               -0.36131426                0.94363030               -0.01697326                0.12669841                1.65904616
               4.33621428                4.17474904               41.29332330                1.00000000               -0.17710717               -0.18382685                0.61227289               -0.00063265                0.22800163                0.04820950
               5.33479209                3.91948244               41.15599069                0.36669937               -0.07098141               -0.01866299                0.30095175               -0.10385957                1.14467397               -1.60558586
               6.33479465                3.66214205               41.03478211                0.00010000                0.02887689                0.05712207               -0.05526894               -0.67452677                5.11134478               -2.47058086
               7.33536962                3.39462115               40.97648797                0.00010000                0.20096363               -0.04386706               -0.43300837               -1.75585708                8.02946068               -2.21605987
               8.33881392                3.13153214               40.91090081                0.00010000                0.35082544               -0.10005167               -0.74063619               -1.73955786                7.47149478               -0.23425054
               9.34238613                2.86828509               40.83861459                0.00010000                0.41084872               -0.12677631               -0.96851510               -1.68223092                7.11191338                1.70756921
              10.34703090                2.60589114               40.76394874                0.00010000                0.49518991               -0.16943676               -1.14061148               -1.10554953                6.97879984                1.87320831
              11.35228993                2.34967901               40.68804035                0.10462500                0.46848316               -0.16904666               -1.01620543               -0.43501468                4.44657146                2.51609728
              12.35640056                2.09363454               40.56305156                0.54484077                0.43036418                0.19046679               -1.32056731               -0.14188852                1.12765259                1.91418216
              13.36089722                1.83799914               40.42095838                0.96148145                0.44966562                0.44550839               -1.53720422               -0.04715792                0.24746989               -0.05938987
               3.59183042                5.42587251               41.38251730                1.00000000               -0.16617182               -0.32789110                0.78151751               -0.03461976                0.22712519                1.33746590
               4.59016870                5.17319259               41.23558583                0.74925934               -0.13792781               -0.11432885                0.45487213               -0.03467655                0.36109714               -0.35390015
               5.58907186                4.91959220               41.09137592                0.17317122               -0.04889759                0.06989322                0.14343075               -0.17872443                1.44833040               -1.86827627
               6.58919075                4.66333723               40.96606907                0.00010000               -0.12610190                0.14752284               -0.17927266               -0.93246722                7.14372215               -2.28276610
               7.58654982                4.39573421               40.93548142                0.00010000               -0.14578371                0.15080995               -0.47535944               -1.60656997               11.45275527               -0.61951097
               8.58627507                4.13078276               40.89385608                0.00010000                0.10990925                0.00914813               -0.81109079               -1.69218499               10.63012413                0.50199044
               9.58874801                3.86674706               40.84440340                0.00010000                0.34558528               -0.09780914               -1.12200042               -1.72099691               10.08291101                1.62068267
              10.59318678                3.60386766               40.78950140                0.00010000                0.60613548               -0.20216527               -1.41084023               -1.50852612                9.57558986                2.56009228
              11.60087072                3.34444051               40.72810208                0.08512273                0.80378143               -0.50473606               -1.84455617               -0.67016742                6.52821230                3.14527578
              12.60926241                3.09417184               40.61168121                0.42400042                0.69490494               -0.04996280               -1.35252991               -0.02112963                1.94420386                2.97912284
              13.61476882                2.84230257               40.45900471                0.86750024                0.55064093                0.39650020               -1.53634646               -0.04357839                0.12931093                0.96645631
               3.84300167                6.42281035               41.32892941                1.00000000               -0.12006217               -0.27324206                0.60882013               -0.03779952                0.11349631                1.02862602
               4.84180105                6.17246247               41.17252665                0.57829689               -0.09643579               -0.03784036                0.26744709               -0.05267794                0.40188660               -0.71459707
               5.84107296                5.92088030               41.02190539                0.09156841               -0.08988817                0.18500188               -0.04551513               -0.28416301                2.60237070               -2.33506344
               6.84000329                5.66509251               40.90941814                0.00010000               -0.26401340                0.06845721               -0.10206876               -1.28096677                9.96721960                0.25279865
               7.83579269                5.39763735               40.90578622                0.00010000               -0.30229564                0.21170741               -0.51574567               -1.84423264               14.62485983                0.39253337
               8.83395738                5.13171511               40.88355068                0.00010000               -0.04556994                0.14532440               -0.90318146               -1.84495446               13.49533448                1.14046011
               9.83488129                4.86632890               40.85470210                0.00010000                0.26047728                0.01482350               -1.27552800               -1.89745383               13.00546425                2.10226596
              10.83916692                4.60184784               40.82018781                0.00010000                0.68505562               -0.16448765               -1.70820939               -1.79329581               12.41203906                3.17783036
              11.84858240                4.33958428               40.77718013                0.08916619                0.94744932               -0.48336425               -2.30263199               -0.83672053                8.80642274                4.37412823
              12.85811591                4.09263528               40.66921783                0.39545513                0.75908956               -0.11233823               -1.32602451               -0.02036643                2.80279433                3.19669772
              13.86376420                3.84592915               40.50574849                0.85421129                0.56482870                0.37474242               -1.50846093               -0.02189499                0.04436904                1.12247883
               4.09177019                7.42040767               41.27270230                1.00000000               -0.07250015               -0.20323552                0.42966565               -0.03208181                0.03922968                0.83581291
               5.09104519                7.17243578               41.10740987                0.49109968               -0.05058152                0.02093552                0.09085183               -0.04188355                0.30913863               -0.82855311
               6.09075856                6.92329224               40.94749802                0.05559085               -0.21154100                0.26778074               -0.23794953               -0.52050686                5.77629981               -2.66119846
               7.08681437                6.66470637               40.89146721                0.00010000               -0.38579926                0.05383643               -0.01381114               -1.45500035               13.50087532                1.55636387
               8.08304257                6.39996836               40.88447891                0.00010000               -0.30649707                0.26601144               -0.60790481               -1.83083226               16.15885093                0.99767876
               9.08068442                6.13368925               40.87868437                0.00010000               -0.11881853                0.25109898               -1.01031129               -1.97840238               16.20052970                1.55341711
              10.08066620                5.86704353               40.86978735                0.00010000                0.16905284                0.12473950               -1.41164502               -2.08204265               16.02956839                2.50045773
              11.08406548                5.60057791               40.85793497                0.00010000                0.63413307               -0.06998908               -1.90059167               -2.15686688               15.74310490                3.81164150
              12.09334886                5.33477323               40.84073939                0.10331038                0.92223667               -0.41850609               -2.64623198               -1.09852459               10.64342036                5.74878528
              13.10251021                5.09192508               40.72402354                0.38556385                0.71971590                0.00413778               -1.32321958               -0.01637051                2.88116389                2.75092030
              14.10774318                4.84979742               40.55000817                0.85051976                0.52329660                0.42222932               -1.53723629               -0.01312742                0.03961318                0.61030834
               4.33830381                8.41874564               41.21540832                1.00000000               -0.02250001               -0.12980466                0.25263948               -0.02913000                0.01056280                0.76854400
               5.33807881                8.17288118               41.04185479                0.46443366                0.00442104                0.06424223               -0.08244070               -0.01784431                0.14009569               -0.83153713
               6.33839223                7.92623592               40.87083512                0.03817524               -0.19258264                0.29108107               -0.42249317               -0.66374912                8.35671181               -2.72950910
               7.33422716                7.66616924               40.86148249                0.00010000               -0.40995317                0.27797952               -0.40840074               -1.42842121               17.28806009                0.35330642
               8.33019317                7.40295757               40.86642297                0.00010000               -0.34564972                0.37671985               -0.76012086               -1.70827634               18.40967701                0.98727306
               9.32731416                7.13673709               40.87610499                0.00010000               -0.19206953                0.38008399               -1.13845833               -1.97275061               18.90627286                1.62616322
              10.32635178                6.86882369               40.88760843                0.00010000                0.04928629                0.25117970               -1.51471822               -2.20495049               19.24967711                2.60892731
              11.32829989                6.60044806               40.90111001                0.00010000                0.44564841                0.03388029               -1.95573841               -2.45595605               19.63649088                4.09412376
              12.33526475                6.33121416               40.91745905                0.12811874                0.72322093               -0.21851656               -2.68062865               -1.33415597               12.01570982                6.54489096
              13.34276431                6.09271804               40.77388089                0.38368695                0.62461122                0.15320191               -1.35831706                0.01038716                2.07774530                2.23348082
              14.34775697                5.85437373               40.58888858                0.84791705                0.49926624                0.49484218               -1.63159818                0.00188260                0.03953090                0.01512599
               4.58291651                9.41781157               41.15793910                0.99776930                0.02815135               -0.05766894                0.07561138               -0.02718104               -0.00149413                0.77150821
               5.58319802                9.17372062               40.97644785                0.48939624                0.06395029                0.10258417               -0.25257086               -0.00246044               -0.02579358               -0.78951911
               6.58419551                8.92911386               40.79437427                0.02608385               -0.08368692                0.27450727               -0.59667555               -0.67485109               10.28627794               -2.44991722
               7.58152428                8.67026596               40.81892333                0.00010000               -0.29431584                0.44764071               -0.69269148               -1.32910023               20.86466366               -0.36578944
               8.57830920                8.40750276               40.84457005                0.00010000               -0.30804951                0.49583907               -0.97062688               -1.48868290               21.23619824                0.61380821
               9.57536329                8.14129093               40.87217008                0.00010000               -0.27264867                0.53944056               -1.28481607               -1.75900249               21.77704358                1.33839151
              10.57285622                7.87206712               40.90412365                0.00010000               -0.14037003                0.48884157               -1.60873299               -2.15319420               22.59081038                2.26035976
              11.57255589                7.60125552               40.94380986                0.00010000                0.07697697                0.20326592               -1.88466626               -2.68294410               23.88039928                3.64174550
              12.57439576                7.33040289               40.99770462                0.16841419                0.35012475                0.06276764               -2.08513392               -1.61207322               13.25628248                5.85796259
              13.57955839                7.09498912               40.81870605                0.38854759                0.50368368                0.29036156               -1.41231858                0.00218773                0.85695850                1.75832163
              14.58446944                6.85969426               40.62238790                0.84434462                0.49110492                0.55404916               -1.75990762                0.01027896                0.03120314               -0.51998369
               4.82594209               10.41759226               41.10076670                0.97950791                0.07852293                0.01119681               -0.10050881               -0.02704034               -0.01260673                0.69262869
               5.82672731               10.17493286               40.91149252                0.53450145                0.12038935                0.14096478               -0.42227439               -0.00255295                0.01973129               -0.64300973
               6.82834987                9.93172606               40.72272840                0.00010000                0.12644683                0.26365385               -0.75665402               -0.63767944               12.07483207               -1.56442454
               7.82925625                9.67512205               40.77428731                0.00010000                0.05223348                0.37730214               -0.92505968               -0.92896510               24.00903834               -0.31787006
               8.82939454                9.41287436               40.81902823                0.00010000               -0.08432510                0.52343086               -1.16865919               -0.95855142               23.96778248                0.27288181
               9.82756975                9.14752590               40.86367351                0.00010000               -0.30356187                0.67509694               -1.44830281               -1.10098492               24.55285309                0.75505166
              10.82332330                8.87860053               40.91418596                0.00010000               -0.56322568                0.79651438               -1.72577295               -1.57245652               25.74359549                1.34846311
              11.81630524                8.60451337               40.97661695                0.01985423               -0.70168119                0.82011111               -1.90397679               -2.27430053               27.75830414                2.24474196
              12.80928968                8.33246952               41.06120551                0.23395207               -0.13942700                0.31317997               -1.34284516               -1.87779743               14.78320849                3.13977696
              13.81351670                8.09852527               40.85877887                0.40064916                0.46312896                0.39146140               -1.45373414               -0.04586440                0.22023533                1.16609929
              14.81855226                7.86545472               40.65064560                0.83189549                0.50355645                0.58600670               -1.89479684                0.00786007               -0.01917927               -0.75542706
               5.06769450               11.41803551               41.04172486                0.99980693                0.13186626                0.04432507               -0.27223468                0.02568222                0.37634940                0.60245442
               6.06901316               11.17653992               40.84877381                0.81403804                0.17791179                0.16070600               -0.59302197                0.04615577                0.77126749               -0.51871154
               7.07125273               10.93438694               40.66353932                0.49005965                0.63917631                0.26608751               -0.92061300               -0.64610988               13.91248203               -0.92200826
               8.08179668               10.67781200               40.73309763                0.36933948                0.77407952                0.26899512               -1.11997439               -0.56673458               26.51319089               -0.25140051
               9.08673432               10.41797138               40.79123226                0.35913963                0.29103695                0.50970210               -1.35448882               -0.41697881               26.25162464                0.08352988
              10.08761742               10.15479287               40.84865101                0.37016901               -0.11573527                0.72669690               -1.62710269               -0.49393085               26.86715108                0.36286898
              11.08441962                9.88799741               40.91254689                0.40171279               -0.72082665                0.93968851               -1.89454354               -0.74712522               28.25823211                0.70349588
              12.07320089                9.61765774               40.99060421                0.53391569               -2.07958483                1.31443647               -2.05938521               -1.87698035               30.24503158                1.23551124
              13.04282792                9.33666649               41.08639830                0.64980736               -1.37724969                0.41969776               -1.37762324               -2.38814580               16.87839987                1.32574111
              14.04565590                9.10281834               40.89108117                0.71736531                0.39699082                0.42930767               -1.50144376               -0.04868485                1.49011964                0.81957764
              15.05076774                8.87141439               40.67879642                0.91430690                0.51118397                0.59596765               -1.99476284                0.08115266                0.68740227               -0.71090816
               2.68412703                1.50776278               42.59692136                1.00000000               -0.38108159               -0.42554283                1.46461484               -0.07571170               -1.12462561                1.08156526
               3.68031622                1.24016749               42.46796148                1.00000000               -0.32227730               -0.30554454                1.09266197               -0.04418680               -1.51227314                0.17733635
               4.67768149                0.97208042               42.33156239                1.00000000               -0.20333708               -0.18978873                0.69051984               -0.04708511               -1.53831964               -0.21187674
               5.67624948                0.70319588               42.20224242                0.65649980               -0.05024967               -0.08104256                0.29275595               -0.30427711               -0.96706708               -0.97596056
               6.67667649                0.42810256               42.07736490                0.70990493                0.25852926               -0.10665896               -0.24190055               -0.07308584               -0.55511989                0.24515148
               7.68142006                0.14890140               41.95735649                0.74935328                0.54904628                0.06028034               -0.61363035               -0.11468376               -0.22785488                0.08680832
               8.68765742               -0.12800074               41.83801632                0.72530447                0.67075962                0.13377676               -0.82689843               -0.05055931                0.05866241               -0.15059800
               9.69483525               -0.40112298               41.72155797                0.81626890                0.61005029                0.17017014               -0.84343211               -0.08705872               -0.04297730                0.07775170
              10.69985842               -0.67057322               41.59732650                1.00000000                0.43482416                0.24482173               -0.92126573               -0.07353475               -0.61645215                0.67637055
              11.70353174               -0.93848029               41.46794532                1.00000000                0.38053019                0.33259676               -1.13255166               -0.03893647               -0.83258581                0.05567461
              12.70746903               -1.20613083               41.33908123                1.00000000                0.39372926                0.42212082               -1.39640822               -0.03151620               -0.79822760               -0.77895755
               2.95096520                2.50350735               42.54006306                1.00000000               -0.32496716               -0.41409245                1.29395049               -0.01417902               -0.23121241                1.46323608
               3.94771553                2.23711205               42.41108141                1.00000000               -0.26343783               -0.28191938                0.92451089                0.01439746               -0.35568131                0.25584637
               4.94569644                1.97018253               42.27982951                1.00000000               -0.12599484               -0.16056644                0.53001951               -0.00905954               -0.28736299               -0.41590898
               5.94519563                1.70238545               42.15213492                0.31767950                0.36982159               -0.04361872                0.15496489               -0.38711119                1.20804847               -1.31341334
               6.95309287                1.42703597               42.05037458                0.42876937                0.65646210               -0.12576200               -0.34401396               -0.07762492                2.22660826                0.70346679
               7.95832487                1.14950420               41.94056254                0.49642479                0.45355709                0.09777978               -0.68606365               -0.11577269                1.88012204                0.31747589
               8.96216402                0.87333703               41.83027960                0.42063689                0.34630172                0.21919421               -0.87035355               -0.06753840                2.23525145               -0.41716969
               9.96525091                0.60057872               41.72643481                0.49950261                0.28188563                0.24497774               -0.84683128               -0.08806239                2.31298172                0.40848596
              10.96780173                0.33187500               41.61731249                1.00000000                0.28351350                0.25811193               -0.89732290               -0.05530155                1.15716654                0.86826322
              11.97092118                0.06484568               41.49047507                1.00000000                0.35013411                0.33271771               -1.14924699                0.00363354                0.17554582                0.21062413
              12.97480441               -0.20190962               41.36185812                1.00000000                0.38832339                0.42495578               -1.41379261                0.01267914                0.07995732               -0.90220735
               3.21663405                3.49948093               42.49125458                1.00000000               -0.27050709               -0.39494818                1.13734138               -0.00912270                0.01692086                1.84195755
               4.21392898                3.23452910               42.35592681                1.00000000               -0.22035816               -0.23572305                0.76862517                0.00952111                0.17603757                0.26952593
               5.21222689                2.96886909               42.22393539                0.75624376               -0.11375877               -0.08411972                0.38168084               -0.03762889                0.49130769               -1.07877925
               6.21165381                2.70232350               42.09479340                0.00010000                0.78891774                0.00712621               -0.02958558               -0.55893938                3.96975614               -1.82699204
               7.22800525                2.42558732               42.03203733                0.00010000                1.05748711               -0.15166317               -0.59147329               -1.26529477                5.50508071               -0.98315317
               8.23280355                2.15085699               41.92770199                0.00010000                0.36134445                0.04840571               -0.85526787               -1.17260902                3.20028199               -0.03874874
               9.23523213                1.87638315               41.81655563                0.00010000                0.08662444                0.16391333               -1.04061812               -1.03688373                4.51419794                0.63499323
              10.23453604                1.60377657               41.73763888                0.00010000               -0.03733515                0.14934554               -0.94142735               -0.67850503                5.16069830                0.94995032
              11.23448543                1.33458902               41.64108290                0.37759173                0.14264946                0.21091189               -0.89384983               -0.25539621                2.76245189                1.72088931
              12.23738903                1.06817407               41.51607175                1.00000000                0.33738940                0.32047565               -1.16543692               -0.04250177                0.87136923                0.78307351
              13.24123322                0.80236828               41.38216842                1.00000000                0.38441915                0.42982336               -1.40972914                0.00468185                0.40685398               -0.86161715
               3.48068639                4.49560838               42.44235216                1.00000000               -0.21686018               -0.37420573                0.97891225               -0.01793148                0.12621184                1.67108165
               4.47851779                4.23239759               42.29944077                1.00000000               -0.17684617               -0.18288955                0.61175948               -0.00149460                0.23611980                0.05857868
               5.47714947                3.96850014               42.15884109                0.36407007               -0.06095898               -0.00536012                0.26391709               -0.10610152                1.14029565               -1.58212813
               6.47729861                3.70252798               42.03389678                0.00010000                0.10520113                0.08440393               -0.13122056               -0.79632922                5.07442339               -2.42703162
               7.47925349                3.42400271               41.97165626                0.00010000                0.33891301                0.00379346               -0.54640568               -2.05895975                8.02005341               -2.07579719
               8.48407687                3.15047232               41.90290451                0.00010000                0.46266375               -0.03134616               -0.87609190               -2.01972038                7.53712667               -0.16677708
               9.48850676                2.87661530               41.82840173                0.00010000                0.46990335               -0.03783570               -1.09235577               -1.93887780                7.24133205                1.69559120
              10.49347494                2.60356563               41.75227462                0.00010000                0.48947727               -0.08969286               -1.20395953               -1.32540689                7.27859078                1.68534432
              11.49829631                2.33609324               41.67827603                0.09138157                0.44084707               -0.14126197               -0.92814274               -0.52981170                4.60242052                2.06071494
              12.50229188                2.07125519               41.55026095                0.51479110                0.41066526                0.14846471               -1.22900646               -0.13206794                1.07843844                1.90323452
              13.50650961                1.80668684               41.40604205                0.93945229                0.42177375                0.38003222               -1.43664298               -0.03687353                0.23731216                0.00191859
               3.74269702                5.49199681               42.39044769                1.00000000               -0.16896817               -0.33878128                0.80798233               -0.03625255                0.23478693                1.33602260
               4.74100734                5.23087131               42.24009726                0.73666599               -0.13612753               -0.10830652                0.44694620               -0.03767741                0.37469650               -0.36168391
               5.73997447                4.96876189               42.09261273                0.16559607               -0.03913452                0.09018057                0.09989275               -0.18455179                1.46583119               -1.87801645
               6.74022465                4.70401158               41.96394506                0.00010000               -0.05463794                0.15957667               -0.25584034               -1.04720566                7.17261563               -2.13163474
               7.73888171                4.42566319               41.93029994                0.00010000               -0.02140464                0.19482099               -0.57103558               -1.81504899               11.48536356               -0.49444416
               8.73979655                4.15023007               41.88523605                0.00010000                0.22397771                0.05398379               -0.92233035               -1.89533105               10.65553064                0.58451858
               9.74336126                3.87562643               41.83271519                0.00010000                0.43767039               -0.05699017               -1.22110841               -1.92151522               10.12915889                1.61889991
              10.74854996                3.60198271               41.77514696                0.00010000                0.64191838               -0.16964720               -1.45468860               -1.68580738                9.53866035                2.39582198
              11.75619963                3.33176378               41.70965510                0.07348081                0.78020490               -0.41965861               -1.81697794               -0.79069540                6.83100237                2.55453456
              12.76415406                3.07114336               41.59868683                0.39850716                0.67164079               -0.12753549               -1.23711746               -0.06821759                2.30162214                3.00989640
              13.76963245                2.80996893               41.44422489                0.85016853                0.54783875                0.25989655               -1.41086253               -0.01628263                0.12371820                1.03891822
               4.00221233                6.48883276               42.33509518                1.00000000               -0.12131703               -0.28222661                0.62704444               -0.03869089                0.10838794                1.01814458
               5.00099916                6.23023146               42.17513827                0.56467965               -0.09470867               -0.02760945                0.25377977               -0.05647273                0.41039236               -0.73017105
               6.00031816                5.97030375               42.02125585                0.08598022               -0.07729884                0.21486584               -0.08950376               -0.31591556                2.76493388               -2.35802488
               6.99945319                5.70571951               41.90827492                0.00010000               -0.17920707                0.05454952               -0.13292494               -1.36664674               10.08128930                0.48974739
               7.99673402                5.42789913               41.90021322                0.00010000               -0.16230908                0.24276641               -0.60709484               -2.01003006               14.57603962                0.50521717
               8.99620701                5.15155199               41.87402627                0.00010000                0.07948976                0.18047929               -1.00486822               -2.01934065               13.47957272                1.22000201
               9.99832382                4.87547549               41.84144173                0.00010000                0.37072177                0.04112468               -1.37331624               -2.08199644               12.96504127                2.12344181
              11.00362144                4.60017269               41.80268124                0.00010000                0.74989694               -0.14708531               -1.77399824               -1.93195665               12.25025385                3.06589300
              12.01332175                4.32770006               41.75410522                0.07746175                0.95504673               -0.43755760               -2.26123429               -0.98163752                9.28800982                4.05731373
              13.02272238                4.06870448               41.65634697                0.37337398                0.76055368               -0.18526095               -1.24169024               -0.11327003                3.39534739                3.23145552
              14.02853283                3.81188478               41.49107907                0.83945272                0.58104513                0.22342588               -1.42420960               -0.00529837                0.03575906                1.12346971
               4.25912581                7.48635228               42.27704421                1.00000000               -0.07189132               -0.20984062                0.44085781               -0.03282148                0.03607616                0.82316399
               5.25840689                7.23031912               42.10822726                0.47931634               -0.04788518                0.03272727                0.07136284               -0.04339365                0.31042440               -0.83580557
               6.25816810                6.97305920               41.94489075                0.05011211               -0.15552822                0.30328055               -0.28768744               -0.58620067                6.05590180               -2.67977531
               7.25529633                6.70510257               41.89086917                0.00010000               -0.26597382                0.05764606               -0.11444413               -1.54663546               13.68262193                1.56740311
               8.25284863                6.43051852               41.87798451                0.00010000               -0.17314758                0.29092065               -0.69454535               -1.96063248               16.03650635                1.05830368
               9.25183338                6.15383966               41.86805169                0.00010000                0.01260075                0.28091081               -1.11563370               -2.13432041               16.17029680                1.62038545
              10.25310064                5.87644893               41.85504460                0.00010000                0.29264414                0.15710627               -1.52878887               -2.25115760               15.95150340                2.54926437
              11.25768626                5.59904101               41.83817106                0.00010000                0.74672204               -0.04514035               -2.02604332               -2.28477052               15.47362779                3.82228428
              12.26803508                5.32301263               41.81340208                0.09024055                1.00088438               -0.42624200               -2.73765375               -1.22654069               11.25518832                5.61612277
              13.27770395                5.06743814               41.71085343                0.36614728                0.75654078               -0.02941315               -1.30750314               -0.10760220                3.69267257                2.76421533
              14.28316590                4.81443745               41.53468131                0.83783800                0.54619503                0.32496238               -1.53598168               -0.00281052                0.03484218                0.52015477
               4.51362222                8.48463595               42.21794897                1.00000000               -0.01978476               -0.13421015                0.25726000               -0.02975895                0.00877080                0.75636517
               5.51342437                8.23088600               42.04091214                0.45477426                0.00942424                0.07669158               -0.10767793               -0.01561552                0.13608761               -0.83400480
               6.51381070                7.97636936               41.86636998                0.03297877               -0.11816037                0.32456389               -0.47581629               -0.73554487                8.52793006               -2.73413653
               7.51106116                7.70687243               41.85700201                0.00010000               -0.25132070                0.30040286               -0.49515826               -1.55641478               17.47812381                0.20090236
               8.50878429                7.43371754               41.85832039                0.00010000               -0.17354844                0.38735030               -0.86055639               -1.83576223               18.41707948                0.99295923
               9.50759019                7.15717021               41.86412461                0.00010000               -0.03424876                0.39891434               -1.25410886               -2.08968243               18.90154495                1.67325797
              10.50809931                6.87861762               41.87167526                0.00010000                0.18860694                0.29198532               -1.66212305               -2.31737499               19.19468511                2.67945584
              11.51136233                6.59926988               41.88036797                0.00010000                0.61472475                0.08933243               -2.17315779               -2.55024141               19.33986783                4.23801474
              12.52039381                6.31917522               41.88825150                0.11244136                0.88915917               -0.24456775               -3.09276543               -1.40765063               12.66731236                6.92618420
              13.52914551                6.06811622               41.76002785                0.36594249                0.70421020                0.15747549               -1.41355687               -0.04998218                2.98383608                2.24053750
              14.53447801                5.81838402               41.57223625                0.83644664                0.53324959                0.46127544               -1.71494590                0.01072183                0.04168099               -0.12601429
               4.76603052                9.48366808               42.15867298                0.99270550                0.03306527               -0.05961585                0.07273918               -0.02785479                0.00045578                0.75979602
               5.76636117                9.23185296               41.97378200                0.48215249                0.07201289                0.11547224               -0.28318953                0.00049637               -0.03193858               -0.78958900
               6.76747078                8.97955048               41.78814356                0.02132305                0.02293390                0.30125166               -0.65443144               -0.76155937               10.39645313               -2.43905831
               7.76681985                8.71111063               41.81156920                0.00010000               -0.08175851                0.44438238               -0.78163973               -1.47189349               21.03107559               -0.43818047
               8.76583561                8.43826553               41.83433725                0.00010000               -0.08400980                0.47344992               -1.07401677               -1.59664212               21.30727219                0.59811721
               9.76513965                8.16181794               41.85864822                0.00010000               -0.05910668                0.53002395               -1.41376056               -1.81479832               21.82203809                1.36649017
              10.76465347                7.88228863               41.88714061                0.00010000                0.04920883                0.51079025               -1.78168107               -2.15702139               22.62531503                2.33109723
              11.76612383                7.60082766               41.92351164                0.00010000                0.31911278                0.26608687               -2.17080377               -2.67687640               23.88606696                3.85741716
              12.77103573                7.31812127               41.97392612                0.14899267                0.56858381                0.07035273               -2.73670679               -1.63026474               13.86683880                6.77382736
              13.77749551                7.07058765               41.80405754                0.37139518                0.59045022                0.31982557               -1.52332978               -0.02320229                1.49502596                1.78530794
              14.78284473                6.82366296               41.60415802                0.83318370                0.53492264                0.56978165               -1.90800085                0.01792709                0.04174746               -0.66733991
               5.01669536               10.48344363               42.09971440                0.97485463                0.08565303                0.01254250               -0.10933509               -0.02772064               -0.01220817                0.68272452
               6.01755189               10.23319545               41.90709005                0.52910491                0.13132395                0.15414226               -0.46097989               -0.00126392                0.01545022               -0.64216533
               7.01932184                9.98239439               41.71487197                0.00010000                0.26781768                0.28585025               -0.81969176               -0.75557446               12.14938466               -1.54596423
               8.02290824                9.71576008               41.76460857                0.00010000                0.34111452                0.31252414               -1.01169903               -1.06272382               24.14901282               -0.34708926
               9.02614413                9.44318654               41.80677826                0.00010000                0.21814372                0.46158174               -1.27733639               -1.03077355               24.06407678                0.26454462
              10.02727112                9.16777069               41.84844936                0.00010000               -0.00974804                0.62801392               -1.58915022               -1.10757531               24.62865530                0.76738961
              11.02594917                8.88883343               41.89599226                0.00010000               -0.26394777                0.77007249               -1.91089491               -1.50939412               25.85999654                1.39299523
              12.02199216                8.60459162               41.95661194                0.00079990               -0.39603267                0.81266868               -2.14381897               -2.19933104               28.25378932                2.41392152
              13.01802852                8.32058228               42.04604885                0.21063110                0.05738114                0.39435492               -1.78410188               -1.85688143               15.43134344                3.78867547
              14.02313979                8.07451273               41.84355896                0.38395982                0.53287151                0.43421836               -1.60132303               -0.06835477                0.43908127                1.21845251
              15.02868595                7.82977966               41.63088534                0.82031781                0.55461599                0.63190734               -2.08239918                0.01211261               -0.01301089               -0.86796080
               5.26597247               11.48391893               42.03891303                0.99770412                0.14126578                0.04752982               -0.28932353                0.02939854                0.36982993                0.59334298
               6.26738513               11.23493580               41.84263017                0.81221856                0.19110910                0.17403560               -0.63829084                0.05075178                0.76255725               -0.51613128
               7.26979465               10.98526749               41.65400817                0.48783411                0.86940462                0.28730945               -0.99129695               -0.83145309               13.96700111               -0.90266255
               8.28477322               10.71736111               41.72145449                0.36937034                1.17074365                0.16010338               -1.20872754               -0.70201848               26.63876074               -0.27031184
               9.29320953               10.44749716               41.77709369                0.35924622                0.62840209                0.43106202               -1.46866624               -0.44260492               26.34904272                0.07608098
              10.29734126               10.17437822               41.83159897                0.36994934                0.22175671                0.66075349               -1.77513033               -0.48333948               26.94118181                0.36786094
              11.29764466                9.89769008               41.89263251                0.40074102               -0.34764540                0.88566585               -2.08588370               -0.69531044               28.39782904                0.73505748
              12.29038836                9.61708103               41.96955495                0.52254694               -1.68338393                1.24894149               -2.22494208               -1.74446641               30.82715259                1.35278106
              13.26397698                9.32600837               42.07114540                0.63692540               -1.17286615                0.54260933               -1.74508192               -2.29560394               17.68610677                1.58967649
              14.26693103                9.07927202               41.87536058                0.70911704                0.42880778                0.47592871               -1.65704091               -0.10623886                1.74692813                0.88412261
              15.27255314                8.83630110               41.65795945                0.90820810                0.56221052                0.65214461               -2.19830905                0.08962738                0.72357216               -0.78641839
               2.80352268                1.57638209               43.61191818                1.00000000               -0.39949829               -0.44908765                1.54469658               -0.08290619               -1.15706365                1.09959255
               3.79952769                1.29969417               43.47903349                1.00000000               -0.33703290               -0.31414155                1.12638110               -0.04745170               -1.56561951                0.18386155
               4.79678202                1.02248216               43.33840326                1.00000000               -0.21328821               -0.18506090                0.67881460               -0.05171229               -1.61179926               -0.21208978
               5.79526193                0.74419164               43.20488300                0.66418887               -0.08888222               -0.05286003                0.23249729               -0.37887076               -1.11907305               -0.97707153
               6.79500438                0.45795657               43.07438249                0.71754178                0.24486423               -0.07295772               -0.35263528               -0.09542264               -0.72915216                0.22948573
               7.80015921                0.16675304               42.95044551                0.75077148                0.62422491                0.10114449               -0.77075372               -0.13189428               -0.25889087                0.05615882
               8.80748887               -0.12180776               42.82891946                0.71724662                0.80291300                0.17394838               -1.00515385               -0.04354454                0.22065480               -0.20530133
               9.81621747               -0.40535733               42.71258956                0.80018640                0.72814744                0.18835452               -0.96290121               -0.08862238                0.22794577                0.03923882
              10.82205182               -0.68381690               42.58790865                1.00000000                0.48301805                0.24691506               -0.95954021               -0.07705995               -0.43260051                0.69831880
              11.82587784               -0.96031132               42.45648339                1.00000000                0.39246456                0.33392056               -1.15964337               -0.03744424               -0.75778775                0.06590072
              12.82990111               -1.23637926               42.32500306                1.00000000                0.40232774                0.42241207               -1.42192995               -0.03798791               -0.75150490               -0.73406557
               3.07938154                2.57189121               43.55330682                1.00000000               -0.33783960               -0.43666230                1.36351396               -0.01369996               -0.24900269                1.48239563
               4.07600314                2.29655275               43.42042397                1.00000000               -0.26826893               -0.28969418                0.94754319                0.01741060               -0.38925466                0.26670154
               5.07401616                2.02063155               43.28503510                1.00000000               -0.11335615               -0.15519336                0.50876417               -0.00850556               -0.32443743               -0.41017631
               6.07373602                1.74366304               43.15340214                0.33425005                0.43766447               -0.01492831                0.08894546               -0.47766574                1.11354187               -1.33210761
               7.08276945                1.45722699               43.04632711                0.44188066                0.74932084               -0.11448779               -0.47506654               -0.13264222                2.11958436                0.62733158
               8.08872244                1.16776449               42.93288958                0.50243390                0.51695835                0.14569037               -0.86595500               -0.16184871                1.92628288                0.24558337
               9.09310862                0.87993173               42.82074472                0.41924561                0.38066949                0.28340347               -1.06478651               -0.08142291                2.48825287               -0.53064255
              10.09633582                0.59652622               42.71754264                0.48471548                0.28248014                0.28864660               -0.95165825               -0.10592874                2.64196704                0.32205724
              11.09875822                0.31865225               42.60839131                1.00000000                0.27243731                0.25462945               -0.88019573               -0.07097858                1.31108943                0.87763189
              12.10178457                0.04302789               42.47906971                1.00000000                0.34154773                0.32747046               -1.12793822                0.00384802                0.19382325                0.22003734
              13.10558917               -0.23215514               42.34782887                1.00000000                0.38046015                0.41776930               -1.39088688                0.00588790                0.08883543               -0.84506434
               3.35392560                3.56764884               43.50288041                1.00000000               -0.27900331               -0.41472592                1.19452305               -0.00987058                0.00893846                1.86173644
               4.35113557                3.29390028               43.36366069                1.00000000               -0.22119911               -0.24012953                0.77997210                0.00870263                0.15664665                0.28424802
               5.34950162                3.01937829               43.22758796                0.77227846               -0.10111958               -0.07345114                0.34657174               -0.04406899                0.45282902               -1.05067456
               6.34911317                2.74389308               43.09414663                0.00010000                0.93742334                0.03933628               -0.10542287               -0.69897770                3.83819115               -1.82438225
               7.36825008                2.45566681               43.02537215                0.00010000                1.25521654               -0.11922005               -0.75622350               -1.51163551                5.40761295               -0.96365710
               8.37421751                2.16966685               42.91814294                0.00010000                0.44243025                0.14490249               -1.08630351               -1.38589764                3.30754532               -0.04810813
               9.37709869                1.88386031               42.80504243                0.00010000                0.05804375                0.30528106               -1.30842819               -1.22585973                4.84725301                0.57195221
              10.37537838                1.60041560               42.72764894                0.00010000               -0.14840541                0.27818703               -1.10605471               -0.80960212                5.61683908                0.78105169
              11.37413058                1.32127569               42.63245547                0.36082437                0.06919005                0.18344308               -0.82052462               -0.32918631                2.93825711                1.69287976
              12.37676218                1.04623809               42.50472134                1.00000000                0.31271686                0.30281305               -1.09767021               -0.04404092                0.85091891                0.76499012
              13.38038492                0.77197613               42.36840771                1.00000000                0.36227364                0.40680908               -1.33773165               -0.00159148                0.39760244               -0.80956438
               3.62668124                4.56359669               43.45234049                1.00000000               -0.22335019               -0.38994531                1.02365426               -0.01958267                0.12492585                1.67993078
               4.62444774                4.29175016               43.30555848                1.00000000               -0.17696294               -0.18194405                0.61228885               -0.00360708                0.24224070                0.06853598
               5.62314199                4.01916253               43.16126903                0.35983976               -0.04898993                0.01194063                0.21694472               -0.11306598                1.13266699               -1.55629155
               6.62346794                3.74444977               43.03215770                0.00010000                0.18104887                0.12166568               -0.22546684               -0.92386305                5.03743180               -2.38384012
               7.62676296                3.45484259               42.96555986                0.00010000                0.46715197                0.08107782               -0.68610580               -2.35356089                8.01382743               -1.89825762
               8.63281098                3.17066254               42.89337897                0.00010000                0.55398535                0.08422615               -1.04818984               -2.30261597                7.62421717               -0.04466581
               9.63784267                2.88603735               42.81676747                0.00010000                0.49587136                0.11123732               -1.25864558               -2.21254946                7.43044825                1.75297910
              10.64272841                2.60208996               42.73986955                0.00010000                0.42546676                0.04809405               -1.29453878               -1.60372715                7.70843480                1.53753342
              11.64635201                2.32232111               42.66947750                0.07788047                0.37374504               -0.07868359               -0.82426712               -0.65927481                4.83349337                1.55378419
              12.65020331                2.04908415               42.53847143                0.48160139                0.38646307                0.10228310               -1.11997347               -0.11885958                1.02250590                1.87995576
              13.65408127                1.77598104               42.39222552                0.91412738                0.38779553                0.30338908               -1.31792258               -0.02120395                0.22346102                0.05769944
               3.89722701                5.55984994               43.39867694                1.00000000               -0.17294230               -0.35099892                0.84141796               -0.03875347                0.24149900                1.33202410
               4.89549759                5.29026140               43.24452475                0.72372790               -0.13431609               -0.10105565                0.43793485               -0.04161726                0.38703068               -0.36841127
               5.89454069                5.01961711               43.09337378                0.15762322               -0.02708688                0.11396246                0.04789404               -0.19210052                1.48186772               -1.88201933
               6.89495585                4.74632639               42.96095227                0.00010000                0.02127027                0.17567856               -0.35464666               -1.15624865                7.21373415               -1.95041405
               7.89496610                4.45728837               42.92406071                0.00010000                0.10072889                0.26072640               -0.68741593               -2.00879207               11.53986094               -0.33835702
               8.89697043                4.17135137               42.87540948                0.00010000                0.32270937                0.13184847               -1.05382973               -2.08469858               10.71351068                0.71290217
               9.90142028                3.88608506               42.81998123                0.00010000                0.50248244                0.02154904               -1.33419336               -2.11447056               10.24228475                1.66054756
              10.90702008                3.60137748               42.76040763                0.00010000                0.62653057               -0.09741795               -1.49249876               -1.88014744                9.60336640                2.24947914
              11.91395089                3.31970201               42.69176252                0.06215892                0.68524886               -0.26687656               -1.73534592               -0.93844366                7.23269913                1.93451630
              12.92072506                3.04828375               42.58693886                0.37191577                0.61080753               -0.19931788               -1.10476013               -0.14062061                2.68653690                2.99802190
              13.92616704                2.77804391               42.43078746                0.83111089                0.54419896                0.09805390               -1.27135514                0.02271127                0.11677174                1.05617778
               4.16508324                6.55657672               43.34147030                1.00000000               -0.12350158               -0.29163931                0.65072792               -0.03983641                0.10275398                1.00645310
               5.16384823                6.28972905               43.17760224                0.55040425               -0.09241279               -0.01578019                0.23755928               -0.06126961                0.41910751               -0.74333507
               6.16323499                6.02144178               43.02011532                0.07944170               -0.05882604                0.24827484               -0.14461557               -0.35358599                2.95230286               -2.37506766
               7.16267171                5.74796334               42.90675964                0.00010000               -0.08364250                0.05004766               -0.18923285               -1.44837292               10.22796126                0.71977145
               8.16156214                5.46005712               42.89364432                0.00010000               -0.01756919                0.28694462               -0.71058078               -2.15198736               14.53389928                0.64939380
               9.16232032                5.17329951               42.86345331                0.00010000                0.19825066                0.23236211               -1.11516222               -2.17644783               13.50456686                1.33362311
              10.16552715                4.88646833               42.82723577                0.00010000                0.45940926                0.08551128               -1.46644565               -2.25006444               12.99058265                2.16780232
              11.17150851                4.60014160               42.78470785                0.00010000                0.75748570               -0.10203131               -1.80534126               -2.06621358               12.21188358                2.93673387
              12.18067686                4.31698358               42.73195545                0.06635909                0.87702481               -0.33763072               -2.13490778               -1.16122231                9.86413770                3.68776041
              13.18904900                4.04509779               42.64438403                0.35113723                0.71691558               -0.23776247               -1.14924548               -0.23410389                3.99068801                3.19270868
              14.19501518                3.77794212               42.47726430                0.82403003                0.59661722                0.04997134               -1.34600090                0.01529365                0.02813472                1.01303054
               4.43012562                7.55401715               43.28151945                1.00000000               -0.07184855               -0.21662709                0.45641536               -0.03365297                0.03265416                0.81069688
               5.42940713                7.28994580               43.10883712                0.46657489               -0.04454701                0.04586471                0.04913320               -0.04516090                0.31186673               -0.84045220
               6.42923468                7.02458260               42.94174427                0.04367484               -0.10170408                0.34292979               -0.34730421               -0.64962396                6.32540936               -2.69311323
               7.42737305                6.74732734               42.88917832                0.00010000               -0.13222497                0.07619615               -0.22226256               -1.61939138               13.86688175                1.56377674
               8.42659018                6.46302726               42.87058800                0.00010000               -0.01713945                0.32034461               -0.79400014               -2.07393521               15.95575882                1.14158944
               9.42703026                6.17599862               42.85637170                0.00010000                0.14933632                0.31531065               -1.22088606               -2.27810526               16.17975654                1.71066972
              10.42957691                5.88779529               42.83921157                0.00010000                0.40751480                0.19242354               -1.63043994               -2.40933983               15.93078186                2.60550252
              11.43518056                5.59933686               42.81741410                0.00010000                0.80966753               -0.01369157               -2.09761704               -2.39166953               15.30861264                3.78297682
              12.44577026                5.31294940               42.78598631                0.07795596                0.99519373               -0.38848862               -2.67520391               -1.37670540               11.97610559                5.25649903
              13.45508443                5.04352850               42.69787348                0.34725486                0.75069979               -0.03865578               -1.29282636               -0.22493932                4.53380656                2.69838369
              14.46078425                4.77904334               42.51928853                0.82503880                0.56998188                0.22173081               -1.56223629                0.00941471                0.03510655                0.31100369
               4.69255289                8.55224417               43.22055352                1.00000000               -0.01733305               -0.13875403                0.26545897               -0.03068477                0.00694393                0.74466244
               5.69237956                8.29064634               43.03970123                0.44406988                0.01540382                0.09025699               -0.13614076               -0.01311340                0.13274456               -0.83424985
               6.69286096                8.02830037               42.86131879                0.02688410               -0.02701686                0.36240508               -0.53974276               -0.80281907                8.69892785               -2.73425464
               7.69183922                7.74948726               42.85157932                0.00010000               -0.07244018                0.32842247               -0.60028339               -1.66286550               17.68890983                0.07277005
               8.69141216                7.46646401               42.84921184                0.00010000                0.00754880                0.39899842               -0.96268873               -1.95480508               18.46378021                1.01241787
               9.69199020                7.17960572               42.85102281                0.00010000                0.12949770                0.41486792               -1.36375440               -2.20883909               18.93773547                1.73456885
              10.69400211                6.89031680               42.85436597                0.00010000                0.32654041                0.32883888               -1.78920368               -2.44078806               19.17108207                2.74561084
              11.69852100                6.59986777               42.85764685                0.00010000                0.74744991                0.14115198               -2.34311590               -2.63959165               19.03352186                4.31461847
              12.70895111                6.30921381               42.85560374                0.09754757                0.99676389               -0.24336559               -3.31543635               -1.50633558               13.47572219                6.95973012
              13.71845628                6.04432467               42.74560975                0.34903310                0.76113449                0.18178340               -1.47679792               -0.13472481                4.05905431                2.18273139
              14.72417380                5.78237674               42.55458967                0.82520590                0.57175205                0.43275176               -1.83960034                0.02116471                0.04948948               -0.35979980
               4.95270759                9.55124207               43.15939388                0.98758363                0.03810779               -0.06187379                0.07327040               -0.02942659                0.00303845                0.74864545
               5.95308866                9.29175094               42.97078406                0.47355563                0.08148951                0.12975202               -0.31850649                0.00439136               -0.03642773               -0.78873222
               6.95433738                9.03183071               42.78128564                0.01573709                0.14317199                0.33208958               -0.72258382               -0.84485323               10.50956188               -2.42463279
               7.95595210                8.75389579               42.80329054                0.00010000                0.15191209                0.44038547               -0.87767100               -1.61662419               21.21820668               -0.49254520
               8.95737562                8.47100723               42.82308972                0.00010000                0.15242942                0.44723992               -1.17485864               -1.70883475               21.41465274                0.59670664
               9.95900069                8.18429598               42.84389487                0.00010000                0.15617408                0.51586054               -1.53133462               -1.88482537               21.89978996                1.39997046
              10.96049910                7.89437206               42.86849002                0.00010000                0.22455143                0.53258662               -1.93923901               -2.18887646               22.66290406                2.39270869
              11.96349172                7.60215990               42.90039379                0.00010000                0.53437685                0.34403634               -2.43619103               -2.67432738               23.71680214                4.03334288
              12.97118664                7.30808209               42.94297049                0.12994586                0.78676416                0.09049701               -3.43901377               -1.64886562               14.64096882                7.60895683
              13.97922700                7.04716417               42.78823946                0.35525131                0.69583899                0.36333048               -1.64864872               -0.06890806                2.46363446                1.76782883
              14.98510342                6.78769837               42.58422788                0.82244795                0.58764126                0.59586711               -2.10592683                0.02669424                0.05721843               -0.87232384
               5.21094662               10.55100670               43.09858000                0.96988319                0.09321312                0.01315155               -0.11659006               -0.02907001               -0.01287628                0.67301687
               6.21187875               10.29324138               42.90227292                0.52220666                0.14362135                0.16930579               -0.50447192                0.00079815                0.01322932               -0.64058047
               7.21381904               10.03494217               42.70633457                0.00010000                0.42257301                0.31152829               -0.89415082               -0.87576786               12.23286209               -1.52589100
               8.22033021                9.75829497               42.75405333                0.00010000                0.65081190                0.24090652               -1.10059827               -1.19995393               24.31172133               -0.36407134
               9.22683528                9.47540881               42.79348150                0.00010000                0.52993239                0.39274566               -1.37879163               -1.10884826               24.19030193                0.26315548
              10.23092886                9.18992293               42.83189051                0.00010000                0.27626905                0.57774453               -1.71484226               -1.12693657               24.73042886                0.77963757
              11.23236066                8.90096853               42.87596807                0.00010000                0.01977875                0.75230011               -2.08953535               -1.46266600               25.97745451                1.42941587
              12.23132443                8.60674849               42.93374057                0.00010000               -0.06955682                0.83337169               -2.46096890               -2.11027292               28.64875066                2.60602363
              13.23096953                8.31102375               43.02552348                0.18622738                0.30687026                0.50924191               -2.44809121               -1.77997077               16.18773642                4.58980100
              14.23746184                8.05159128               42.82675241                0.36843829                0.63348783                0.48666978               -1.77000354               -0.10881264                0.88012578                1.25102380
              15.24363928                7.79429408               42.60899761                0.80937277                0.61774468                0.69197208               -2.32525904                0.01718077                0.00012814               -1.00629560
               5.46765682               11.55150510               43.03593839                0.99546415                0.15123419                0.04984027               -0.30489708                0.03421541                0.36330996                0.58368158
               6.46916916               11.29513705               42.83600799                0.80971917                0.20558066                0.18956719               -0.68943970                0.05684961                0.75540609               -0.51194068
               7.47176843               11.03806127               42.64371338                0.48533829                1.11586111                0.31191045               -1.07404556               -1.02621790               14.03276853               -0.88291958
               8.49148638               10.75871392               42.70892308                0.36941494                1.59011311                0.04189516               -1.29904703               -0.84433899               26.78982894               -0.28425026
               9.50357069               10.47886214               42.76185893                0.35935616                0.97079288                0.34533342               -1.57500617               -0.46961180               26.47531308                0.06993674
              10.51090224               10.19585087               42.81314840                0.36971114                0.54247638                0.59279335               -1.90668264               -0.47486569               27.04127028                0.36931255
              11.51442022                9.90941807               42.87082921                0.39978791                0.01644057                0.84495324               -2.27163316               -0.64522106               28.55846827                0.75777067
              12.51123105                9.61882733               42.94610537                0.50967282               -1.18378945                1.20788380               -2.53040337               -1.56689503               31.35626884                1.52510486
              13.49074443                9.31826693               43.05149666                0.62294122               -0.87253168                0.72431807               -2.28914144               -2.11899780               18.57934694                1.97613697
              14.49378042                9.05689757               42.85794036                0.70156960                0.46485033                0.53062821               -1.83949317               -0.20459761                2.16826504                0.94225129
              15.50004144                8.80153781               42.63483023                0.90245509                0.62610211                0.72437326               -2.45806291                0.10424024                0.76162954               -0.87214546
               2.92675514                1.64697735               44.62781529                1.00000000               -0.42363861               -0.47843224                1.64488069               -0.09178796               -1.18633003                1.11422858
               3.92251875                1.36106377               44.49048910                1.00000000               -0.35795702               -0.32448937                1.16925945               -0.05178183               -1.61436477                0.18936714
               4.91959600                1.07457493               44.34513868                1.00000000               -0.23149831               -0.17806289                0.66874094               -0.05902866               -1.68107320               -0.21126530
               5.91788879                0.78661615               44.20689237                0.67211224               -0.15325310               -0.01364920                0.16608880               -0.46002746               -1.26611528               -0.97247045
               6.91653094                0.48880303               44.07031219                0.72669116                0.19082421               -0.02100880               -0.45262298               -0.12736650               -0.90563188                0.21282284
               7.92170527                0.18513644               43.94194141                0.75379395                0.66977647                0.15820013               -0.92298636               -0.15524989               -0.30768898                0.02358950
               8.92992646               -0.11575728               43.81791325                0.70797703                0.93498558                0.23584910               -1.20534094               -0.03408582                0.39195478               -0.27902326
               9.94040498               -0.41024437               43.70229995                0.77710311                0.86930615                0.22048500               -1.11587534               -0.08687626                0.56047672               -0.02532048
              10.94731259               -0.69757216               43.57813570                1.00000000                0.54382921                0.24529788               -0.98815706               -0.08614150               -0.19734108                0.72999432
              11.95128157               -0.98233492               43.44475245                1.00000000                0.40434988                0.33433976               -1.18566549               -0.03672904               -0.68063648                0.07627633
              12.95539959               -1.26646376               43.31064263                1.00000000                0.41180197                0.42482023               -1.45583783               -0.04656340               -0.70637287               -0.68880483
               3.21175084                2.64219303               44.56733334                1.00000000               -0.35486950               -0.46476869                1.45091669               -0.01255976               -0.26620186                1.49672382
               4.20820215                2.35781888               44.43003227                1.00000000               -0.27606616               -0.29921111                0.97747507                0.02184375               -0.42157866                0.27576086
               5.20622952                2.07279430               44.29000479                1.00000000               -0.10138433               -0.14766262                0.48358738               -0.00688420               -0.36062308               -0.40342046
               6.20617446                1.78647966               44.15391382                0.35388651                0.48838037                0.02320748                0.00619258               -0.57283523                1.01064566               -1.34090565
               7.21599713                1.48859294               44.04087325                0.45953423                0.81292316               -0.08607970               -0.62083771               -0.20654771                1.98912059                0.54813777
               8.22243292                1.18671844               43.92324344                0.51209972                0.56394418                0.21344991               -1.07682790               -0.22064088                1.96165188                0.16049372
               9.22727601                0.88660121               43.80898387                0.41703433                0.40053679                0.37783590               -1.32180525               -0.10066165                2.80363554               -0.68532973
              10.23044366                0.59196048               43.70740165                0.46130159                0.26102189                0.36575334               -1.11400418               -0.13327966                3.11249680                0.17222664
              11.23249645                0.30488082               43.59970857                1.00000000                0.24582079                0.24662944               -0.84472953               -0.10432061                1.54112225                0.89389857
              12.23536008                0.02100848               43.46791630                1.00000000                0.32831749                0.32035345               -1.09799485                0.00386076                0.21058750                0.22792540
              13.23906280               -0.26221556               43.33404038                1.00000000                0.37027221                0.41220573               -1.36847674               -0.00175775                0.09526890               -0.78535492
               3.49525225                3.63768198               44.51514504                1.00000000               -0.28978925               -0.43912841                1.26555899               -0.01033950                0.00003152                1.87544260
               4.49235436                3.35507955               44.37152625                1.00000000               -0.22273625               -0.24573167                0.79507300                0.00858054                0.13594767                0.29707149
               5.49079753                3.07162167               44.23086682                0.78568290               -0.08604607               -0.06029037                0.30633031               -0.05125862                0.41597797               -1.02217115
               6.49063344                2.78708030               44.09268495                0.00010000                1.06818359                0.07829404               -0.19421514               -0.84791462                3.68532542               -1.81698261
               7.51216120                2.48708143               44.01691286                0.00010000                1.43253699               -0.06219671               -0.94537923               -1.76816129                5.26710180               -0.91484485
               8.51928418                2.18940544               43.90597592                0.00010000                0.52549951                0.27970092               -1.37033972               -1.61806596                3.39077061               -0.01913823
               9.52267119                1.89179944               43.79038707                0.00010000                0.00878015                0.50674339               -1.67383403               -1.44927989                5.24950320                0.54946808
              10.51945978                1.59707070               43.71551779                0.00010000               -0.32465060                0.47985643               -1.41822347               -0.99745314                6.32097257                0.63030827
              11.51617818                1.30736043               43.62467241                0.34056745               -0.05023122                0.14905255               -0.72008266               -0.45653515                3.25418193                1.65181921
              12.51845516                1.02407215               43.49411834                1.00000000                0.28171676                0.28141536               -1.01518199               -0.04730902                0.82080660                0.74051021
              13.52181251                0.74178035               43.35541379                1.00000000                0.33573556                0.38383241               -1.25914055               -0.00878714                0.38469457               -0.75300270
               3.77674892                4.63341046               44.46282524                1.00000000               -0.23148530               -0.40872500                1.07851526               -0.02166595                0.12245766                1.68359421
               4.77443407                4.35290424               44.31168654                1.00000000               -0.17726631               -0.18101094                0.61378030               -0.00626089                0.24503566                0.07795605
               5.77320359                4.07158849               44.16317998                0.35397587               -0.03388275                0.03267671                0.16047874               -0.12359591                1.12068946               -1.52638052
               6.77375641                3.78804554               44.02938745                0.00010000                0.25525864                0.16605300               -0.33749875               -1.05302626                4.99860233               -2.33844287
               7.77830876                3.48734900               43.95793414                0.00010000                0.57985948                0.18650815               -0.85140869               -2.63362821                8.00993603               -1.66654655
               8.78535360                3.19231246               43.88194072                0.00010000                0.61581933                0.25041667               -1.25736833               -2.58754306                7.73282478                0.16617089
               9.79062515                2.89673608               43.80322882                0.00010000                0.47900045                0.32848240               -1.47649050               -2.51086152                7.69187048                1.93356128
              10.79493361                2.60155761               43.72638384                0.00010000                0.28695711                0.25316482               -1.42638768               -1.97489961                8.30924762                1.50230417
              11.79636429                2.30786187               43.66179069                0.06410725                0.25301808                0.03078640               -0.70535188               -0.83883097                5.17221748                1.00621802
              12.79999397                2.02663679               43.52786148                0.44463468                0.35531815                0.05595257               -0.99231274               -0.09980411                0.96086443                1.83570625
              13.80347066                1.74546109               43.37968360                0.88573092                0.34766863                0.21366775               -1.18362288                0.00533817                0.20554832                0.10273428
               4.05583138                5.62950748               44.40727605                1.00000000               -0.17802593               -0.36455771                0.88209283               -0.04208432                0.24673520                1.32470028
               5.05405112                5.35145933               44.24885596                0.70933519               -0.13235325               -0.09259300                0.42763206               -0.04650190                0.39782417               -0.37378158
               6.05318431                5.07227521               44.09357061                0.15139659               -0.01193583                0.14217031               -0.01302903               -0.20273665                1.49282985               -1.87763035
               7.05381240                4.79040136               43.95685212                0.00010000                0.10187031                0.19216699               -0.47667765               -1.23683050                7.26935198               -1.74367402
               8.05522172                4.49081160               43.91655162                0.00010000                0.21669220                0.35053526               -0.82521465               -2.17890130               11.61987209               -0.12938416
               9.05814624                4.19441377               43.86415946                0.00010000                0.39935456                0.24748859               -1.20877980               -2.25446104               10.81307560                0.91028562
              10.06320881                3.89836909               43.80603133                0.00010000                0.53448786                0.14325617               -1.46603406               -2.30119981               10.44174979                1.78160812
              11.06883600                3.60213400               43.74529698                0.00010000                0.55567873                0.01716388               -1.53227181               -2.10935515                9.81318444                2.16311414
              12.07432238                3.30797615               43.67494818                0.05111538                0.50119274               -0.03151929               -1.60938690               -1.11893791                7.74817091                1.31289248
              13.07885986                3.02519120               43.57659162                0.34391267                0.49741477               -0.25063750               -0.95932702               -0.23445665                3.08246995                2.93479601
              14.08427068                2.74605371               43.41879779                0.81055145                0.54108226               -0.09083852               -1.12882364                0.07946644                0.10791566                0.99366886
               4.33200353                6.62611931               44.34810974                1.00000000               -0.12672349               -0.30122417                0.68002755               -0.04108422                0.09584513                0.99363550
               5.33073630                6.35105238               44.17988946                0.53515117               -0.08983547               -0.00241199                0.21829498               -0.06595624                0.42678513               -0.75297333
               6.33020683                6.07443190               44.01836354                0.07208576               -0.01264434                0.28591279               -0.21251920               -0.40063604                3.15306685               -2.38196717
               7.33048341                5.79188888               43.90449027                0.00010000                0.02557520                0.05785284               -0.26850546               -1.50471764               10.37435052                0.98101200
               8.33071833                5.49435971               43.88600160                0.00010000                0.11117379                0.34855948               -0.82819692               -2.25389702               14.51069568                0.82943136
               9.33270689                5.19726223               43.85172302                0.00010000                0.30813010                0.30348914               -1.23837714               -2.30499052               13.58221008                1.50002219
              10.33688093                4.89960120               43.81211282                0.00010000                0.52162743                0.15298494               -1.55974488               -2.39481375               13.10919676                2.25841411
              11.34313944                4.60190089               43.76657441                0.00010000                0.70236989               -0.01862254               -1.81275052               -2.20609745               12.33721178                2.82074938
              12.35092833                4.30723148               43.71140706                0.05599149                0.70439241               -0.17409193               -1.96374949               -1.37507100               10.53282816                3.31627831
              13.35722729                4.02162404               43.63336206                0.32893460                0.62033255               -0.25055530               -1.05944881               -0.36845820                4.56820383                3.07697711
              14.36333498                3.74364432               43.46415905                0.80807009                0.61076945               -0.13607758               -1.29629591                0.04039023                0.02309584                0.75987073
               4.60514355                7.62348300               44.28617252                1.00000000               -0.07241394               -0.22322714                0.47686451               -0.03408394                0.02903905                0.79884408
               5.60441941                7.35141109               44.10920992                0.45289459               -0.04042266                0.06008434                0.02355027               -0.04559220                0.31305191               -0.84123960
               6.60433509                7.07799346               43.93794467                0.03644886               -0.03145856                0.38555006               -0.41921755               -0.70741640                6.59539037               -2.69714071
               7.60379024                6.79155842               43.88642392                0.00010000                0.02176674                0.11633669               -0.34445231               -1.68738931               14.09621599                1.56426434
               8.60477043                6.49778279               43.86210450                0.00010000                0.15073537                0.35522403               -0.90786530               -2.15883942               15.92922520                1.25581684
               9.60680494                6.20048356               43.84363397                0.00010000                0.29517249                0.35380933               -1.33059733               -2.39350560               16.25261595                1.84106088
              10.61067388                5.90142878               43.82243580                0.00010000                0.51394156                0.23250909               -1.71980713               -2.53530148               16.00134565                2.68775873
              11.61708377                5.60176155               43.79621871                0.00010000                0.82119695                0.03408363               -2.11952327               -2.46394573               15.31232612                3.71166491
              12.62709782                5.30449431               43.75989800                0.06679060                0.89970423               -0.29229147               -2.50652180               -1.52822137               12.78457670                4.75969204
              13.63507786                5.02018010               43.68499690                0.32905103                0.69700552               -0.01095813               -1.29317346               -0.35243850                5.34823012                2.55537129
              14.64103793                4.74333215               43.50343659                0.81221802                0.59600685                0.13021817               -1.64066372                0.02385496                0.04249950               -0.03412695
               4.87546567                8.62165477               44.22325815                0.99975542               -0.01516827               -0.14342441                0.27675565               -0.03170054                0.00560240                0.73379862
               5.87531399                8.35225407               44.03818933                0.43233321                0.02227477                0.10477660               -0.16723840               -0.00952118                0.13036236               -0.83121904
               6.87591117                8.08214290               43.85557512                0.02005812                0.08161584                0.40242922               -0.61496078               -0.86090076                8.86798354               -2.72765626
               7.87694631                7.79421562               43.84499634                0.00010000                0.13526191                0.36136504               -0.72363493               -1.75445165               17.92691679               -0.02816283
               8.87861641                7.50146419               43.83906662                0.00010000                0.21222359                0.40736099               -1.07154634               -2.05616450               18.57371787                1.06602787
               9.88119078                7.20433842               43.83684952                0.00010000                0.31402530                0.42330477               -1.47094837               -2.31413034               19.03996384                1.82728614
              10.88489691                6.90425138               43.83589119                0.00010000                0.48021071                0.35559623               -1.89699607               -2.55085516               19.21783479                2.82452175
              11.89079499                6.60258256               43.83350566                0.00010000                0.85242196                0.18196249               -2.45128757               -2.69850471               18.83345746                4.33057469
              12.90194535                6.30138565               43.82194277                0.08397604                1.02728424               -0.20568198               -3.29760446               -1.61330336               14.42066880                6.58848044
              13.91134068                6.02140487               43.73049190                0.33326797                0.77813072                0.23107358               -1.55795919               -0.23520155                5.19586005                2.06311995
              14.91750797                5.74624868               43.53544424                0.81424184                0.61672882                0.42381879               -2.02196348                0.03309669                0.06418736               -0.68995673
               5.14331093                9.62061451               44.16013839                0.98261148                0.04299231               -0.06476559                0.07776309               -0.03147313                0.00558750                0.73743111
               6.14374085                9.35350662               43.96741187                0.46366458                0.09223012                0.14529168               -0.35806259                0.00877284               -0.03911449               -0.78521607
               7.14515553                9.08604205               43.77369189                0.00952864                0.28195285                0.36529684               -0.80228638               -0.92166959               10.63188384               -2.40671036
               8.14937991                8.79878572               43.79401578                0.00010000                0.41844012                0.43152487               -0.98133713               -1.75313042               21.44203717               -0.51556779
               9.15352433                8.50593000               43.81084008                0.00010000                0.41776166                0.41081227               -1.27721507               -1.81697446               21.58177896                0.62227233
              10.15773514                8.20894965               43.82802152                0.00010000                0.39441483                0.48857413               -1.64049225               -1.95934724               22.04119143                1.45635166
              11.16141263                7.90854071               43.84835583                0.00010000                0.41221342                0.54155856               -2.07626964               -2.23987831               22.74583049                2.45558031
              12.16597941                7.60540080               43.87478782                0.00010000                0.72984029                0.42089743               -2.65971260               -2.67716303               23.42965653                4.13346484
              13.17600944                7.30038068               43.90514585                0.11205431                0.97656941                0.12332338               -3.97886184               -1.68865871               15.61714496                8.10869448
              14.18551080                7.02480157               43.77108457                0.34055850                0.80014071                0.42137168               -1.79189682               -0.13223294                3.75966017                1.70592494
              15.19201225                6.75180853               43.56203949                0.81223603                0.65014513                0.64013554               -2.36002819                0.03520280                0.07689730               -1.13529469
               5.40905199               10.62035946               44.09738259                0.96474151                0.10099220                0.01306341               -0.12148068               -0.03052820               -0.01347594                0.66327441
               6.41006191               10.35515990               43.89700061                0.51382474                0.15733458                0.18601169               -0.55234724                0.00333933                0.01297419               -0.63791849
               7.41219868               10.08944883               43.69698895                0.00010000                0.59669173                0.34047123               -0.98090622               -0.99671936               12.33364502               -1.50437850
               8.42199574                9.80284611               43.74259660                0.00010000                0.99571550                0.15754433               -1.19422046               -1.33620298               24.51863456               -0.36354064
               9.43211299                9.50968044               43.77920243                0.00010000                0.86986938                0.31055133               -1.47743930               -1.18850412               24.37609480                0.27774379
              10.43939313                9.21410990               43.81415252                0.00010000                0.57676071                0.51495188               -1.82749065               -1.15683182               24.89372249                0.80429964
              11.44364820                8.91508255               43.85420156                0.00010000                0.30093180                0.72912469               -2.25350576               -1.43324796               26.10986936                1.46106464
              12.44541177                8.61100051               43.90739256                0.00010000                0.25616013                0.87263691               -2.79388218               -2.01817832               28.87643322                2.73656608
              13.44877140                8.30385212               43.99708703                0.16206262                0.59281993                0.66020302               -3.34600601               -1.67243542               17.13468177                5.41381157
              14.45726816                8.02983231               43.80815889                0.35464986                0.77133475                0.54697921               -1.95647954               -0.16743827                1.67990939                1.26065841
              15.46419810                7.75905139               43.58438016                0.79917606                0.69299347                0.76922119               -2.62542010                0.02159424                0.01674256               -1.17058505
               5.67309947               11.62087578               44.03281509                0.99281958                0.16187914                0.05163220               -0.31881310                0.03985616                0.35604605                0.57410653
               6.67471826               11.35722686               43.82884137                0.80616420                0.22177333                0.20669516               -0.74669289                0.06442009                0.75000437               -0.50739943
               7.67753494               11.09285147               43.63252726                0.48260933                1.38529942                0.34026387               -1.16960854               -1.23088656               14.11924575               -0.86221468
               8.70242425               10.80193661               43.69547355                0.36938347                2.04777640               -0.09095058               -1.39566820               -0.99267138               26.98830297               -0.29200714
               9.71849046               10.51214103               43.74559357                0.35948084                1.33860695                0.24605959               -1.67919215               -0.49664829               26.66296015                0.06883473
              10.72919639               10.21924869               43.79346532                0.36947244                0.86832995                0.51387867               -2.02508456               -0.47056559               27.20936247                0.37205600
              11.73585706                9.92312320               43.84719985                0.39879138                0.38249463                0.80406484               -2.44411788               -0.59887159               28.73442647                0.76660606
              12.73684628                9.62285353               43.91894688                0.49599154               -0.60640659                1.18530229               -2.91124828               -1.33347185               31.78350257                1.65524346
              13.72372893                9.31358474               44.02536257                0.60884871               -0.49417585                0.97326167               -3.05971518               -1.85986635               19.63612022                2.49335266
              14.72696276                9.03574115               43.83857071                0.69498604                0.51385206                0.59088443               -2.04315318               -0.35012919                2.86696635                0.98920009
              15.73400597                8.76719295               43.60879819                0.89717677                0.70432085                0.81415634               -2.77501292                0.12596741                0.80160085               -0.97017605
               3.05444845                1.71963056               45.64481579                1.00000000               -0.45314451               -0.51346311                1.76466697               -0.10242278               -1.20861016                1.12297621
               4.04991701                1.42439516               45.50241868                1.00000000               -0.38455819               -0.33643431                1.22048020               -0.05698605               -1.65249543                0.19329859
               5.04675729                1.12852463               45.35177807                1.00000000               -0.25754497               -0.16896308                0.65906400               -0.06830671               -1.73704125               -0.20976622
               6.04476611                0.83069932               45.20820477                0.68011046               -0.24573000                0.03530321                0.09375603               -0.54024974               -1.38038681               -0.96153886
               7.04184269                0.52109091               45.06533003                0.73679864                0.08191371                0.04981728               -0.53066301               -0.16597220               -1.04341247                0.19583440
               8.04640438                0.20462077               44.93198578                0.75823676                0.65633721                0.23190849               -1.05091023               -0.18697091               -0.35845106               -0.00444269
               9.05496943               -0.10952946               44.80481264                0.69701254                1.04000865                0.32807704               -1.41511738               -0.02902672                0.56640301               -0.36797249
              10.06720456               -0.41606714               44.69027205                0.74366313                1.03415333                0.28200462               -1.32439237               -0.07601569                0.96713176               -0.13067258
              11.07565250               -0.71236276               44.56814550                1.00000000                0.62768103                0.23562713               -0.99693010               -0.11096694                0.12083635                0.77397703
              12.07975818               -1.00511350               44.43277008                1.00000000                0.41703966                0.33339984               -1.20913391               -0.03877104               -0.60318679                0.08525456
              13.08399329               -1.29695086               44.29588630                1.00000000                0.42351171                0.43174632               -1.50469298               -0.05842643               -0.66481496               -0.64461387
               3.34865963                2.71449593               45.58232515                1.00000000               -0.37595127               -0.49823871                1.55619454               -0.01074292               -0.28137186                1.50328699
               4.34490011                2.42103082               45.43997347                1.00000000               -0.28687404               -0.31038605                1.01380222                0.02774016               -0.45010652                0.28244237
               5.34292215                2.12683500               45.29470685                1.00000000               -0.09098215               -0.13824757                0.45524649               -0.00366413               -0.39324877               -0.39536514
               6.34308047                1.83105235               45.15352599                0.37656701                0.51500469                0.06902440               -0.09028433               -0.66191882                0.90932247               -1.33767094
               7.35322224                1.52158909               45.03391036                0.48191744                0.83821942               -0.03909440               -0.77074099               -0.28270170                1.84499091                0.47368181
               8.35984486                1.20693986               44.91135302                0.52638097                0.59004412                0.29830226               -1.30498884               -0.28417241                1.97938247                0.07640186
               9.36502312                0.89375131               44.79430861                0.41462503                0.40080966                0.50670890               -1.64722650               -0.13047499                3.18452119               -0.87064691
              10.36786105                0.58675291               44.69526256                0.42728717                0.20214442                0.50533575               -1.38343980               -0.17249368                3.80403239               -0.08878929
              11.36906601                0.28999351               44.59149672                1.00000000                0.19017305                0.22963589               -0.77943012               -0.17856199                1.90158600                0.91769367
              12.37166451               -0.00177950               44.45710981                1.00000000                0.30901896                0.31083043               -1.05778441                0.00259287                0.22372248                0.23189261
              13.37524639               -0.29263340               44.32045934                1.00000000                0.35818764                0.41118579               -1.35308216               -0.01065844                0.09759380               -0.72439566
               3.64116382                3.70966579               45.52819159                1.00000000               -0.30310776               -0.46791799                1.35094388               -0.01042650               -0.00936681                1.87966841
               4.63813274                3.41818744               45.37956215                1.00000000               -0.22506712               -0.25256239                0.81391938                0.00937465                0.11504735                0.30726401
               5.63666248                3.12575968               45.23371457                0.79617389               -0.06795478               -0.04519355                0.26039316               -0.05874545                0.38284421               -0.99282308
               6.63677365                2.83207980               45.09026233                0.00010000                1.18193343                0.12306936               -0.29726010               -0.99226488                3.51547615               -1.80132981
               7.66030115                2.52030903               45.00646457                0.00010000                1.58925302                0.01419067               -1.14952217               -2.01534063                5.08259457               -0.82052741
               8.66855871                2.21058682               44.89073614                0.00010000                0.61228684                0.44312806               -1.68505189               -1.86881803                3.43293158                0.07852733
               9.67254688                1.90060472               44.77156575                0.00010000               -0.05231099                0.76565016               -2.12374043               -1.71667046                5.67878376                0.61034619
              10.66751249                1.59403958               44.69928447                0.00010000               -0.59666082                0.78019705               -2.00281537               -1.29421631                7.41255837                0.55832144
              11.66061367                1.29222995               44.61805381                0.31747058               -0.25377757                0.10880959               -0.58247185               -0.68418822                3.82573040                1.58426046
              12.66243694                1.00110311               44.48441770                1.00000000                0.24371242                0.25522446               -0.91620365               -0.05469588                0.77663795                0.70552941
              13.66548792                0.71127286               44.34322490                1.00000000                0.30509794                0.36425609               -1.18102495               -0.01794453                0.36591605               -0.69162666
               3.93140779                4.70513757               45.47391080                1.00000000               -0.24140756               -0.43031710                1.14395064               -0.02389624                0.11861604                1.67954405
               4.92899372                4.41597957               45.31783409                1.00000000               -0.17764587               -0.18022924                0.61626010               -0.00898372                0.24362091                0.08632933
               5.92785487                4.12593113               45.16447860                0.34780867               -0.01539440                0.05606308                0.09423956               -0.13635956                1.10373826               -1.49073195
               6.92868583                3.83351374               45.02540772                0.00010000                0.32767698                0.21351428               -0.46678583               -1.17349975                4.95641589               -2.28693303
               7.93440841                3.52187290               44.94853169                0.00010000                0.67434874                0.31621011               -1.04057648               -2.89781318                8.00670578               -1.36642261
               8.94217280                3.21580242               44.86823160                0.00010000                0.64142701                0.45939804               -1.49922091               -2.88075282                7.86316202                0.49348303
               9.94723695                2.90906432               44.78723766                0.00010000                0.40893449                0.61142531               -1.74863733               -2.84373481                8.04090794                2.29103228
              10.95035149                2.60235685               44.71134179                0.00010000                0.05408787                0.52048101               -1.59958084               -2.50200968                9.13247779                1.70225332
              11.94831871                2.29216970               44.65537046                0.05014944                0.05880997                0.20567675               -0.56832731               -1.10129282                5.66615074                0.41798721
              12.95152769                2.00332499               44.51862518                0.40387568                0.31146470                0.01879908               -0.84209162               -0.07150322                0.89617653                1.75677732
              13.95454801                1.71465173               44.36855306                0.85490573                0.30203132                0.10844858               -1.04234557                0.05392909                0.18279137                0.12689821
               4.21900190                5.70105945               45.41631880                1.00000000               -0.18423860               -0.37923088                0.93002291               -0.04601359                0.24994426                1.31319205
               5.21715951                5.41458286               45.25307740                0.69187537               -0.13003871               -0.08319770                0.41588059               -0.05210474                0.40717598               -0.37793097
               6.21640112                5.12688094               45.09311320                0.14415597                0.01011857                0.17486236               -0.08361748               -0.21960618                1.49689917               -1.86439896
               7.21736188                4.83635009               44.95141871                0.00010000                0.18275387                0.22490226               -0.61815043               -1.32064453                7.33753003               -1.49538866
               8.22005620                4.52663323               44.90755641                0.00010000                0.31951757                0.46099819               -0.98509707               -2.32202167               11.73137402                0.14407596
               9.22375223                4.21977478               44.85123388                0.00010000                0.45307782                0.40115113               -1.39154375               -2.40597452               10.96619037                1.19712939
              10.22911776                3.91283323               44.79066055                0.00010000                0.53073384                0.30839085               -1.61995663               -2.48514184               10.75180216                2.01757705
              11.23436691                3.60444920               44.72976219                0.00010000                0.42509564                0.16390014               -1.57917460               -2.39413682               10.21521438                2.17833877
              12.23761967                3.29634349               44.65957478                0.04051041                0.20789667                0.30948113               -1.46130898               -1.33715199                8.40441429                0.69883645
              13.23852484                3.00147909               44.56775232                0.31473321                0.31466768               -0.25464679               -0.80496745               -0.33841308                3.48847595                2.81185439
              14.24391302                2.71344183               44.40821099                0.78887223                0.53881788               -0.30754939               -1.00405506                0.16302885                0.09858520                0.81481992
               4.50344070                6.69755296               45.35507085                1.00000000               -0.13105739               -0.31069154                0.71539522               -0.04224883                0.08699561                0.98026709
               5.50213013                6.41431562               45.18196814                0.51858839               -0.08725917                0.01191410                0.19579984               -0.06940333                0.43212104               -0.75875921
               6.50169552                6.12942838               45.01586493                0.06401081                0.01952625                0.32736319               -0.29499633               -0.43882368                3.37428956               -2.38054992
               7.50252065                5.83801178               44.90138953                0.00010000                0.14238873                0.08782315               -0.34683962               -1.52799297               10.52887380                1.26789739
               8.50454329                5.53109286               44.87708038                0.00010000                0.26663305                0.42226795               -0.97132740               -2.31389534               14.51119178                1.06044622
               9.50785331                5.22382544               44.83868577                0.00010000                0.41582035                0.39592802               -1.37984370               -2.39308419               13.72992561                1.73498725
              10.51285970                4.91523213               44.79604088                0.00010000                0.55525906                0.24694317               -1.66161225               -2.51446358               13.34956394                2.41672654
              11.51895849                4.60563485               44.74845284                0.00010000                0.58430381                0.10948569               -1.81381859               -2.36374198               12.65996893                2.74839520
              12.52454578                4.29835932               44.69268046                0.04656638                0.43512981                0.06320208               -1.79152440               -1.61694315               11.31001473                2.97657446
              13.52766109                3.99823205               44.62319505                0.30713199                0.46686667               -0.19864993               -0.98533616               -0.49364885                5.13620441                2.88642844
              14.53388311                3.70850074               44.45133838                0.79180662                0.62220185               -0.31831097               -1.30849906                0.06896074                0.02576823                0.33514415
               4.78463160                7.69484562               45.29105674                1.00000000               -0.07355724               -0.22993376                0.50263115               -0.03435361                0.02437092                0.78732817
               5.78389602                7.41482114               45.10930813                0.43856948               -0.03515541                0.07521997               -0.00547939               -0.04388531                0.31305406               -0.83651108
               6.78392849                7.13342821               44.93335992                0.02866365                0.06207574                0.42858276               -0.50486911               -0.74982429                6.86093255               -2.69201592
               7.78513754                6.83810655               44.88228928                0.00010000                0.20180735                0.16601859               -0.49888450               -1.69921055               14.35857889                1.57071721
               8.78796463                6.53507859               44.85243070                0.00010000                0.33068714                0.39780649               -1.03559739               -2.19615835               15.97290729                1.41181884
               9.79175128                6.22769334               44.82975975                0.00010000                0.45272206                0.39692254               -1.45161108               -2.45974525               16.40594565                2.02554470
              10.79701908                5.91777209               44.80481543                0.00010000                0.61068012                0.28275368               -1.80457891               -2.61057270               16.19568877                2.81152840
              11.80396488                5.60663891               44.77502364                0.00010000                0.78322645                0.11376522               -2.11018510               -2.49922449               15.52744761                3.63503115
              12.81268360                5.29760753               44.73585587                0.05699264                0.72727839               -0.13118763               -2.30225116               -1.66501720               13.67240843                4.24472812
              13.81851045                4.99750609               44.67201001                0.31209794                0.60356317                0.06336767               -1.31891628               -0.46604985                6.11543799                2.34247592
              14.82475487                4.70707561               44.48647526                0.79954427                0.62444170                0.07369824               -1.79451421                0.04043903                0.05958554               -0.51354501
               5.06280258                8.69295428               45.22608864                0.99299595               -0.01327523               -0.14896833                0.29269321               -0.03138722                0.00791747                0.72519119
               6.06266983                8.41582002               45.03635647                0.41980481                0.03055167                0.12070983               -0.20221794               -0.00486979                0.12954652               -0.82532405
               7.06341362                8.13800003               44.84901958                0.01273387                0.21081140                0.44272331               -0.70179732               -0.90226032                9.03741733               -2.71405374
               8.06688606                7.84133215               44.83710663                0.00010000                0.38098609                0.39388122               -0.86065622               -1.82219614               18.20214877               -0.08726610
               9.07103334                7.53904899               44.82778092                0.00010000                0.45394222                0.41191389               -1.19403284               -2.12637229               18.76048691                1.16142095
              10.07596490                7.23176389               44.82160384                0.00010000                0.53346671                0.42133359               -1.58225310               -2.38021494               19.22824975                1.96557233
              11.08170267                6.92088721               44.81642605                0.00010000                0.65868298                0.37006041               -1.99062875               -2.61116980               19.37193011                2.93140553
              12.08913856                6.60791016               44.80862110                0.00010000                0.93377869                0.21516906               -2.49222028               -2.69108413               18.84183499                4.29614806
              13.10037825                6.29573557               44.78965165                0.07229047                0.98667253               -0.12479048               -3.10001260               -1.69307817               15.46006274                5.92423013
              14.10887201                5.99949941               44.71445056                0.31912508                0.75873050                0.30547910               -1.66091808               -0.33723742                6.28676778                1.89033188
              15.11555286                5.70997470               44.51415040                0.80362993                0.66808433                0.44904755               -2.26752540                0.04636224                0.08418454               -1.09908495
               5.33827238                9.69186625               45.16094914                0.97751802                0.04804986               -0.06793968                0.08663168               -0.03116727                0.00789050                0.72841095
               6.33875287                9.41723534               44.96362281                0.45261229                0.10493845                0.16167449               -0.40339612                0.01392331               -0.03978616               -0.78058069
               7.34037115                9.14228267               44.76523992                0.00285325                0.44458897                0.40095947               -0.89422149               -0.98844131               10.76950545               -2.38434125
               8.34764465                8.84598418               44.78366380                0.00010000                0.73171519                0.41171162               -1.09435983               -1.86812254               21.71432812               -0.50009694
               9.35500545                8.54331686               44.79754541                0.00010000                0.73320567                0.35806034               -1.38812920               -1.90481220               21.82487379                0.68560557
              10.36230877                8.23612001               44.81108502                0.00010000                0.68219831                0.44006184               -1.74825269               -2.01521445               22.27025798                1.55004851
              11.36864942                7.92517330               44.82696463                0.00010000                0.64930350                0.52293023               -2.19058659               -2.27811910               22.90855581                2.53379194
              12.37529484                7.61094229               44.84719954                0.00010000                0.92916869                0.47052971               -2.82245270               -2.66162596               23.16882819                4.15975428
              13.38723279                7.29511172               44.86339325                0.09628602                1.11158651                0.16738404               -4.14888045               -1.74040157               16.77855470                8.04641877
              14.39752657                7.00361568               44.75240152                0.32777863                0.87493652                0.49094494               -1.95172612               -0.20801393                5.24593008                1.60590243
              15.40473152                6.71605656               44.53702732                0.80254834                0.72049516                0.70744880               -2.66176783                0.04302538                0.09787149               -1.44266884
               5.61144107               10.69159549               45.09615039                0.95900530                0.10908085                0.01279977               -0.12352333               -0.03155842               -0.01335934                0.65369635
               6.61253188               10.41905351               44.89122598                0.50381825                0.17274410                0.20361013               -0.60500742                0.00639664                0.01560965               -0.63378070
               7.61489595               10.14601922               44.68671645                0.00010000                0.79787701                0.37288407               -1.07981664               -1.11685494               12.45844736               -1.48073156
               8.62848942                9.84956638               44.73016892                0.00010000                1.39526563                0.05678556               -1.29803566               -1.46337706               24.78441326               -0.34265650
               9.64280126                9.54621020               44.76393271                0.00010000                1.26573823                0.20698526               -1.58230366               -1.25842906               24.64249276                0.31562531
              10.65380418                9.24056513               44.79534070                0.00010000                0.92583742                0.42731859               -1.93428290               -1.18449742               25.14770326                0.85292483
              11.66131801                8.93134581               44.83089795                0.00010000                0.60817203                0.67901529               -2.39161489               -1.41333034               26.29461216                1.49814185
              12.66596762                8.61732075               44.87786293                0.00010000                0.57894104                0.89406295               -3.06137477               -1.94095117               28.87855476                2.77350237
              13.67289683                8.29908325               44.95860336                0.13979825                0.88996371                0.82355850               -4.29524171               -1.56961125               18.33206333                5.98670187
              14.68376690                8.00931831               44.78762282                0.34316802                0.93173818                0.61211230               -2.15531763               -0.24010036                2.95368080                1.24904809
              15.69153160                7.72412368               44.55648921                0.78979011                0.77646990                0.86208364               -2.96633452                0.02488657                0.02975954               -1.35655312
               5.88272517               11.69212225               45.02956213                0.99002998                0.17319060                0.05267593               -0.33081482                0.04693910                0.34850194                0.56491616
               6.88445707               11.42130754               44.82107413                0.80167409                0.23980012                0.22540312               -0.80995024                0.07342497                0.74682873               -0.50206459
               7.88752117               11.14974035               44.62032121                0.47974800                1.68645313                0.37211316               -1.27869224               -1.44686063               14.23222599               -0.84052052
               8.91818613               10.84711989               44.68100971                0.36935803                2.56584778               -0.24464966               -1.50572026               -1.14451737               27.24791691               -0.29285580
               9.93883812               10.54745657               44.72827509                0.35954911                1.76485363                0.12463698               -1.79160954               -0.51898913               26.93466732                0.07669010
              10.95348321               10.24466638               44.77264671                0.36925673                1.23945315                0.41012536               -2.13934436               -0.46724565               27.48003846                0.38220384
              11.96362719                9.93875360               44.82194686                0.39780229                0.76275840                0.74077927               -2.58962437               -0.56122395               28.95387359                0.76486851
              12.96873838                9.62882355               44.88788040                0.48234318                0.01079103                1.15028003               -3.25466530               -1.08146030               32.03962904                1.67544470
              13.96384301                9.31158289               44.99030236                0.59556522               -0.05271223                1.24996408               -3.99420877               -1.55366380               20.89623707                3.04167799
              14.96768413                9.01585792               44.81707729                0.68973457                0.58877475                0.65396158               -2.26087773               -0.52250940                3.97631389                1.02415637
              15.97561850                8.73329823               44.57932998                0.89243522                0.79343720                0.91745537               -3.13076284                0.15272194                0.84101176               -1.08286805
               3.18737716                1.79441817               46.66310863                1.00000000               -0.48705991               -0.55351887                1.90183657               -0.11483983               -1.22055836                1.12373303
               4.18250656                1.48982016               46.51489870                1.00000000               -0.41540406               -0.34959125                1.27825200               -0.06363063               -1.67449967                0.19488102
               5.17906908                1.18452205               46.35831996                1.00000000               -0.28887324               -0.15715481                0.64873062               -0.07956788               -1.77002997               -0.20863056
               6.17672910                0.87674293               46.20876749                0.68767324               -0.35937034                0.09257515                0.01663390               -0.60531926               -1.42946599               -0.94565784
               7.17188167                0.55555905               46.05969893                0.74674794               -0.08377323                0.13729807               -0.58501573               -0.20266635               -1.08854452                0.17665705
               8.17505363                0.22631311               45.92092321                0.76419009                0.55432900                0.31830048               -1.14058712               -0.22651793               -0.37444035               -0.02028030
               9.18296825               -0.10210868               45.78961090                0.68573081                1.06805590                0.45438394               -1.60828542               -0.04873282                0.74642378               -0.45358917
              10.19641475               -0.42283883               45.67581210                0.69793460                1.21315182                0.40111050               -1.61011845               -0.04217310                1.46585199               -0.29135200
              11.20723129               -0.72879504               45.55819710                1.00000000                0.75311387                0.21214245               -0.97009973               -0.17856149                0.58121881                0.82319685
              12.21147703               -1.02930930               45.42056977                1.00000000                0.43197717                0.33080118               -1.22805392               -0.04586584               -0.52511966                0.09051601
              13.21587083               -1.32850211               45.28054877                1.00000000                0.43938046                0.44600344               -1.57357422               -0.07480159               -0.62871566               -0.60293963
               3.49082677                2.78888298               46.59845723                1.00000000               -0.40084507               -0.53642321                1.67780916               -0.00854136               -0.29295230                1.49969723
               4.48681832                2.48632425               46.45030832                1.00000000               -0.30073740               -0.32279788                1.05548000                0.03466431               -0.47198632                0.28594058
               5.48481202                2.18295050               46.29910972                1.00000000               -0.08304558               -0.12642936                0.42301126                0.00147917               -0.41891726               -0.38661536
               6.48515740                1.87766868               46.15210814                0.40184440                0.51289502                0.12145233               -0.20001723               -0.72773018                0.82479004               -1.32185726
               7.49506992                1.55693203               46.02545843                0.50832501                0.82324567                0.02452515               -0.91343620               -0.33574791                1.70608447                0.40622150
               8.50162232                1.22949612               45.89714367                0.54646747                0.59934884                0.38921436               -1.52722092               -0.33544354                1.96802359                0.01465034
               9.50705690                0.90243516               45.77603934                0.41522759                0.38569435                0.65929933               -2.01916319               -0.17967785                3.59830946               -1.04350621
              10.50933621                0.58117228               45.67973285                0.38302310                0.08120078                0.74983592               -1.83560176               -0.21503248                4.83063723               -0.53816170
              11.50868091                0.27332638               45.58411997                1.00000000                0.07678488                0.19834683               -0.67796333               -0.34226469                2.48922373                0.94277880
              12.51087190               -0.02600129               45.44676061                1.00000000                0.28173578                0.29883382               -1.00499644               -0.00143278                0.23091250                0.23179605
              13.51431563               -0.32404207               45.30697874                1.00000000                0.34437248                0.41781004               -1.35374625               -0.02179923                0.09246275               -0.66477420
               3.79232379                3.78368970               46.54216392                1.00000000               -0.31914608               -0.50044226                1.45009966               -0.01015550               -0.01827687                1.87158104
               4.78913233                3.48336421               46.38780464                1.00000000               -0.22847773               -0.26043327                0.83626979                0.01120598                0.09553249                0.31407091
               5.78775423                3.18199346               46.23607468                0.80249766               -0.04696820               -0.02876387                0.20871763               -0.06497617                0.35518410               -0.96177544
               6.78819296                2.87917198               46.08673975                0.00010000                1.27925230                0.17409084               -0.41560281               -1.11348347                3.33637302               -1.77370387
               7.81333928                2.55604955               45.99392241                0.00010000                1.73243339                0.09983371               -1.35744698               -2.22627479                4.84758627               -0.67488961
               8.82284163                2.23409740               45.87227488                0.00010000                0.71796288                0.60941319               -1.99822517               -2.13418483                3.40703892                0.27228768
               9.82769854                1.91107731               45.74791226                0.00010000               -0.08093729                1.05133793               -2.58890690               -2.03316426                5.98583835                0.81093624
              10.82122289                1.59215789               45.67546148                0.00010000               -1.00694874                1.19763396               -2.98178670               -1.78956269                9.06990688                0.63873392
              11.80755956                1.27517189               45.61302297                0.29265951               -0.62030290                0.06871310               -0.40328021               -1.08837494                4.86129217                1.47512036
              12.80881683                0.97666738               45.47579427                1.00000000                0.19784304                0.22194988               -0.79117562               -0.07274026                0.71462051                0.65973407
              13.81151642                0.67985409               45.33179329                1.00000000                0.26995959                0.35275189               -1.11620129               -0.03357430                0.33543623               -0.62893667
               4.09127465                4.77887413               46.48570425                1.00000000               -0.25359720               -0.45392201                1.21965114               -0.02639061                0.11335729                1.66519501
               5.08873868                4.48111559               46.32401175                1.00000000               -0.17849625               -0.17987748                0.61979912               -0.01154990                0.23826835                0.09299724
               6.08770472                4.18237522               46.16506477                0.34134909                0.00464827                0.08037174                0.02066190               -0.14691717                1.08202172               -1.44703408
               7.08883164                3.88115050               46.02005173                0.00010000                0.39571376                0.26699039               -0.61209310               -1.27598485                4.90786485               -2.21926393
               8.09561900                3.55892871               45.93712261                0.00010000                0.75396109                0.45474338               -1.25459868               -3.13856832                8.00423767               -0.98837511
               9.10391086                3.24168438               45.85195630                0.00010000                0.63570602                0.69023963               -1.76687579               -3.19712492                8.01063351                0.95432508
              10.10833312                2.92346192               45.76825607                0.00010000                0.27697525                0.94200515               -2.07362282               -3.22707100                8.50308378                2.85479022
              11.10945037                2.60512496               45.69439222                0.00010000               -0.29645964                0.82159172               -1.78471751               -3.28790537               10.23082513                2.30091633
              12.10240393                2.27470064               45.65042414                0.03625822               -0.23577364                0.47354948               -0.41056619               -1.49131335                6.37461338               -0.22867506
              13.10473490                1.97843771               45.51101965                0.36036357                0.24333923                0.00955179               -0.66051559               -0.02556683                0.84088531                1.62955653
              14.10727071                1.68301296               45.35883669                0.82209647                0.25358150               -0.01446541               -0.91744458                0.14795636                0.15650516                0.10920574
               4.38731307                5.77461126               46.42587651                1.00000000               -0.19128299               -0.39437126                0.98536622               -0.05074952                0.25002107                1.29655726
               5.38540024                5.47976666               46.25717357                0.67080658               -0.12660461               -0.07345613                0.40070618               -0.05822016                0.41469412               -0.38064385
               6.38478098                5.18360090               46.09189826                0.13590619                0.03597721                0.20994737               -0.16555396               -0.23441819                1.49736059               -1.84397294
               7.38611978                4.88451179               45.94448911                0.00010000                0.26265263                0.26128831               -0.76824863               -1.37213372                7.40960022               -1.17293292
               8.39003403                4.56514442               45.89684968                0.00010000                0.41230664                0.58828218               -1.17027059               -2.42913345               11.87910184                0.48332894
               9.39436592                4.24790219               45.83632858                0.00010000                0.48412560                0.58758612               -1.60630808               -2.53964831               11.18655747                1.59134181
              10.39971654                3.92991741               45.77363219                0.00010000                0.49300707                0.51594658               -1.80350843               -2.67702232               11.20176600                2.39987156
              11.40422606                3.60858973               45.71371349                0.00010000                0.23520003                0.32411951               -1.64814646               -2.75128343               10.85617132                2.31922718
              12.40442054                3.28464288               45.64572200                0.03063779               -0.21164446                0.78906172               -1.33212952               -1.58744146                9.25102877                0.09075870
              13.39999317                2.97685841               45.56049227                0.28512873                0.04522507               -0.16713989               -0.64661715               -0.42597712                3.93986279                2.62217805
              14.40532504                2.67956478               45.39871669                0.76640864                0.53318755               -0.54650174               -0.92870062                0.28528585                0.09936467                0.47069888
               4.67994887                6.77098671               46.36241764                1.00000000               -0.13642295               -0.31997420                0.75751235               -0.04326845                0.07564221                0.96690256
               5.67858464                6.47964646               46.18380546                0.50155989               -0.08388190                0.02629436                0.17052524               -0.07177357                0.43337005               -0.75995612
               6.67827123                6.18657417               46.01246361                0.05544710                0.06304013                0.36988032               -0.39434180               -0.47392896                3.63282174               -2.37272447
               7.67984544                5.88637627               45.89755347                0.00010000                0.26873450                0.13719400               -0.42653661               -1.50542834               10.73901209                1.56702426
               8.68364592                5.57069435               45.86657506                0.00010000                0.42497313                0.50871017               -1.13997025               -2.31080467               14.53845241                1.35225216
               9.68834491                5.25343611               45.82412615                0.00010000                0.52296093                0.50870917               -1.54675999               -2.43701433               13.96645440                2.05375129
              10.69410514                4.93378085               45.77888057                0.00010000                0.56771635                0.36783840               -1.78599608               -2.61107650               13.73862767                2.66276439
              11.69969923                4.61160735               45.73029804                0.00010000                0.41406350                0.28520913               -1.83540869               -2.54663778               13.21024383                2.74678082
              12.70238641                4.29048188               45.67557658                0.03824396                0.07971092                0.38874002               -1.65829240               -1.86866840               12.23693397                2.68855906
              13.70129345                3.97509491               45.61365534                0.28652189                0.25886382               -0.05421559               -0.94167241               -0.58124404                5.73525362                2.62866879
              14.70756369                3.67208293               45.43798907                0.77568918                0.62702358               -0.46577732               -1.42249851                0.09750666                0.04418367               -0.26975062
               4.96912819                7.76821178               46.29622514                1.00000000               -0.07508827               -0.23602580                0.53407296               -0.03494891                0.01971126                0.77733821
               5.96837731                7.48029254               46.10910034                0.42420616               -0.02777961                0.08932243               -0.03767103               -0.04119692                0.31167292               -0.82631457
               6.96857260                7.19099850               45.92784729                0.02059458                0.17568661                0.47038302               -0.60305374               -0.76993783                7.11661891               -2.67599732
               7.97189104                6.88725567               45.87644623                0.00010000                0.40927502                0.23597537               -0.68219518               -1.66486899               14.65264463                1.57183585
               8.97675810                6.57531863               45.84139256                0.00010000                0.53240438                0.44417720               -1.18340041               -2.17481414               16.09909943                1.62156134
               9.98253913                6.25807638               45.81460175                0.00010000                0.62828361                0.44442458               -1.59131667               -2.46393524               16.65395325                2.27353792
              10.98932377                5.93727418               45.78634423                0.00010000                0.70265767                0.34747182               -1.89767154               -2.62846761               16.54042162                2.99061582
              11.99659228                5.61429391               45.75401501                0.00010000                0.71179205                0.23611373               -2.09876535               -2.50748242               15.97940220                3.59068949
              13.00355961                5.29241768               45.71385298                0.04889863                0.50874779                0.09255017               -2.12446162               -1.77945397               14.65846456                3.80146467
              14.00676724                4.97577410               45.65861858                0.29698219                0.48697674                0.18625455               -1.37405399               -0.54423030                6.85302656                2.07542161
              15.01329915                4.67024924               45.46754630                0.78727595                0.65319099                0.08159958               -2.03352601                0.05892892                0.08603390               -1.08745203
               5.25508836                8.76626619               46.22911202                0.98625523               -0.01143826               -0.15454003                0.31438648               -0.03366694                0.01081435                0.71902690
               6.25497398                8.48143291               46.03414497                0.40692971                0.04104967                0.13664749               -0.24239976               -0.00036562                0.13067275               -0.81677843
               7.25590935                8.19598183               45.84153918                0.00513502                0.36269815                0.48299261               -0.80061692               -0.92025432                9.21199105               -2.69044933
               8.26222794                7.89109577               45.82778322                0.00010000                0.67097865                0.42329107               -1.01002522               -1.84670013               18.51736911               -0.09510214
               9.26932893                7.57957789               45.81518596                0.00010000                0.74413513                0.40858475               -1.33620563               -2.14643435               19.02810109                1.30150393
              10.27711064                7.26232460               45.80520446                0.00010000                0.79946646                0.40686932               -1.70607788               -2.38328223               19.51562343                2.15599658
              11.28531826                6.94073029               45.79607861                0.00010000                0.86477200                0.37352302               -2.07780914               -2.59247557               19.66622087                3.07609118
              12.29440608                6.61632962               45.78366125                0.00010000                0.99994409                0.25300718               -2.47991241               -2.60311654               19.11130521                4.22986750
              13.30531714                6.29233288               45.75994252                0.06286895                0.90856027               -0.00301678               -2.83840877               -1.73453406               16.56722242                5.19348746
              14.31257729                5.97882000               45.69727353                0.30717439                0.72374272                0.39866302               -1.77862783               -0.42949305                7.28113841                1.67891810
              15.31979199                5.67371492               45.49009373                0.79348143                0.72147037                0.51835487               -2.55989642                0.06043871                0.10451973               -1.53947467
               5.53812141                9.76512098               46.16187102                0.97200815                0.05329460               -0.07228981                0.09895346               -0.03228594                0.00727515                0.72087630
               6.53865436                9.48302549               45.95934394                0.44109622                0.11916204                0.18000252               -0.45358880                0.01857192               -0.03803642               -0.77326039
               7.54050465                9.20065836               45.75580746                0.00010000                0.63533091                0.43855390               -0.99692635               -1.03943392               10.92872809               -2.35473296
               8.55136097                8.89572149               45.77212858                0.00010000                1.10479681                0.37756460               -1.22106985               -1.94641191               22.04063731               -0.44533217
               9.56260059                8.58349032               45.78307750                0.00010000                1.11800557                0.28426867               -1.51602572               -1.95227936               22.14913422                0.79081855
              10.57372108                8.26621376               45.79305647                0.00010000                1.04343229                0.36410549               -1.86362660               -2.02371827               22.60053146                1.68792577
              11.58346923                7.94474464               45.80454410                0.00010000                0.96031368                0.46664388               -2.28501684               -2.25798760               23.17609200                2.64036179
              12.59292736                7.61935405               45.81833877                0.00010000                1.14546581                0.47300350               -2.89996034               -2.57579629               23.10829592                4.13333410
              13.60637855                7.29235735               45.82216824                0.08346180                1.19339874                0.21720817               -3.94054379               -1.76355264               18.05233276                7.41855351
              14.61679533                6.98374736               45.73205004                0.31742040                0.91697688                0.56587458               -2.11602729               -0.29311885                6.70452831                1.47730550
              15.62471809                6.68061634               45.50880413                0.79348155                0.79227524                0.79513732               -2.98062958                0.05032271                0.11418802               -1.76118695
               5.81863361               10.76482040               46.09491213                0.95306185                0.11744296                0.01148191               -0.12255171               -0.03253886               -0.01194704                0.64389089
               6.81980804               10.48503296               45.88490046                0.49250387                0.18955363                0.22318814               -0.66263797                0.00869555                0.02168301               -0.62674259
               7.82242468               10.20475291               45.67539262                0.00010000                1.03298492                0.40865895               -1.18944498               -1.23233374               12.61084668               -1.45308380
               8.84046774                9.89864707               45.71663589                0.00010000                1.86831901               -0.06617933               -1.41898560               -1.57109542               25.11419680               -0.30181170
               9.85979106                9.58526327               45.74755636                0.00010000                1.74571089                0.07498809               -1.70397049               -1.30470658               24.99684243                0.37980225
              10.87538196                9.26960671               45.77546686                0.00010000                1.36135762                0.30334861               -2.04559670               -1.18978967               25.50926532                0.93156017
              11.88701822                8.95006317               45.80636926                0.00010000                0.99477487                0.57890606               -2.49861012               -1.37927001               26.57520693                1.55635355
              12.89527745                8.62578969               45.84616506                0.00010000                0.93172802                0.84867118               -3.21356881               -1.85150636               28.70500949                2.74210864
              13.90565278                8.29667704               45.91118220                0.12094110                1.15892349                0.93314700               -4.89294021               -1.47869826               19.75657869                6.03730515
              14.91845592                7.99013750               45.76505254                0.33449796                1.07038623                0.67839846               -2.35554133               -0.31966415                4.64705262                1.21967977
              15.92706050                7.68961767               45.52505347                0.78145115                0.86045775                0.96188648               -3.30932250                0.02815490                0.03090497               -1.54871023
               6.09704550               11.76535062               46.02619879                0.98676769                0.18502557                0.05302206               -0.34064078                0.05505268                0.34014079                0.55591806
               7.09889575               11.48748926               45.81264237                0.79616224                0.25991878                0.24562938               -0.87840374                0.08281712                0.74554401               -0.49637876
               8.10224387               11.20883153               45.60695342                0.47671591                2.02664770                0.40786252               -1.40090175               -1.67264889               14.37359459               -0.81757585
               9.13942871               10.89439790               45.66535914                0.36934011                3.16514698               -0.42491647               -1.63615244               -1.29597581               27.57183749               -0.28614524
              10.16554681               10.58499008               45.70976138                0.35966156                2.28483416               -0.02731851               -1.92339717               -0.53028334               27.29719922                0.09621362
              11.18512539               10.27228074               45.75067843                0.36899941                1.70770163                0.26740292               -2.26052407               -0.45902256               27.87205057                0.40465523
              12.19970085                9.95632276               45.79540736                0.39682588                1.20789824                0.62595957               -2.70422234               -0.52940009               29.26631647                0.76544964
              13.20928336                9.63632748               45.85385358                0.46945625                0.63779673                1.05377833               -3.46553503               -0.86453373               32.11585248                1.58660044
              14.21245678                9.31102029               45.94547840                0.58422016                0.40890355                1.43432431               -4.78990904               -1.27020693               22.35159687                3.37104671
              15.21746143                8.99731533               45.79335316                0.68616098                0.69320301                0.71778357               -2.48458320               -0.65776086                5.53840658                1.04616616
              16.22632084                8.69985407               45.54618293                0.88829449                0.88594141                1.02363976               -3.48640177                0.17990724                0.87339229               -1.20627405
               3.32645713                1.87140802               47.68285253                1.00000000               -0.52414500               -0.59734419                2.05257809               -0.12932033               -1.21923308                1.11460085
               4.32121568                1.55747356               47.52798372                1.00000000               -0.44846130               -0.36298570                1.34029145               -0.07255535               -1.67513809                0.19348116
               5.31748791                1.24277250               47.36475269                1.00000000               -0.32089350               -0.14245286                0.63661423               -0.09282771               -1.77038591               -0.20966275
               6.31479781                0.92510486               47.20853745                0.69388086               -0.47859156                0.15380882               -0.06511663               -0.64039716               -1.38540354               -0.92929090
               7.30791608                0.59310506               47.05362971                0.75420535               -0.28971012                0.23849769               -0.62663537               -0.22729816               -0.99335954                0.14988931
               8.30900361                0.25177425               46.90917404                0.77068936                0.35464703                0.41069423               -1.19838993               -0.26607692               -0.30555220               -0.02209077
               9.31500902               -0.09145811               46.77264693                0.67789754                0.94658929                0.60379415               -1.75812821               -0.13638547                0.94386347               -0.50019988
              10.32793540               -0.42973568               46.65806969                0.64103282                1.37550952                0.60759733               -1.96160564                0.03145337                2.11228246               -0.49832988
              11.34251921               -0.74774457               46.54874351                1.00000000                0.94843573                0.17677800               -0.87477438               -0.36710729                1.28053582                0.86071851
              12.34690411               -1.05568486               46.40820900                1.00000000                0.44708870                0.33167854               -1.22468380               -0.05426222               -0.44816974                0.10238751
              13.35146098               -1.36186959               46.26441482                1.00000000                0.45568698                0.46961884               -1.67404280               -0.09863121               -0.60070795               -0.56752157
               3.63909840                2.86543458               47.61588133                1.00000000               -0.42905056               -0.57788210                1.81265150               -0.00610243               -0.29949115                1.48414448
               4.63480789                2.55384370               47.46108307                1.00000000               -0.31772098               -0.33540622                1.10047576                0.04151661               -0.48502654                0.28554889
               5.63274398                2.24134797               47.30316708                1.00000000               -0.07901668               -0.11016888                0.38625044                0.00711951               -0.43472965               -0.37870708
               6.63322756                1.92664294               47.14952565                0.42670374                0.47822094                0.17786401               -0.32115808               -0.75011832                0.77746189               -1.29716199
               7.64230840                1.59549004               47.01564163                0.53573774                0.76984336                0.10209953               -1.04148074               -0.34800478                1.60089573                0.34146010
               8.64862443                1.25588119               46.88080860                0.57146243                0.60458639                0.47228472               -1.72257458               -0.36020885                1.91410731               -0.00931489
               9.65440013                0.91457983               46.75392535                0.42449505                0.38843666                0.80324097               -2.37891390               -0.27364321                3.92841273               -1.11903798
              10.65639316                0.57634029               46.65855052                0.33495395               -0.12887009                1.09452823               -2.51076568               -0.23460545                6.28724678               -1.21981594
              11.65182272                0.25402321               46.57793745                1.00000000               -0.14845822                0.15863807               -0.56887769               -0.68604257                3.44861524                0.94097512
              12.65342400               -0.05236808               46.43700989                1.00000000                0.24183346                0.28618078               -0.92751473               -0.00708429                0.23707014                0.23215559
              13.65665939               -0.35717340               46.29338441                1.00000000                0.32353977                0.43528817               -1.39324009               -0.04365131                0.08083737               -0.60052609
               3.94951685                3.85985038               47.55719358                1.00000000               -0.33842233               -0.53528480                1.56052542               -0.01041748               -0.02517266                1.84872167
               4.94613263                3.55076543               47.39628755                1.00000000               -0.23429010               -0.26865580                0.86187954                0.01547038                0.07973661                0.31722451
               5.94483105                3.24056912               47.23788892                0.80002108               -0.02396259               -0.00905484                0.14880671               -0.06959738                0.33437223               -0.92921907
               6.94565338                2.92866214               47.08195028                0.00010000                1.34433416                0.23680718               -0.55614723               -1.19321728                3.16301736               -1.73830153
               7.97171773                2.59514705               46.97931563                0.00010000                1.85281312                0.18440484               -1.55255083               -2.35809968                4.55695518               -0.48743312
               8.98270964                2.26121994               46.85077164                0.00010000                0.86796580                0.74770138               -2.28413926               -2.39563780                3.27808199                0.57793598
               9.98907705                1.92460671               46.71978761                0.00010000                0.05451344                1.29301784               -2.98361724               -2.43012415                5.87971030                1.22347309
              10.98379991                1.59215488               46.63964874                0.00010000               -1.57851631                1.68914381               -4.15088662               -2.63858771               11.27586744                0.98220528
              11.95750672                1.25542819               46.60998821                0.26696363               -1.29204391                0.04369817               -0.20533998               -1.73776515                6.57338790                1.26597567
              12.95795903                0.95003875               46.46859418                1.00000000                0.13459370                0.17930955               -0.61385128               -0.10415762                0.63007837                0.61283772
              13.96019860                0.64683618               46.32090088                1.00000000                0.22395672                0.35429199               -1.09827710               -0.05102545                0.28873753               -0.57171045
               4.25705995                4.85472889               47.49830382                1.00000000               -0.26613885               -0.47865880                1.30622737               -0.03126347                0.11021936                1.63773737
               5.25439857                4.54847058               47.33023007                0.99976640               -0.18023134               -0.17945800                0.62142883               -0.01315024                0.23296543                0.09662814
               6.25345533                4.24116687               47.16489184                0.33254129                0.01933593                0.10167619               -0.04875622               -0.14448770                1.05937664               -1.39241504
               7.25478528                3.93137909               47.01316586                0.00010000                0.45666362                0.33637753               -0.78621913               -1.35198228                4.87425768               -2.15221722
               8.26258860                3.59917813               46.92343971                0.00010000                0.82333654                0.58501569               -1.48516177               -3.32314189                8.00487244               -0.53083006
               9.27125201                3.27083522               46.83289409                0.00010000                0.61370518                0.91059093               -2.05223110               -3.53733600                8.15245619                1.56231152
              10.27486270                2.94044019               46.74576521                0.00010000                0.07739553                1.27997267               -2.44343067               -3.70104639                9.09870338                3.63793953
              11.27279992                2.61012317               46.67564744                0.00010000               -0.78395756                1.13865206               -1.98564911               -4.49711981               11.65700582                3.47928264
              12.25918355                2.25489717               46.64715913                0.02286470               -0.64335344                0.87890206               -0.29677642               -2.02751594                7.39918279               -0.93375782
              13.25993286                1.95121811               46.50541486                0.31531080                0.14302439                0.06241058               -0.45093584                0.06918257                0.85258682                1.45789789
              14.26204404                1.64991244               46.35020417                0.78734524                0.21111833               -0.15663785               -0.83207830                0.33207708                0.13024362                0.01229337
               4.56140819                5.85027721               47.43602612                1.00000000               -0.19765522               -0.40932578                1.05186131               -0.05419546                0.24637662                1.27339355
               5.55943164                5.54717627               47.26109152                0.64938657               -0.11877006               -0.06404254                0.37717784               -0.06607862                0.41753185               -0.38104631
               6.55903279                5.24260264               47.08980212                0.12707950                0.05854150                0.24289953               -0.25995365               -0.23189878                1.49142138               -1.80036919
               7.56060247                4.93538969               46.93605374                0.00010000                0.33829876                0.30080302               -0.93044499               -1.36755560                7.49795528               -0.80245305
               8.56579877                4.60684736               46.88415100                0.00010000                0.50491986                0.72084475               -1.37984973               -2.49034309               12.05269038                0.90731526
               9.57070087                4.27943176               46.81910772                0.00010000                0.49847027                0.78960418               -1.85256401               -2.65081654               11.47683572                2.11146917
              10.57576817                3.95020616               46.75459038                0.00010000                0.43498304                0.76676007               -2.03248129               -2.89530875               11.80731524                2.96773479
              11.57940053                3.61492792               46.69679926                0.00010000                0.00466436                0.50728877               -1.78195550               -3.17662454               11.76708483                2.59615169
              12.57586146                3.27300623               46.63293219                0.02173793               -0.75365583                1.45511771               -1.28603216               -1.84486783               10.36705736               -0.50233989
              13.56432741                2.95128697               46.55481998                0.25686276               -0.32049867                0.07305072               -0.49571992               -0.46410001                4.52994012                2.36591866
              14.56945149                2.64370342               46.38963698                0.74447363                0.51240741               -0.78181646               -0.94718010                0.44440920                0.13930952               -0.07877432
               4.86217792                6.84654237               47.37022110                1.00000000               -0.14263594               -0.32896003                0.80638837               -0.04190177                0.06273527                0.95322141
               5.86075156                6.54718973               47.18537865                0.48544565               -0.07869903                0.03895322                0.14434394               -0.07209062                0.42889845               -0.75457376
               6.86060394                6.24602486               47.00797810                0.04675611                0.12189471                0.41150261               -0.50272205               -0.49562033                3.93515689               -2.35037670
               7.86318945                5.93739515               46.89285880                0.00010000                0.40678642                0.19619187               -0.52305605               -1.41935714               10.98310953                1.88023955
               8.86873966                5.61359503               46.85428098                0.00010000                0.58437183                0.60257722               -1.32974981               -2.23877547               14.58560143                1.70850376
               9.87487689                5.28662730               46.80775057                0.00010000                0.63603503                0.63270137               -1.74429561               -2.43209173               14.29490885                2.46995351
              10.88146036                4.95577539               46.76032095                0.00010000                0.57952389                0.50901029               -1.94935180               -2.68561429               14.28911894                3.02068846
              11.88646736                4.62026894               46.71174467                0.00010000                0.22333952                0.50807816               -1.91117435               -2.75661091               14.00740130                2.85309720
              12.88592715                4.28399952               46.65951461                0.03143437               -0.32568492                0.81323243               -1.60438834               -2.11009710               13.37389090                2.48600342
              13.87995367                3.95267913               46.60436160                0.26835815                0.00860803                0.20546827               -0.94176636               -0.60865838                6.42836739                2.31472589
              14.88609931                3.63427611               46.42288841                0.76039847                0.61456486               -0.52407555               -1.65825682                0.11812842                0.08038319               -1.01417661
               5.15927544                7.84369801               47.30173820                1.00000000               -0.07680994               -0.24267150                0.57147134               -0.03551451                0.01579993                0.76801241
               6.15850734                7.54795534               47.10855471                0.41014199               -0.01802343                0.10255538               -0.07321709               -0.03803704                0.31031827               -0.81034769
               7.15891497                7.25083270               46.92129885                0.01245676                0.30689121                0.51030069               -0.71047127               -0.76152788                7.35887081               -2.64019246
               8.16464516                6.93931352               46.86864537                0.00010000                0.64380681                0.31763073               -0.88391568               -1.57682897               14.97960172                1.56690107
               9.17179110                6.61889891               46.82876269                0.00010000                0.76167562                0.48995513               -1.35524301               -2.08966387               16.31201668                1.88084308
              10.17987867                6.29208579               46.79793342                0.00010000                0.83115699                0.49009006               -1.75645242               -2.40023525               17.00235126                2.58861790
              11.18841424                5.96038637               46.76686200                0.00010000                0.80827496                0.42168838               -2.01453837               -2.59431828               17.04883507                3.24074071
              12.19604417                5.62508949               46.73304833                0.00010000                0.64175442                0.39574047               -2.11681237               -2.50410480               16.67636924                3.62262084
              13.20124933                5.28927088               46.69336664                0.04276871                0.29167421                0.36452673               -2.01361011               -1.87549497               15.77831465                3.48294719
              14.20187766                4.95539633               46.64452893                0.28451078                0.36853777                0.34835860               -1.45009882               -0.58295327                7.59965747                1.77940499
              15.20862009                4.63322191               46.44580474                0.77566692                0.67424306                0.18256355               -2.33214608                0.07773473                0.11517848               -1.66464957
               5.45295297                8.84168894               47.23237637                0.97944306               -0.00968407               -0.16071704                0.34044773               -0.03498052                0.01401556                0.71320188
               6.45285613                8.54924084               47.03150847                0.39401281                0.05311106                0.15296502               -0.28663449                0.00451536                0.13408940               -0.80265320
               7.45401519                8.25623088               46.83300724                0.00010000                0.53652658                0.52509389               -0.91084392               -0.91234858                9.39654013               -2.65270781
               8.46358666                7.94374776               46.81690612                0.00010000                1.00794667                0.44556690               -1.17226800               -1.81472728               18.87256303               -0.04980057
               9.47417412                7.62339413               46.80105680                0.00010000                1.08990330                0.39319647               -1.50252213               -2.10247614               19.37323257                1.48217037
              10.48538472                7.29642910               46.78748228                0.00010000                1.11980887                0.37651674               -1.85026476               -2.31054295               19.90783146                2.39590566
              11.49657030                6.96420916               46.77486986                0.00010000                1.10580164                0.36517595               -2.16869361               -2.48853166               20.12084983                3.26286953
              12.50750076                6.62818375               46.75902285                0.00010000                1.07700565                0.30078363               -2.44755169               -2.45633249               19.65023976                4.17306835
              13.51811041                6.29129006               46.73288348                0.05614727                0.84214072                0.14861191               -2.60023446               -1.76093100               17.74000257                4.58313525
              14.52434357                5.95964630               46.67887801                0.29794147                0.69462210                0.49932265               -1.89160006               -0.51295462                8.18098284                1.45292235
              15.53200285                5.63792738               46.46295247                0.78394557                0.76592830                0.63255893               -2.85392053                0.07245907                0.11718992               -1.93299311
               5.74347203                9.84048367               47.16292821                0.96687425                0.05836795               -0.07717036                0.11420563               -0.03327829                0.00641802                0.71362306
               6.74405571                9.55101464               46.95455103                0.42863077                0.13445212                0.19896964               -0.50635883                0.02399145               -0.03217312               -0.76094346
               7.74616107                9.26133457               46.74530139                0.00010000                0.85658255                0.47903551               -1.11008852               -1.07137538               11.11054954               -2.31528351
               8.76118736                8.94822486               46.75924240                0.00010000                1.54495846                0.32759110               -1.36663879               -1.97743912               22.41748988               -0.35641843
               9.77706024                8.62676284               46.76722490                0.00010000                1.58327150                0.18641167               -1.66808543               -1.94378602               22.55030516                0.93400877
              10.79285279                8.29961612               46.77381249                0.00010000                1.49143593                0.25726328               -1.99522560               -1.96405443               23.03373738                1.86593034
              11.80688896                7.96768989               46.78126430                0.00010000                1.34919141                0.37002342               -2.36627123               -2.14786573               23.57289173                2.77802229
              12.81983662                7.63110516               46.78920033                0.00010000                1.38396024                0.42321784               -2.87917397               -2.38463254               23.34762323                4.07679016
              13.83456817                7.29224312               46.78458237                0.07421597                1.25723113                0.26145667               -3.53120759               -1.73459282               19.36204181                6.51054570
              14.84498124                6.96538278               46.71008097                0.31000907                0.94694696                0.63812437               -2.25942505               -0.39384620                7.98077437                1.33409067
              15.85350710                6.64587309               46.47741472                0.78511071                0.85258630                0.89216463               -3.26394500                0.05627918                0.11919871               -2.03796538
               6.03122546               10.84014553               47.09369935                0.94641501                0.12595871                0.00918075               -0.11839826               -0.03409040               -0.01018936                0.63444590
               7.03248505               10.55322023               46.87797322                0.47991590                0.20759967                0.24407562               -0.72450069                0.01118343                0.03234443               -0.61637975
               8.03537745               10.26581159               46.66292755                0.00010000                1.30622815                0.44663317               -1.30942987               -1.34027178               12.79046745               -1.42144793
               9.05860961                9.95029958               46.70178921                0.00010000                2.42648433               -0.21371936               -1.56253423               -1.65308288               25.50118822               -0.24340117
              10.08390714                9.62712236               46.72985330                0.00010000                2.32834885               -0.08960155               -1.85120828               -1.31613198               25.43291635                0.46752327
              11.10517659                9.30157437               46.75442876                0.00010000                1.91084034                0.13601087               -2.17155964               -1.15436487               25.97830425                1.03758595
              12.12212395                8.97160962               46.78092575                0.00010000                1.50391435                0.41482539               -2.57816547               -1.30184228               26.97532387                1.64024829
              13.13525487                8.63664811               46.81359155                0.00010000                1.35084925                0.70366849               -3.23078104               -1.69713314               28.55391675                2.68551754
              14.14914093                8.29651919               46.86074455                0.10674208                1.37909012                0.90841515               -4.82383061               -1.37160608               21.26567979                5.57818666
              15.16283668                7.97240879               46.74051199                0.32934829                1.15034493                0.73986098               -2.53165253               -0.39910141                6.45744877                1.17419432
              16.17214783                7.65577068               46.49030276                0.77407694                0.93111542                1.05203700               -3.59415742                0.03217358                0.01426522               -1.71728900
               6.31664083               11.84066728               47.02274931                0.98326702                0.19724998                0.05217464               -0.34806062                0.06442339                0.33177775                0.54715509
               7.31861333               11.55589615               46.80350606                0.78971239                0.28177287                0.26759160               -0.95159538                0.09282571                0.74616182               -0.48844965
               8.32227628               11.27026724               46.59230317                0.47368684                2.41007992                0.44556504               -1.53373261               -1.90740060               14.54041187               -0.79475924
               9.36681492               10.94395047               46.64828667                0.36929157                3.85932675               -0.63491100               -1.79144971               -1.44429004               27.95248044               -0.27078603
              10.39946282               10.62497081               46.68980715                0.35973787                2.92316548               -0.21515575               -2.08214272               -0.52513884               27.74225276                0.12792981
              11.42527823               10.30233634               46.72743623                0.36878346                2.31577770                0.07619724               -2.39729109               -0.43905598               28.37940010                0.44133747
              12.44577837                9.97598639               46.76786241                0.39581590                1.78530762                0.43767699               -2.79365900               -0.49244792               29.70653606                0.77815466
              13.46098439                9.64517853               46.81856970                0.45811331                1.27984963                0.85304202               -3.50177214               -0.70579745               32.11929748                1.45989982
              14.47137537                9.31041142               46.89450418                0.57565302                0.83816721                1.38922267               -5.01761137               -1.02648299               23.90447197                3.28771449
              15.47774773                8.98018000               46.76738563                0.68454830                0.80257176                0.77712154               -2.69306605               -0.68377423                7.35272040                1.04776636
              16.48742680                8.66691383               46.50960194                0.88484290                0.96790702                1.11431514               -3.78233069                0.20127937                0.88758812               -1.32393998
               3.47273011                1.95065257               48.70416019                1.00000000               -0.56264708               -0.64277563                2.21160643               -0.14581188               -1.20144221                1.09419212
               4.46710364                1.62749109               48.54170453                1.00000000               -0.48112388               -0.37596881                1.40361755               -0.08478750               -1.64929434                0.18842213
               5.46310763                1.30350002               48.37105224                1.00000000               -0.34798181               -0.12598904                0.62097569               -0.10879763               -1.72990167               -0.21245658
               6.46014400                0.97618071               48.20746515                0.69652500               -0.58648707                0.21319038               -0.15409663               -0.63954294               -1.23246904               -0.91472926
               7.45137789                0.63453299               48.04716623                0.75625902               -0.51093174                0.35423231               -0.67650924               -0.23622779               -0.73125961                0.10989756
               8.44992537                0.28260218               47.89695541                0.77376169                0.07859937                0.51100440               -1.25343094               -0.29058709               -0.09989871               -0.02084178
               9.45294988               -0.07466951               47.75444834                0.67401088                0.63192268                0.75832329               -1.87500737               -0.32512881                1.17985075               -0.48086107
              10.46256382               -0.43376710               47.63657999                0.58555469                1.48764063                0.89640054               -2.32190221                0.08556963                3.01610223               -0.67644946
              11.48270269               -0.76996855               47.54070161                1.00000000                1.21392505                0.08697350               -0.70046389               -0.90569484                2.19393893                0.83544673
              12.48684232               -1.08486332               47.39607609                1.00000000                0.43711714                0.31199596               -1.16052629               -0.05875688               -0.40099273                0.14341042
              13.49144503               -1.39779172               47.24706791                1.00000000                0.46027110                0.52530720               -1.86922924               -0.11901193               -0.56959328               -0.52937516
               3.79443347                2.94422481               48.63471026                1.00000000               -0.46014291               -0.62054590                1.95575456               -0.00422663               -0.30046909                1.45455338
               4.78983204                2.62373140               48.47231783                1.00000000               -0.33793130               -0.34646983                1.14657699                0.04716954               -0.48642245                0.28119118
               5.78767485                2.30224013               48.30683473                1.00000000               -0.07999783               -0.09078492                0.34516188                0.01262664               -0.43436817               -0.37354077
               6.78823209                1.97831262               48.14568498                0.44720186                0.40650182                0.22925111               -0.45065276               -0.71411046                0.79136494               -1.27069346
               7.79580488                1.63807532               48.00462882                0.55936652                0.66943314                0.19849091               -1.15664288               -0.31606346                1.56846311                0.27283812
               8.80162075                1.28771222               47.86269218                0.59518444                0.60391738                0.54842282               -1.88557320               -0.35778354                1.83318562                0.00001973
               9.80788323                0.93291373               47.72846106                0.44146042                0.47241461                0.91882114               -2.68198735               -0.45247746                4.00658531               -1.02223634
              10.81106904                0.57519691               47.62951754                0.30025276               -0.43446879                1.42360876               -3.28185583               -0.40183643                8.03529266               -1.84293842
              11.79919385                0.23090118               47.57274242                0.85463079               -0.54513498                0.06191359               -0.57130293               -1.47805419                4.95590062                1.00592838
              12.80016634               -0.08174336               47.42821032                1.00000000                0.19947335                0.26912364               -0.83616826                0.01117837                0.27715610                0.29118897
              13.80318332               -0.39253865               47.27911394                1.00000000                0.30169796                0.46959252               -1.50103566               -0.01789158                0.05763757               -0.54200955
               4.11363240                3.93824165               48.57337443                1.00000000               -0.36006810               -0.57142376                1.67897297               -0.00834295               -0.02800845                1.81119361
               5.11003172                3.62056169               48.40504223                1.00000000               -0.24267247               -0.27436117                0.88818529                0.02102938                0.06579371                0.31148694
               6.10877895                3.30168432               48.23905082                0.80244888               -0.00025579                0.01868007                0.08117338               -0.07571671                0.31498696               -0.88926735
               7.11002660                2.98076574               48.07561680                0.00010000                1.34390337                0.28450364               -0.72023402               -1.18223343                3.01840127               -1.70210986
               8.13565702                2.63850281               47.96287140                0.00010000                1.89523429                0.27007074               -1.71875373               -2.35058808                4.23438809               -0.27870242
               9.14793129                2.29357064               47.82659210                0.00010000                1.03793134                0.84411559               -2.52126066               -2.58910744                3.03133377                0.98690284
              10.15641565                1.94370692               47.68823991                0.00010000                0.43041732                1.42521084               -3.29973302               -2.95974776                5.23659252                1.90967867
              11.15653964                1.59470508               47.59244375                0.00010000               -2.31668853                2.11815898               -4.85028567               -4.11548385               13.43314074                2.00117156
              12.11008187                1.23126972               47.60891618                0.23967523               -2.30169545                0.10901601               -0.11552071               -2.63798066                9.07826659                1.09046197
              13.11050573                0.92051915               47.46351724                1.00000000                0.12979573                0.15566181               -0.42912730               -0.05471691                0.60320863                0.59336711
              14.11267779                0.61160013               47.30982775                1.00000000                0.21720624                0.35306921               -1.13030073               -0.03622026                0.18868385               -0.51437161
               4.42962653                4.93279634               48.51182880                1.00000000               -0.28165633               -0.50399001                1.39934626               -0.03134539                0.10326225                1.60165130
               5.42680997                4.61824418               48.33644032                0.96168383               -0.18350295               -0.17822686                0.62756738               -0.01197242                0.23942594                0.08566727
               6.42595647                4.30261373               48.16408965                0.32236665                0.04794790                0.14114688               -0.11332736               -0.16866280                1.03293894               -1.34881383
               7.42776892                3.98400269               48.00432735                0.00010000                0.50158762                0.40020276               -0.98113768               -1.37167972                4.85077632               -2.06895196
               8.43598822                3.64347673               47.90741938                0.00010000                0.84327864                0.69733271               -1.71104454               -3.35156584                8.01617852               -0.01314558
               9.44463450                3.30459453               47.81091167                0.00010000                0.57828053                1.08522306               -2.34066770               -3.82634130                8.24831326                2.31264164
              10.44755383                2.96141794               47.71938746                0.00010000               -0.17189686                1.55047235               -2.82174923               -4.26393940                9.75875191                4.69991477
              11.44119656                2.61756009               47.65467924                0.00010000               -1.34668344                1.48552312               -2.30097068               -6.18250645               13.44064439                5.30516877
              12.42062016                2.23308150               47.64448862                0.01044570               -1.12274808                1.54854434               -0.38733372               -2.62655538                8.87149852               -1.60148748
              13.41874160                1.92136988               47.50200093                0.27238425               -0.01615959                0.23554464               -0.22104331                0.24113439                1.06275911                1.21945872
              14.42029697                1.61452273               47.34219512                0.75402888                0.15553746               -0.31475342               -0.77632876                0.60525777                0.14083578               -0.18477068
               4.74210981                5.92816185               48.44691373                1.00000000               -0.21349283               -0.42286399                1.12609829               -0.05337172                0.22891381                1.24149263
               5.73997488                5.61699716               48.26471713                0.62836353               -0.12313139               -0.05761902                0.35550160               -0.05294744                0.42467021               -0.38147384
               6.73964718                5.30450725               48.08669919                0.11774557                0.08775608                0.27280893               -0.37022458               -0.23448058                1.50654506               -1.77680076
               7.74173000                4.98876979               47.92588021                0.00010000                0.41933373                0.36933669               -1.11287072               -1.33109772                7.61827204               -0.37207561
               8.74803386                4.65244947               47.86925268                0.00010000                0.58666238                0.83880030               -1.60197128               -2.45083704               12.25157811                1.41058099
               9.75346325                4.31527510               47.79927730                0.00010000                0.50687230                0.97074711               -2.11826466               -2.70822471               11.81379866                2.76923882
              10.75817130                3.97471636               47.73298257                0.00010000                0.38813463                1.02525324               -2.31363790               -3.12599820               12.54615328                3.76434492
              11.76122594                3.62441554               47.67807438                0.00010000               -0.22151638                0.74300695               -2.02576555               -3.65093555               12.93345379                3.07952468
              12.75374098                3.26224061               47.62000136                0.01396749               -1.36693795                2.33429950               -1.41905771               -2.12791825               11.85703511               -0.95429221
              13.73388719                2.92523005               47.55057788                0.23261985               -0.76318710                0.51552992               -0.38891363               -0.45950735                5.38250934                2.05424884
              14.73847723                2.60530506               47.37977309                0.72478225                0.45900486               -0.94455481               -1.08441046                0.59853938                0.21540094               -0.84283064
               5.05088848                6.92433906               48.37854541                1.00000000               -0.14828703               -0.33725442                0.86132355               -0.03965796                0.05394214                0.93290782
               6.04940561                6.61709180               48.18669233                0.46951169               -0.06971302                0.04793055                0.11642262               -0.06105061                0.42595855               -0.73948694
               7.04949422                6.30806991               48.00240917                0.03800717                0.18995722                0.43291297               -0.61005172               -0.48451044                4.27204426               -2.31232980
               8.05320476                5.99138942               47.88709235                0.00010000                0.54859766                0.28882852               -0.64119523               -1.27639707               11.24764008                2.20948622
               9.06046618                5.66025274               47.83998006                0.00010000                0.74991735                0.68550961               -1.53986234               -2.08517109               14.64770003                2.12465247
              10.06820310                5.32400948               47.78924024                0.00010000                0.77136243                0.74209631               -1.97012490               -2.36530692               14.70629724                2.98440704
              11.07589342                4.98192301               47.73989353                0.00010000                0.62252489                0.64118625               -2.15901253               -2.72874968               14.98525949                3.51545107
              12.08065360                4.63242023               47.69207455                0.00010000                0.06769330                0.75263012               -2.06671789               -2.98832194               15.03949315                3.12869282
              13.07724729                4.27976749               47.64348881                0.02601596               -0.70833016                1.32335757               -1.66224857               -2.34177129               14.77016733                2.43932396
              14.06648700                3.93168048               47.59482001                0.25355785               -0.25647766                0.58078752               -0.99203008               -0.58503770                7.27663971                1.96121260
              15.07211774                3.59563164               47.40482394                0.74642148                0.56307383               -0.42064340               -1.97552156                0.12380946                0.13063032               -1.78077681
               5.35581117                7.92141676               48.30765457                1.00000000               -0.07881475               -0.24994184                0.61321995               -0.03530061                0.01182643                0.75767108
               6.35502302                7.61795577               48.10763599                0.39651466               -0.00759115                0.11458649               -0.11145017               -0.03159843                0.31090810               -0.78953901
               7.35565935                7.31316551               47.91363786                0.00426760                0.44981036                0.54276153               -0.82476616               -0.72305607                7.59165935               -2.58387932
               8.36401923                6.99454636               47.85876792                0.00010000                0.90255176                0.40566555               -1.09479789               -1.42904886               15.33567935                1.55365314
               9.37371038                6.66615966               47.81428770                0.00010000                1.02338062                0.52531773               -1.55190469               -1.93390495               16.60535446                2.17864595
              10.38448684                6.33011702               47.77947270                0.00010000                1.07375883                0.51770825               -1.94986586               -2.26842297               17.44735746                2.96416503
              11.39518556                5.98754009               47.74605346                0.00010000                0.95640876                0.48311881               -2.16628390               -2.51738086               17.71411241                3.57357160
              12.40361502                5.63946814               47.71167877                0.00010000                0.62298702                0.56093821               -2.18694145               -2.50443332               17.60149374                3.77077636
              13.40764530                5.28870776               47.67358078                0.03870161                0.13536351                0.65061805               -1.98844237               -1.98038016               17.06423009                3.32576068
              14.40632229                4.93684580               47.62961660                0.27494959                0.27029008                0.53229669               -1.52994279               -0.60873056                8.39530151                1.49603019
              15.41305110                4.59689219               47.42090338                0.76480936                0.67288133                0.39067176               -2.62739298                0.09809602                0.14077406               -2.11740146
               5.65710446                8.91934022               48.23592097                0.97241084               -0.00795682               -0.16731546                0.37006130               -0.03602145                0.01741123                0.70763733
               6.65702489                8.61938353               48.02841228                0.38144861                0.06690228                0.16930544               -0.33404621                0.00998021                0.14008307               -0.78281586
               7.65844251                8.31892514               47.82332230                0.00010000                0.73023715                0.56334322               -1.02772097               -0.87579357                9.59315906               -2.59714638
               8.67162964                7.99950274               47.80433786                0.00010000                1.38874544                0.45818351               -1.34976275               -1.71990081               19.26380796                0.03946138
               9.68621742                7.67075909               47.78513552                0.00010000                1.49122892                0.36071694               -1.69475464               -1.99064389               19.78764977                1.69129987
              10.70145422                7.33436364               47.76819916                0.00010000                1.49886356                0.32344343               -2.02013347               -2.16520577               20.40320044                2.67294874
              11.71619469                6.99158538               47.75270474                0.00010000                1.39715246                0.33545576               -2.27534304               -2.31854930               20.73712486                3.49205755
              12.72939726                6.64363899               47.73471022                0.00010000                1.20336721                0.34265072               -2.42973516               -2.29294011               20.43559559                4.17826270
              13.74026203                6.29277985               47.70793783                0.05229120                0.83653462                0.29997135               -2.42635503               -1.81095707               18.98498888                4.18316089
              14.74612796                5.94232641               47.65944153                0.29156432                0.68624206                0.59746971               -1.97495624               -0.60393021                9.01191059                1.24617762
              15.75398687                5.60344507               47.43301532                0.77485942                0.78589162                0.78072713               -3.08706053                0.08103887                0.11949706               -2.19412738
               5.95500413                9.91807045               48.16415513                0.96136188                0.06335850               -0.08260046                0.13294680               -0.03397653                0.00582241                0.70718092
               6.95563771                9.62134188               47.94921677                0.41603888                0.15100706                0.21834062               -0.56214307                0.02818827               -0.02283938               -0.74351171
               7.95802427                9.32443238               47.73360569                0.00010000                1.10747724                0.51985145               -1.23186590               -1.08281536               11.31336946               -2.26337467
               8.97778726                9.00371003               47.74479580                0.00010000                2.05061647                0.26160205               -1.53434484               -1.95611365               22.83659358               -0.24301468
               9.99903660                8.67337400               47.74971579                0.00010000                2.12845888                0.06361976               -1.84850824               -1.87658614               23.01775996                1.10316541
              11.02035644                8.33658589               47.75315196                0.00010000                2.02513128                0.11855218               -2.14951726               -1.83517061               23.56435190                2.06949021
              12.03953923                7.99424920               47.75721868                0.00010000                1.81026540                0.23423187               -2.44343583               -1.95487569               24.12090432                2.93970337
              13.05656175                7.64632116               47.76075529                0.00010000                1.65997572                0.32458416               -2.78370976               -2.12011483               23.89451971                4.02663941
              14.07273874                7.29470719               47.75154409                0.06880993                1.35083616                0.27695573               -3.08798139               -1.68710334               20.66037294                5.70312383
              15.08357847                6.94879519               47.68686154                0.30579183                0.98479080                0.69951585               -2.35075041               -0.51408604                9.02846310                1.19772008
              16.09243456                6.61250673               47.44352523                0.77729644                0.88560880                0.98198001               -3.45168923                0.06002366                0.11088737               -2.21390524
               6.24988209               10.91768821               48.09254416                0.93958450                0.13446483                0.00616717               -0.11077085               -0.03561561               -0.00780150                0.62544633
               7.25122674               10.62375034               47.87041045                0.46618353                0.22679791                0.26563561               -0.78974677                0.01306823                0.04701738               -0.60324380
               8.25441805               10.32932216               47.64920402                0.00010000                1.61695053                0.48763569               -1.43824180               -1.43841665               12.99375425               -1.38406799
               9.28356575               10.00473478               47.68538521                0.00010000                3.06958948               -0.38613842               -1.73118862               -1.70517963               25.93367068               -0.17214080
              10.31580983                9.67203149               47.71053219                0.00010000                3.01549256               -0.28665014               -2.02863722               -1.28971942               25.93562560                0.57078308
              11.34387560                9.33673468               47.73203567                0.00010000                2.57760367               -0.07466692               -2.31873057               -1.07298870               26.54343876                1.15999253
              12.36736191                8.99627002               47.75480595                0.00010000                2.13306938                0.18816669               -2.63870980               -1.17225702               27.50863068                1.74060488
              13.38653698                8.65013067               47.78154944                0.00010000                1.83420108                0.46240074               -3.11226798               -1.47426318               28.67021483                2.63504584
              14.40404593                8.29831897               47.81470558                0.09801917                1.57548523                0.72740676               -4.16280229               -1.24111982               22.69526914                4.94489648
              15.41804669                7.95631673               47.71441949                0.32798277                1.18591675                0.78640968               -2.64676659               -0.46973460                8.01016232                1.11814414
              16.42776426                7.62308467               47.45317032                0.76765310                0.97175755                1.11350884               -3.75758729                0.03706563               -0.01720317               -1.82225389
               6.54216756               11.91819380               48.01923758                0.97909091                0.20975663                0.05055850               -0.35243959                0.07462650                0.32273567                0.53852209
               7.54426513               11.62665459               47.79361046                0.78254683                0.30519708                0.29042478               -1.02870138                0.10340392                0.74976859               -0.47977330
               8.54827150               11.33418509               47.57627876                0.47066608                2.83546089                0.48629274               -1.67566358               -2.14802053               14.72911769               -0.76893331
               9.60097434               10.99598726               47.62953015                0.36924038                4.64854004               -0.87475128               -1.97214242               -1.58634502               28.37665464               -0.24693806
              10.64124230               10.66764099               47.66811852                0.35981515                3.68418923               -0.43904932               -2.26976719               -0.50148870               28.25387489                0.17036056
              11.67465813               10.33509255               47.70273261                0.36852394                3.07278967               -0.16421325               -2.55257527               -0.40316962               28.98256576                0.49016281
              12.70269810                9.99801254               47.73953418                0.39481610                2.51847016                0.17425159               -2.86093346               -0.44255019               30.28518794                0.80594894
              13.72502753                9.65556917               47.78381813                0.44857627                1.95160970                0.54384978               -3.37151052               -0.58880596               32.27867506                1.36012051
              14.74173029                9.30925532               47.84512617                0.57039032                1.21952705                1.09363518               -4.51293160               -0.78385319               25.38874784                2.94047711
              15.74941807                8.96452339               47.73949184                0.68513963                0.89548440                0.82066587               -2.84830809               -0.58678214                9.00881328                1.02382031
              16.75963998                8.63477691               47.47053632                0.88204349                1.02219050                1.16922376               -3.95637948                0.21292380                0.87707553               -1.40579577
               3.62733960                2.03219173               49.72708465                1.00000000               -0.60018598               -0.68803220                2.37181098               -0.16420701               -1.16570203                1.06205812
               4.62133774                1.70001540               49.55605607                1.00000000               -0.51051747               -0.38855705                1.46425185               -0.09994390               -1.59406154                0.18080059
               5.61712925                1.36695839               49.37717220                1.00000000               -0.36516469               -0.10798158                0.59853465               -0.12621660               -1.64498159               -0.21509350
               6.61403445                1.03037063               49.20545552                0.69578376               -0.66643128                0.27068028               -0.25630040               -0.60639586               -0.97104759               -0.90059448
               7.60380063                0.68037783               49.04009953                0.75120307               -0.71554601                0.48637979               -0.76330485               -0.23735393               -0.28854085                0.05951867
               8.59972353                0.31988388               48.88410542                0.76737113               -0.24095869                0.63610178               -1.35630357               -0.30069329                0.30542204               -0.03119733
               9.59898145               -0.04910078               48.73514678                0.66223176                0.11403185                0.94443012               -2.02208195               -0.57868085                1.57621695               -0.41559071
              10.60200417               -0.42913977               48.61163164                0.53609642                1.39602131                1.27575332               -2.66728468               -0.21947494                4.34838096               -0.65210670
              11.62690188               -0.79511725               48.53473423                0.74116646                1.52568937                0.10444624               -0.96364681               -1.86265872                2.88710446                0.95301931
              12.63251795               -1.11708510               48.38499847                1.00000000                0.55917982                0.30996552               -1.28766691               -0.06382950               -0.38729300                0.13290281
              13.63808548               -1.43654913               48.22703024                1.00000000                0.55675232                0.57757114               -2.11714694               -0.15446001               -0.67015806               -0.43358145
               3.95787387                3.02531141               49.65499642                1.00000000               -0.49188935               -0.66180108                2.10059278               -0.00408383               -0.29387238                1.41128178
               4.95295497                2.69612983               49.48401461                1.00000000               -0.35921965               -0.35713592                1.19096363                0.05007709               -0.47294750                0.27269006
               5.95068947                2.36587858               49.31007031                1.00000000               -0.08471006               -0.07147701                0.29923442                0.01872830               -0.41187614               -0.36928950
               6.95126077                2.03307743               49.14051259                0.46329274                0.29904939                0.28034720               -0.58850774               -0.62352860                0.88599450               -1.24565035
               7.95667046                1.68524163               48.99250878                0.57412482                0.50975643                0.32023044               -1.27464605               -0.26014791                1.66503039                0.19767596
               8.96145590                1.32624490               48.84309714                0.60718575                0.55180048                0.64273105               -2.04127982               -0.33269171                1.80722627                0.02333998
               9.96770647                0.96034352               48.70028560                0.44675454                0.56808768                1.04873277               -2.95607314               -0.68256703                3.87029760               -0.77860332
              10.97281765                0.58361776               48.59291341                0.26955197               -0.77292563                1.80781914               -3.99470420               -1.23170077                9.74040239               -1.72623554
              11.95224796                0.20592721               48.56651139                0.56390285               -1.01110270                0.03042411               -1.19321920               -2.82532625                7.23401458                1.57165052
              12.95259560               -0.11398545               48.42028652                1.00000000                0.18784757                0.26002905               -0.80190393               -0.00534776                0.52315947                0.34743573
              13.95600491               -0.43077342               48.26336370                1.00000000                0.34093099                0.50083474               -1.64745882               -0.01550816                0.02980386               -0.45274791
               4.28562109                4.01895571               49.59077304                1.00000000               -0.38489740               -0.60444003                1.80060085               -0.00688857               -0.02868232                1.75613065
               5.28177212                3.69287268               49.41405125                1.00000000               -0.25324363               -0.28103999                0.91344248                0.02722041                0.05576221                0.30294681
               6.28055622                3.36552885               49.23951239                0.81021190                0.02143546                0.03318239                0.01230945               -0.06787500                0.29619599               -0.83789667
               7.28220083                3.03597757               49.06754560                0.00010000                1.24369910                0.33296033               -0.89376519               -1.07680524                2.92730185               -1.65194393
               8.30543020                2.68678244               48.94494055                0.00010000                1.78834870                0.36461536               -1.85042536               -2.17908441                3.96177945               -0.07893767
               9.31796780                2.33273850               48.80034643                0.00010000                1.12635244                0.90789729               -2.71191371               -2.60571314                2.73442755                1.44655961
              10.32795725                1.97187388               48.65379295                0.00010000                0.69093320                1.46761521               -3.58689583               -3.35790926                4.50171445                2.84265196
              11.33178646                1.60701661               48.54264303                0.00010000               -2.99793426                2.34890761               -5.02956393               -6.13443219               15.25115634                3.95151045
              12.26799856                1.20549123               48.60767779                0.20905315               -3.13374160                0.29275134               -0.13445605               -4.09286305               12.06183935                1.33765378
              13.26911163                0.88811548               48.46001164                1.00000000                0.16763518                0.12660508               -0.30515332               -0.05688678                0.81550071                0.59398924
              14.27135127                0.57346756               48.29829486                1.00000000                0.22396356                0.35225551               -1.15667852               -0.04141817                0.10700189               -0.42918254
               4.60990216                5.01322261               49.52629074                1.00000000               -0.29759186               -0.52826284                1.49522964               -0.03342856                0.10748397                1.55329445
               5.60692624                4.69050903               49.34278142                0.93145764               -0.18375366               -0.17889480                0.63617024               -0.01564542                0.25858214                0.06839581
               6.60622708                4.36654222               49.16262529                0.31125104                0.07724211                0.16091257               -0.19127876               -0.16640018                0.99617030               -1.31085227
               7.60847108                4.03973663               48.99354311                0.00010000                0.50503791                0.46027997               -1.16613789               -1.28973488                4.82903053               -1.94214218
               8.61632784                3.69253394               48.88921882                0.00010000                0.78895596                0.78579313               -1.91644830               -3.16653757                8.04937279                0.51936217
               9.62425020                3.34440284               48.78608073                0.00010000                0.49711666                1.18747367               -2.60738969               -3.87794751                8.31502035                3.14220117
              10.62627017                2.98969583               48.68933022                0.00010000               -0.38692708                1.65565531               -3.16615948               -4.69350071               10.37772065                6.03938320
              11.61651166                2.63059591               48.62962803                0.00010000               -1.84891726                1.60532481               -2.72612968               -7.93246203               15.49403620                7.54249898
              12.58929183                2.21178224               48.63941246                0.00010000               -1.65150619                2.47144804               -1.02071953               -3.47745786               11.03628036               -1.76409032
              13.58348153                1.88854666               48.50099400                0.23592623               -0.24097225                0.57186923               -0.00323772                0.37918442                1.60717396                0.86374736
              14.58447238                1.57627169               48.33467759                0.72573191                0.09908505               -0.46247855               -0.69662897                0.97339394                0.16276163               -0.52712739
               4.93037968                6.00839045               49.45854809                1.00000000               -0.22400907               -0.43814586                1.20095884               -0.05652948                0.21344803                1.20379411
               5.92813959                5.68929478               49.26820155                0.60381719               -0.11895378               -0.05139499                0.34128451               -0.05813110                0.42985215               -0.38964788
               6.92800061                5.36874710               49.08239763                0.10741901                0.11374127                0.31486837               -0.48146085               -0.23469472                1.53581380               -1.76877808
               7.93041442                5.04518317               48.91379633                0.00010000                0.47163164                0.44802671               -1.30250577               -1.20742591                7.77536090                0.13144679
               8.93743324                4.70249830               48.85211158                0.00010000                0.64162701                0.92595647               -1.82101512               -2.27386284               12.48595963                1.95254070
               9.94324696                4.35648797               48.77674243                0.00010000                0.52304620                1.08586008               -2.38145494               -2.63360798               12.17824411                3.52836766
              10.94789416                4.00498698               48.70831762                0.00010000                0.39019282                1.16588445               -2.61811327               -3.26519002               13.35925738                4.76395894
              11.95105081                3.63912311               48.65628395                0.00010000               -0.36977492                0.93212497               -2.37831786               -4.14582488               14.24640489                3.89936589
              12.94049866                3.25492019               48.60455104                0.00701055               -1.94224717                3.37121738               -1.75982780               -2.51385162               13.75705492               -0.98289437
              13.91220587                2.89955286               48.54704170                0.21247365               -1.25647914                1.21590012               -0.41175176               -0.50162008                6.60614428                1.68346482
              14.91536908                2.56421799               48.36794877                0.70675316                0.31632122               -0.93707030               -1.30489548                0.67809695                0.30291698               -1.77803335
               5.24696291                7.00445969               49.38744757                1.00000000               -0.15559424               -0.34572938                0.92033966               -0.03938456                0.04524766                0.90812198
               6.24540696                6.68948113               49.18770710                0.45218273               -0.06590518                0.05749141                0.08642022               -0.05087412                0.42870913               -0.72228201
               7.24564480                6.37283959               48.99577706                0.02874864                0.25821998                0.47474388               -0.72598522               -0.45841673                4.64576438               -2.26139965
               8.25057136                6.04869717               48.88003489                0.00010000                0.69504878                0.39789560               -0.78213919               -1.07460143               11.54129558                2.56025962
               9.25954578                5.71105307               48.82348373                0.00010000                0.92589969                0.74090333               -1.76465377               -1.84084762               14.73423568                2.57235586
              10.26908936                5.36612005               48.76834807                0.00010000                0.93927309                0.79610946               -2.21228088               -2.21132230               15.18910741                3.56422879
              11.27833124                5.01301352               48.71714070                0.00010000                0.72862977                0.70298052               -2.40399864               -2.71426830               15.78880497                4.13837741
              12.28366195                4.64923841               48.67041031                0.00010000                0.01269002                0.93731210               -2.29346402               -3.21555078               16.25320896                3.61699145
              13.27858504                4.27920659               48.62626964                0.02180584               -0.97553097                1.82084389               -1.82937464               -2.61381600               16.43061133                2.64636783
              14.26415133                3.91286466               48.58452100                0.24147909               -0.49404841                1.05712745               -1.10581834               -0.57105453                8.31032576                1.62632120
              15.26870407                3.55753028               48.38337798                0.73300073                0.45527388               -0.07677483               -2.30744516                0.14120835                0.21643330               -2.41038704
               5.55954912                8.00147587               49.31400260                1.00000000               -0.08069113               -0.25592834                0.65567201               -0.03534192                0.00906022                0.74514893
               6.55874221                7.69044461               49.10632571                0.38247003                0.00335555                0.12613098               -0.15048222               -0.01921937                0.31483407               -0.76305837
               7.55961623                7.37824198               48.90480353                0.00010000                0.59833535                0.57402656               -0.94500848               -0.64977719                7.81962792               -2.51503355
               8.57070892                7.05314108               48.84674942                0.00010000                1.17885902                0.49059686               -1.31277020               -1.22236899               15.71955965                1.52724076
               9.58319341                6.71731637               48.79772460                0.00010000                1.31755721                0.53694853               -1.77058417               -1.71054414               16.97262834                2.49408637
              10.59706006                6.37241016               48.75893610                0.00010000                1.36485089                0.50443877               -2.16918784               -2.07398093               17.97960667                3.37412231
              11.61049043                6.01904659               48.72353632                0.00010000                1.17433353                0.49357854               -2.35388021               -2.40351553               18.51162057                3.97662309
              12.62054673                5.65786935               48.68930950                0.00010000                0.70528362                0.67170366               -2.31482144               -2.51959521               18.71153394                4.04720501
              13.62459610                5.29133707               48.65359779                0.03638033                0.09571766                0.88916914               -2.04990204               -2.13400521               18.51711238                3.34704557
              14.62246108                4.92069541               48.61393008                0.26767082                0.21329507                0.72301257               -1.60494075               -0.66508084                9.26121003                1.28138976
              15.62886200                4.56268249               48.39325688                0.75412964                0.64009194                0.69463528               -2.85598889                0.12576516                0.17089228               -2.33851915
               5.86831858                8.99934112               49.23977759                0.96541196               -0.00621164               -0.17358865                0.40223534               -0.03793333                0.02072136                0.70178760
               6.86825646                8.69200375               49.02482755                0.36820600                0.08171065                0.18508109               -0.38363663                0.01925799                0.15115196               -0.75700138
               7.86995279                8.38432012               48.81245282                0.00010000                0.93965685                0.59716884               -1.15175265               -0.81307219                9.80172461               -2.52758390
               8.88704960                8.05850911               48.78991087                0.00010000                1.80565117                0.45880705               -1.54332823               -1.57139356               19.68170832                0.15554565
               9.90606581                7.72179204               48.76716171                0.00010000                1.94149581                0.30565514               -1.91251589               -1.82172051               20.26196852                1.90858686
              10.92587951                7.37620882               48.74707961                0.00010000                1.93679651                0.23796295               -2.21843768               -1.96650342               20.99336632                2.96350015
              11.94480174                7.02288509               48.72936300                0.00010000                1.75500305                0.26680735               -2.40938347               -2.11615212               21.49900711                3.75362778
              12.96097957                6.66267249               48.71042815                0.00010000                1.41385651                0.34646864               -2.45036126               -2.15201231               21.42046259                4.27787838
              13.97307887                6.29698997               48.68435638                0.05101386                0.92623593                0.41003865               -2.32689437               -1.91371559               20.29989133                4.01821388
              14.97950429                5.92732491               48.63937888                0.28758952                0.70831714                0.68319099               -2.01337329               -0.72293522                9.80034684                1.09561231
              15.98724522                5.57142299               48.40121126                0.76587886                0.77409232                0.93787463               -3.20998000                0.08658139                0.11820218               -2.26443547
               6.17346521                9.99800409               49.16558715                0.95551153                0.06831606               -0.08845547                0.15535647               -0.03487171                0.00525600                0.70198175
               7.17414837                9.69414623               48.94330817                0.40306522                0.16921094                0.23789581               -0.62105756                0.03451724               -0.00811359               -0.72137911
               8.17684943                9.39018536               48.72066407                0.00010000                1.38303812                0.55685124               -1.36027053               -1.07520103               11.53345083               -2.20109516
               9.20180913                9.06231722               48.72855550                0.00010000                2.61049292                0.18066578               -1.72471434               -1.89253170               23.28433314               -0.11828667
              10.22905929                8.72342947               48.73025473                0.00010000                2.74139037               -0.08283722               -2.05867243               -1.76222108               23.53927447                1.27941063
              11.25663694                8.37716942               48.73082214                0.00010000                2.63222169               -0.05076278               -2.33141780               -1.65773184               24.18453504                2.27676851
              12.28170372                8.02438274               48.73239558                0.00010000                2.33823323                0.06105650               -2.53057956               -1.71948281               24.82954322                3.11445841
              13.30340160                7.66479872               48.73352613                0.00010000                1.99828237                0.18068453               -2.66547801               -1.85324686               24.71400234                4.03511260
              14.32166937                7.29953784               48.72282274                0.06726472                1.50838780                0.24225352               -2.68367876               -1.66710455               21.92181811                5.24540439
              15.33356936                6.93435923               48.66306596                0.30449455                1.03640542                0.74082343               -2.36907429               -0.65134807                9.85977769                1.09130439
              16.34239748                6.58143999               48.40838094                0.76979742                0.88281157                1.04457627               -3.50312440                0.06091945                0.09511678               -2.25024002
               6.47533686               10.99757202               49.09148393                0.93252578                0.14286771                0.00233988               -0.09945302               -0.03680691               -0.00506160                0.61717641
               7.47676554               10.69676166               48.86217828                0.45118924                0.24704595                0.28772105               -0.85796630                0.01521380                0.06772004               -0.58714764
               8.48027778               10.39545715               48.63416271                0.00010000                1.95946561                0.52768605               -1.57423443               -1.52748603               13.21631863               -1.34172412
               9.51595485               10.06212242               48.66716544                0.00010000                3.78457051               -0.57976986               -1.92451421               -1.73113642               26.39603328               -0.09461111
              10.55596919                9.72013529               48.68928056                0.00010000                3.79083781               -0.51120557               -2.23712206               -1.23251435               26.48927370                0.67780326
              11.59177161                9.37519357               48.70805415                0.00010000                3.34067982               -0.32118569               -2.49100572               -0.95760609               27.19341975                1.28340850
              12.62278279                9.02410622               48.72815155                0.00010000                2.84939652               -0.08669160               -2.69333413               -1.01072487               28.19847701                1.84500436
              13.64875954                8.66628618               48.75134619                0.00010000                2.36967427                0.15224166               -2.89559065               -1.23534430               29.20562102                2.62152487
              14.67017627                8.30183504               48.77748851                0.09495750                1.79078255                0.44209723               -3.23310368               -1.11687728               23.96644233                4.50460005
              15.68457519                7.94214138               48.68757666                0.33025422                1.20629140                0.80762380               -2.67200319               -0.52880172                9.09070150                1.06022601
              16.69430210                7.59231451               48.41515102                0.76201701                0.97269121                1.13129656               -3.76343911                0.04140715               -0.05298427               -1.83678973
               6.77434977               11.99805089               49.01570052                0.97470564                0.22177374                0.04788745               -0.35267695                0.08626779                0.31356252                0.52983487
               7.77656751               11.69990065               48.78293203                0.77410762                0.32945867                0.31389907               -1.10777986                0.11460693                0.75677272               -0.46915089
               8.78093895               11.40073908               48.55878990                0.46772930                3.29703739                0.52819317               -1.82681428               -2.39282462               14.93591785               -0.74316154
               9.84250826               11.05072182               48.60884382                0.36912050                5.51994535               -1.14005971               -2.17517670               -1.72134500               28.83242157               -0.21468197
              10.89133786               10.71320536               48.64441180                0.35988031                4.55028154               -0.69299312               -2.48400313               -0.46193926               28.81790428                0.21994080
              11.93351389               10.37074571               48.67638472                0.36830360                3.95293770               -0.44478563               -2.72552936               -0.35359407               29.66769422                0.54629603
              12.97039661               10.02264891               48.71064374                0.39383946                3.37260032               -0.14573080               -2.91037403               -0.38372534               31.01833919                0.84766377
              14.00096590                9.66784356               48.75113949                0.44104917                2.65400059                0.15573783               -3.11661618               -0.49282011               32.81518912                1.31382552
              15.02347662                9.30837979               48.80424555                0.56861720                1.57739770                0.65447483               -3.52234302               -0.53655740               26.67924742                2.65700557
              16.03251385                8.95051171               48.71041947                0.68791494                0.97013641                0.83703312               -2.91160644               -0.42182713               10.15629283                0.97683459
              17.04287935                8.60406592               48.43047435                0.87978874                1.03654984                1.17514046               -3.97005938                0.21314577                0.84274938               -1.42850014
               3.79147324                2.11607019               50.75159641                1.00000000               -0.63383726               -0.73081289                2.52443028               -0.18337465               -1.11332223                1.02035909
               4.78513486                1.77519003               50.57098957                1.00000000               -0.53323401               -0.40000060                1.51742054               -0.11697971               -1.51172119                0.17140479
               5.78080856                1.43340192               50.38302294                1.00000000               -0.36695682               -0.08877719                0.56474749               -0.14368974               -1.52091050               -0.21627008
               6.77779573                1.08805467               50.20233915                0.69203194               -0.69256929                0.32548631               -0.37883114               -0.55307382               -0.62246803               -0.88463930
               7.76695717                0.73090487               50.03190013                0.73935247               -0.84045875                0.62829398               -0.92556879               -0.24661575                0.31660299                0.01334545
               8.76098655                0.36399480               49.86982934                0.74794450               -0.50045851                0.79432157               -1.58395811               -0.30800166                0.95661422               -0.05601348
               9.75694800               -0.01325896               49.71400670                0.62988977               -0.55212789                1.19544502               -2.34184411               -0.81588683                2.35701195               -0.35284582
              10.74994399               -0.40937276               49.58323430                0.45493511                0.50649741                1.90335746               -3.18809833               -1.08944557                6.38997371               -0.28535011
              11.76707795               -0.81446248               49.52142867                0.39952652                1.84282330                0.38531125               -2.23452774               -2.22812128                2.96045378                2.05277746
              12.78680046               -1.15278135               49.37032276                1.00000000                1.34502018                0.29735459               -1.54789813               -0.53571385                0.24767405                0.26134137
              13.79397835               -1.47913028               49.20472498                1.00000000                0.71778914                0.62720439               -2.31883597               -0.27022375               -0.43102251               -0.34314961
               4.13051965                3.10876206               50.67672211                1.00000000               -0.52204514               -0.70001234                2.23935861               -0.00574968               -0.27893847                1.35683737
               5.12529920                2.77119002               50.49613711                1.00000000               -0.37901586               -0.36681042                1.22984463                0.05124176               -0.44361493                0.26227351
               6.12293934                2.43251415               50.31281942                1.00000000               -0.08928443               -0.05152570                0.24733016                0.02597427               -0.36670914               -0.36274706
               7.12351351                2.09130953               50.13391482                0.47364244                0.17908048                0.33208373               -0.73607137               -0.49887956                1.06401213               -1.22109611
               8.12652095                1.73718781               49.97913590                0.57795485                0.32374666                0.46545716               -1.43026797               -0.21184554                1.93593238                0.12472202
               9.12998845                1.37193802               49.82186658                0.59979715                0.44759832                0.77617145               -2.25746053               -0.28557108                1.94886352                0.03074175
              10.13547291                0.99869549               49.66933959                0.42187091                0.48314263                1.23871459               -3.29618538               -0.75359340                3.78119094               -0.51473358
              11.13965130                0.60966081               49.54962346                0.18599788               -0.94859409                2.31967120               -4.74935870               -2.57854690               11.34913039               -0.92076049
              12.11650103                0.18939063               49.54887803                0.25470186               -1.29370396               -0.02078959               -4.05003756               -4.62982602               11.05839033                4.77674786
              13.11377722               -0.14980781               49.41217224                1.00000000                0.05620045                0.22364082               -0.84379827               -0.64253274                1.46689862                0.44240880
              14.11762504               -0.47285824               49.24616476                1.00000000                0.38478191                0.54164304               -1.76119966               -0.09139145                0.03449475               -0.34643850
               4.46650233                4.10206995               50.60938645                1.00000000               -0.40947112               -0.63374426                1.91907481               -0.00785264               -0.02294772                1.68657963
               5.46240762                3.76785382               50.42331108                1.00000000               -0.26468984               -0.28641116                0.93553957                0.03246576                0.05651551                0.29098367
               6.46120853                3.43237140               50.23929701                0.81889126                0.03684301                0.04986486               -0.05671011               -0.04893119                0.28440964               -0.78271331
               7.46314448                3.09469634               50.05774150                0.00010000                1.04416228                0.37997915               -1.06124788               -0.89574525                2.91674634               -1.58789600
               8.48209178                2.74021401               49.92586289                0.00010000                1.53114846                0.47525722               -1.97037237               -1.86305050                3.86155790                0.08516349
               9.49376744                2.37951823               49.77235382                0.00010000                1.10307805                0.95522705               -2.91160800               -2.39318099                2.55580789                1.87914121
              10.50415334                2.01151533               49.61650200                0.00010000                0.69552366                1.44927198               -3.93004428               -3.32047663                4.04703125                3.83780411
              11.50767792                1.63702066               49.49185247                0.00010000               -3.51016439                2.25541637               -5.36912997               -8.25249316               17.79601887                6.33986233
              12.43395005                1.18512173               49.60622705                0.17565989               -3.57396222                0.57679119               -0.59025611               -6.59252140               15.37955075                3.51408145
              13.43619867                0.85169146               49.45741418                1.00000000                0.21506655                0.07112838               -0.27149405               -0.57882138                1.13584063                0.53880758
              14.43825138                0.53170258               49.28669418                1.00000000                0.20527061                0.35922583               -1.12744657               -0.07088973                0.03699075               -0.31507324
               4.79879485                5.09608718               50.54173339                1.00000000               -0.31477957               -0.54945201                1.59229251               -0.03406187                0.11212278                1.49078364
               5.79564706                4.76546180               50.34916373                0.90399009               -0.18383333               -0.17876497                0.63824381               -0.01304797                0.27840538                0.04911375
               6.79511819                4.43351144               50.16026407                0.29927825                0.10544724                0.18042583               -0.28379447               -0.14962637                0.96009626               -1.25315854
               7.79775600                4.09890912               49.98100459                0.00010000                0.46599315                0.51052999               -1.33667292               -1.12198481                4.84600854               -1.79365060
               8.80443805                3.74669295               49.86909041                0.00010000                0.65337502                0.85106816               -2.10083543               -2.75756916                8.14995651                1.00393347
               9.81082350                3.39104256               49.75876388                0.00010000                0.35614490                1.20284405               -2.84195868               -3.59786877                8.44274369                3.95136634
              10.81156095                3.02768093               49.65606427                0.00010000               -0.49142295                1.53348624               -3.46097334               -4.73059137               11.04198920                7.42712913
              11.80099505                2.65476914               49.60015665                0.00010000               -2.07905729                1.22999591               -3.15119176               -9.22558831               17.28590861                9.96683645
              12.76997980                2.20092646               49.62407422                0.00010000               -2.26875523                3.53019067               -2.20070669               -4.94900530               13.99037401               -0.75998459
              13.75561994                1.85161476               49.50193618                0.20051019               -0.68973968                1.18404386                0.15009669               -0.00932536                2.78698814                0.26869648
              14.75618501                1.53432628               49.32826254                0.69392004                0.05650692               -0.53292868               -0.56408526                1.49465543                0.17245115               -1.08358121
               5.12707185                6.09108091               50.47093291                1.00000000               -0.23494589               -0.45200955                1.27683336               -0.05626222                0.19652210                1.15893354
               6.12472239                5.76427852               50.27154282                0.57716200               -0.11515822               -0.04698975                0.32594330               -0.05488693                0.43107531               -0.39704703
               7.12476868                5.43597992               50.07706997                0.09594321                0.14004409                0.34622839               -0.58488666               -0.22040215                1.55782380               -1.73670532
               8.12752327                5.10490694               49.89983010                0.00010000                0.50191327                0.53662056               -1.48564236               -1.00882732                7.96414128                0.67527829
               9.13480695                4.75723537               49.83283238                0.00010000                0.66494082                0.96969415               -2.02990454               -1.94660878               12.77887501                2.47203561
              10.14082209                4.40357511               49.75164821                0.00010000                0.55039885                1.10289092               -2.62480200               -2.37727702               12.59698969                4.28451796
              11.14581493                4.04218506               49.68062030                0.00010000                0.45492705                1.08954632               -2.90408994               -3.19540958               14.19680951                5.83274625
              12.14992063                3.66162058               49.63050802                0.00010000               -0.38453018                0.84826832               -2.76301064               -4.54328592               15.60170326                4.97978188
              13.13812432                3.25572554               49.58480480                0.00010000               -2.36541438                4.13608186               -2.12486084               -3.22396108               15.96823695               -0.28778202
              14.10261234                2.87537234               49.54234284                0.19260521               -1.77014380                2.28518840               -0.71016733               -0.73581500                8.24124004                1.33300314
              15.10272145                2.52104401               49.35367518                0.68788966                0.01091058               -0.61052475               -1.64549548                0.69453870                0.51790653               -2.80663155
               5.45127438                7.08704699               50.39695220                1.00000000               -0.16240772               -0.35455913                0.98093292               -0.03878254                0.03444135                0.88044818
               6.44965030                6.76452200               50.18842074                0.43270487               -0.05963306                0.06478170                0.05627362               -0.04072921                0.42821053               -0.70223196
               7.45008172                6.44043601               49.98788947                0.01873242                0.33368504                0.51045831               -0.85129850               -0.40104813                5.05464257               -2.20541304
               8.45632401                6.10964153               49.87144957                0.00010000                0.83779940                0.51541286               -0.96136186               -0.81915475               11.88447156                2.91780085
               9.46683771                5.76608683               49.80468698                0.00010000                1.10021365                0.75640140               -1.99537154               -1.51859183               14.86545374                2.99995391
              10.47832828                5.41310038               49.74499462                0.00010000                1.13847903                0.76464073               -2.45827844               -1.95849047               15.74194414                4.13486099
              11.48960729                5.04947186               49.69181356                0.00010000                0.91302839                0.63325954               -2.66155007               -2.60681112               16.67436313                4.80258771
              12.49658885                4.67173451               49.64620527                0.00010000                0.10707670                0.93869115               -2.54951788               -3.39800865               17.58913988                4.25658336
              13.49174882                4.28364809               49.60690132                0.01772904               -1.05018358                2.09181958               -2.08153163               -2.95866645               18.28698879                3.09052265
              14.47558517                3.89731853               49.57270365                0.22970370               -0.65081869                1.61216861               -1.31893997               -0.61286210                9.49946511                1.41738745
              15.47873245                3.52211578               49.35867503                0.71906469                0.31472749                0.56222615               -2.64185608                0.23442057                0.39566395               -2.77759828
               5.77134617                8.08398972               50.32076801                0.99237840               -0.08273848               -0.26277794                0.70083070               -0.03432701                0.01281267                0.73210243
               6.77051878                7.76557415               50.10462635                0.36766045                0.01410162                0.13695175               -0.19051711               -0.00391167                0.32344305               -0.73344316
               7.77162820                7.44618909               49.89473769                0.00010000                0.74852866                0.60384506               -1.07445023               -0.55234956                8.04552987               -2.43900726
               8.78548935                7.11521520               49.83251251                0.00010000                1.46740331                0.55830167               -1.53610879               -0.97973900               16.12983040                1.47997179
               9.80097626                6.77236340               49.77887601                0.00010000                1.63889502                0.51569277               -2.00844373               -1.44484725               17.40939092                2.79135319
              10.81826725                6.41886793               49.73608894                0.00010000                1.70341550                0.43236133               -2.41034405               -1.83605891               18.58986678                3.76523973
              11.83504457                6.05485025               49.69897586                0.00010000                1.47584840                0.41634103               -2.57269856               -2.26272570               19.41175338                4.39273330
              12.84778422                5.68039440               49.66538234                0.00010000                0.91611995                0.66227087               -2.49450493               -2.55320114               19.94699441                4.39796107
              13.85336697                5.29756193               49.63258274                0.03488404                0.20515924                1.01355450               -2.18603762               -2.36091965               20.10003026                3.50845558
              14.85188741                4.90761571               49.59751778                0.26104193                0.22241854                0.88921196               -1.68672043               -0.77892811               10.19306430                1.18152847
              15.85781534                4.53228853               49.36378360                0.74287674                0.59279371                1.04582575               -2.99363798                0.16496786                0.22273232               -2.28210834
               6.08741898                9.08179143               50.24396568                0.95837410               -0.00462734               -0.17929881                0.43877949               -0.03698704                0.02615966                0.69918346
               7.08737271                8.76726104               50.02073955                0.35511830                0.09873509                0.19947015               -0.43634651                0.03006114                0.16634883               -0.72838059
               8.08939368                8.45251291               49.80028725                0.00010000                1.15911026                0.62557485               -1.28321602               -0.73178614               10.02051437               -2.45071132
               9.11055491                8.12080756               49.77347129                0.00010000                2.24471787                0.44372638               -1.75272830               -1.38591598               20.12003848                0.27701907
              10.13428804                7.77640069               49.74688520                0.00010000                2.42826702                0.22399799               -2.15474177               -1.62403863               20.78561669                2.10456249
              11.15912025                7.42174760               49.72383041                0.00010000                2.42691296                0.11393984               -2.44812487               -1.74814853               21.66477288                3.23019768
              12.18282630                7.05779868               49.70451707                0.00010000                2.18464448                0.14497851               -2.58182938               -1.91930767               22.37857208                4.01535747
              13.20281314                6.68497992               49.68570299                0.00010000                1.72414119                0.28554810               -2.52558088               -2.06245470               22.54718533                4.45904056
              14.21730912                6.30391918               49.66139995                0.05158274                1.12334365                0.44606059               -2.30261830               -2.08044295               21.66922497                4.06997368
              15.22528001                5.91510277               49.61917407                0.28498789                0.76885241                0.74038955               -2.01165662               -0.87792316               10.56462261                1.01867720
              16.23268617                5.54303230               49.36881572                0.75661750                0.74061557                1.06368212               -3.21114188                0.08753315                0.12437012               -2.14343754
               6.39966720               10.08040375               50.16726226                0.94986294                0.07313140               -0.09365306                0.18073763               -0.03536022                0.00431714                0.69860547
               7.40039852                9.76956356               49.93679562                0.38931019                0.18893740                0.25612442               -0.68168489                0.04132467                0.01260388               -0.69547713
               8.40344595                9.45870058               49.70640028                0.00010000                1.67423694                0.59244684               -1.49553760               -1.05551206               11.76671006               -2.13168352
               9.43388326                9.12408973               49.71030152                0.00010000                3.20547482                0.08733397               -1.93667412               -1.80217860               23.74864768                0.00144373
              10.46755545                8.77684336               49.70854234                0.00010000                3.40115183               -0.24851024               -2.29915473               -1.62622266               24.10229611                1.43905765
              11.50190629                8.42114672               49.70652360                0.00010000                3.29353254               -0.24536647               -2.54710150               -1.46703972               24.88391480                2.46089508
              12.53342610                8.05774982               49.70660709                0.00010000                2.92541656               -0.14383663               -2.64870978               -1.49141222               25.68910942                3.28641923
              13.56041463                7.68610537               49.70744573                0.00010000                2.41045859               -0.00160543               -2.57954863               -1.63836837               25.75995745                4.13479338
              14.58163527                7.30648314               49.69787051                0.06882991                1.74006006                0.15344922               -2.34896689               -1.69233393               23.13340441                5.21147972
              15.59521583                6.92242350               49.63948006                0.30537595                1.10358347                0.75324892               -2.31650664               -0.80013881               10.50414615                1.02332193
              16.60370694                6.55356217               49.37346274                0.76222333                0.84911144                1.06115834               -3.41630464                0.05735178                0.08197784               -2.15178648
               6.70839215               11.07991837               50.09055510                0.92475903                0.15102063               -0.00232115               -0.08446957               -0.03805472               -0.00181054                0.60979135
               7.70990236               10.77238353               49.85325112                0.43533577                0.26825563                0.31002615               -0.92818118                0.01780814                0.09478230               -0.56802572
               8.71375727               10.46436185               49.61771933                0.00010000                2.32331006                0.56834450               -1.71838373               -1.60985836               13.45387333               -1.29773432
               9.75636856               10.12255424               49.64689492                0.00010000                4.54746621               -0.78764348               -2.14040284               -1.74068724               26.87504229               -0.01883797
              10.80470659                9.77143049               49.66578975                0.00010000                4.62522181               -0.75330190               -2.47675398               -1.16049673               27.08071312                0.77487542
              11.84887300                9.41684027               49.68221555                0.00010000                4.16664098               -0.58946977               -2.69397401               -0.83173782               27.92121566                1.39163183
              12.88803941                9.05492195               49.70093927                0.00010000                3.62197260               -0.38841913               -2.76472207               -0.85042211               29.06326731                1.94393369
              13.92131245                8.68494782               49.72363763                0.00010000                2.95524473               -0.19231418               -2.66128848               -1.03094500               30.19418603                2.67422650
              14.94714431                8.30698817               49.75004351                0.09680329                2.04428795                0.11991029               -2.30154640               -1.01900401               25.08101735                4.43090014
              15.96219821                7.93016775               49.66097942                0.33561756                1.22057803                0.79754808               -2.60379445               -0.58166997                9.66847348                1.00490827
              16.97155587                7.56425547               49.37790154                0.75672500                0.93576569                1.09990331               -3.61780376                0.04268498               -0.08098437               -1.76199212
               7.01397579               12.08035732               50.01218404                0.97005293                0.23354075                0.04389564               -0.34867298                0.09903929                0.30488715                0.52215065
               8.01631120               11.77576408               49.77145486                0.76548692                0.35511404                0.33805530               -1.18881236                0.12639136                0.76729888               -0.45647885
               9.02107807               11.47006747               49.53974248                0.46489920                3.78448393                0.57056248               -1.98302264               -2.63928051               15.15832701               -0.72022152
              10.09200088               11.10833686               49.58602662                0.36899583                6.44907045               -1.42173806               -2.39716149               -1.85127603               29.31174827               -0.17551426
              11.15005948               10.76177732               49.61843846                0.35997847                5.48895994               -0.96531617               -2.72240035               -0.41368763               29.42593369                0.27167492
              12.20178008               10.40935733               49.64822202                0.36805597                4.91253174               -0.74829460               -2.91817076               -0.29908651               30.43195680                0.60383280
              13.24831012               10.04998144               49.68132670                0.39279357                4.29747147               -0.49405092               -2.95946590               -0.32784181               31.92999951                0.90024640
              14.28772951                9.68225908               49.72148581                0.43549862                3.38625730               -0.26887337               -2.81600899               -0.41329889               33.83257803                1.33346558
              15.31603526                9.30888135               49.77467931                0.57001995                1.92928110                0.18931827               -2.41072722               -0.30513526               27.75521052                2.61750430
              16.32631513                8.93837446               49.68125971                0.69251803                1.01749680                0.82067191               -2.86375061               -0.25436373               10.67534129                0.91436473
              17.33638520                8.57556024               49.39113513                0.87789286                1.00700702                1.13047718               -3.82037081                0.20151057                0.79302830               -1.38575269
               3.96628684                2.20234750               51.77757326                1.00000000               -0.66100447               -0.76893869                2.66081530               -0.20208085               -1.04916020                0.97256420
               4.95967679                1.85314842               51.58640448                1.00000000               -0.54626845               -0.40946317                1.55867650               -0.13451600               -1.41077949                0.16134273
               5.95536147                1.50304003               51.38846715                1.00000000               -0.34844483               -0.06904640                0.51659934               -0.15948597               -1.37393365               -0.21448349
               6.95270789                1.14952649               51.19787889                0.68617984               -0.63594866                0.37266676               -0.52467292               -0.49167694               -0.24244449               -0.86512943
               7.94264249                0.78617321               51.02158815                0.72331639               -0.79793238                0.76001013               -1.19598845               -0.26238236                0.98037178               -0.01096870
               8.93674925                0.41468913               50.85242626                0.71837617               -0.49628786                0.96461204               -2.00321182               -0.30181242                1.71552538               -0.08762930
               9.93271674                0.03317651               50.68830990                0.57674710               -0.71837927                1.43770413               -2.97871777               -0.83004325                3.36383121               -0.30525910
              10.92238166               -0.36762509               50.54786967                0.33587660               -1.68471212                2.42094688               -4.31245014               -2.31883044                8.97006002                0.12539706
              11.89902249               -0.80896042               50.49004368                0.12922770                1.58967358                2.56242088               -3.72076801               -0.21215884                6.16713472                2.50126380
              12.95417513               -1.19555724               50.35404051                1.00000000                3.08190470                0.33285499               -1.62244070               -2.81939256                1.73910607                0.30632005
              13.96066059               -1.52629170               50.18065352                1.00000000                0.64854552                0.66203012               -2.41802951               -0.26852801               -0.18786274               -0.24947586
               4.31346511                3.19465812               51.69978360                1.00000000               -0.54797418               -0.73357424                2.36406046               -0.00913081               -0.25666457                1.29560753
               5.30798537                2.84905379               51.50861150                1.00000000               -0.39437684               -0.37413458                1.25954703                0.05032610               -0.40073184                0.25031776
               6.30557757                2.50234956               51.31501692                1.00000000               -0.08804168               -0.03050489                0.18817080                0.03259448               -0.30457253               -0.35452340
               7.30622454                2.15325316               51.12579117                0.47926175                0.09298879                0.38016976               -0.89189910               -0.36571401                1.29464468               -1.19313261
               8.30743735                1.79377331               50.96390342                0.57297828                0.20024682                0.61789923               -1.66349098               -0.17556845                2.34086178                0.07136414
               9.31022947                1.42433525               50.79794793                0.57575550                0.40680323                0.93674480               -2.59889470               -0.22620778                2.25380294                0.00281078
              10.31557341                1.04755355               50.63436189                0.36880205                0.50161751                1.43643875               -3.78761640               -0.55341920                3.80843031               -0.37314526
              11.32026182                0.65658438               50.49792623                0.06184127               -0.23532174                2.54528790               -5.65826664               -2.76448200               11.61107204               -0.22253613
              12.31086698                0.21666379               50.48551064                0.00010000               -1.78074885                0.47685444               -7.89333313               -6.89038439               15.58900394               10.21169124
              13.28464685               -0.19222869               50.40341056                1.00000000               -1.10786080                0.23424656               -0.92584993               -3.95744976                4.65437665                0.43575758
              14.28870976               -0.51967139               50.22813971                1.00000000                0.40629186                0.56800054               -1.80664025               -0.10074575                0.01425685               -0.23294500
               4.65731288                4.18767602               51.62915454                1.00000000               -0.43210100               -0.65831501                2.02847173               -0.01008733               -0.01155091                1.60795360
               5.65299187                3.84566573               51.43276205                1.00000000               -0.27494427               -0.28971143                0.95087434                0.03661043                0.06803994                0.27526227
               6.65181399                3.50242993               51.23837819                0.82400439                0.04890018                0.06782629               -0.12812950               -0.02626365                0.28820289               -0.73150911
               7.65396987                3.15712988               51.04632064                0.00010000                0.81175201                0.42609326               -1.21789611               -0.67791816                2.99000314               -1.51771419
               8.66804903                2.79853119               50.90553311                0.00010000                1.22374899                0.59349027               -2.13393974               -1.47877650                3.98103282                0.21040539
               9.67844485                2.43342402               50.74211427                0.00010000                1.06750969                0.99002698               -3.17754970               -2.03620822                2.57050662                2.23696760
              10.68939923                2.06190528               50.57519206                0.00010000                0.97684672                1.32832775               -4.40186695               -2.99997910                3.81719283                4.71150423
              11.69798178                1.68328067               50.43526043                0.00010000               -3.96856760                1.73463584               -5.64054229               -9.36852817               20.52268637                8.66707124
              12.61002787                1.20057667               50.59587267                0.14365821               -4.33102317                0.06705042               -3.23245606              -10.88500884               18.94722548                7.32670044
              13.61136132                0.80912769               50.45458176                0.92414342                0.17516044                0.06103057               -0.32501383               -3.25611089                1.91137043                0.45575008
              14.61353108                0.48506832               50.27574593                1.00000000                0.21697609                0.36452282               -1.12369363               -0.07799145                0.05265406               -0.20819565
               4.99728394                5.18149182               51.55813659                1.00000000               -0.33202783               -0.56628516                1.68493723               -0.03435397                0.11911639                1.41909651
               5.99396367                4.84325956               51.35554630                0.87585907               -0.18478985               -0.17844490                0.63666293               -0.00767778                0.30202301                0.02553560
               6.99358815                4.50370609               51.15694940                0.28632372                0.13006221                0.19788364               -0.37926529               -0.12143650                0.93913420               -1.19788044
               7.99656491                4.16177502               50.96680965                0.00010000                0.39897652                0.55569358               -1.50045274               -0.90490064                4.92100995               -1.63800804
               9.00156768                3.80564311               50.84720211                0.00010000                0.47831523                0.89056251               -2.27990632               -2.22478151                8.35720174                1.39416553
              10.00613122                3.44413579               50.72924156                0.00010000                0.20747564                1.12617850               -3.06765712               -3.12845146                8.71383394                4.65837099
              11.00571719                3.07412011               50.62011075                0.00010000               -0.59556702                1.19936664               -3.69242057               -4.46436917               11.84471007                8.70984387
              11.99421988                2.69127709               50.56660420                0.00010000               -1.91987070                0.46947285               -3.61784806               -9.75983577               18.74631471               12.26080783
              12.96731978                2.21800480               50.59539833                0.00010000               -2.95934474                3.28803951               -3.12564360               -7.21422299               17.39373509                0.62498228
              13.93503298                1.80899192               50.50399593                0.15846516               -1.60255454                2.31588854                0.23982181               -1.67933802                4.71701931               -0.65820995
              14.93526869                1.48761906               50.32339589                0.65797089                0.02357059               -0.36977248               -0.48534791                2.33928693                0.23698443               -1.99082534
               5.33309031                6.17635032               51.48408476                1.00000000               -0.24662724               -0.46291309                1.35267218               -0.05381283                0.18014358                1.10744560
               6.33062404                5.84209683               51.27472042                0.55083518               -0.11102542               -0.04533018                0.30805313               -0.04462355                0.43589875               -0.40654859
               7.33086980                5.50638760               51.07069989                0.08376058                0.16553977                0.36787600               -0.69165622               -0.18662003                1.59313469               -1.70406967
               8.33393483                5.16824375               50.88408348                0.00010000                0.51614158                0.62978750               -1.65594295               -0.75733973                8.19334375                1.21988415
               9.34119263                4.81634244               50.81151349                0.00010000                0.67319981                0.96826988               -2.23718867               -1.52770186               13.15522103                2.90868313
              10.34739883                4.45594759               50.72424639                0.00010000                0.58889519                1.01203689               -2.85027161               -1.98896887               13.11416246                4.92916693
              11.35297054                4.08589262               50.65023582                0.00010000                0.57507743                0.82948061               -3.16653230               -2.91934056               15.11145190                6.76441610
              12.35890038                3.69267012               50.60102374                0.00010000               -0.24709760                0.41093368               -3.09233831               -4.67090193               17.08192784                5.98006793
              13.34802858                3.26633746               50.56205382                0.00010000               -2.53700414                3.76171534               -2.43039263               -4.33589978               18.28819252                0.79870594
              14.30816030                2.85544546               50.53283836                0.16944209               -2.24830233                3.85227715               -1.44981913               -1.06653271               10.16949065                0.98724836
              15.30306254                2.47767287               50.33503886                0.66754188               -0.50977567                0.21254135               -2.29908236                0.69303481                1.12959176               -3.87244047
               5.66471466                7.17223356               51.40706623                1.00000000               -0.16807501               -0.36229394                1.04133928               -0.03814058                0.02414004                0.85043258
               6.66303391                6.84235296               51.18883257                0.41298754               -0.05029171                0.06800547                0.02584824               -0.02762978                0.42681803               -0.68162109
               7.66370882                6.51106361               50.97875109                0.00834367                0.42146843                0.53382275               -0.97683281               -0.31056631                5.46813955               -2.14910502
               8.67146328                6.17437077               50.86080765                0.00010000                0.98004883                0.62375182               -1.19877721               -0.54113640               12.26477261                3.24870087
               9.68330980                5.82500851               50.78357630                0.00010000                1.26691930                0.73013869               -2.22930826               -1.16910394               15.07085147                3.35200367
              10.69680166                5.46437653               50.71918250                0.00010000                1.36490252                0.64657872               -2.70882706               -1.64700359               16.37589476                4.60069546
              11.71060785                5.09070972               50.66390970                0.00010000                1.17776659                0.41525679               -2.92255134               -2.42095961               17.64866643                5.35844737
              12.72035700                4.69949577               50.61941995                0.00010000                0.36092952                0.68303644               -2.81431324               -3.52456282               19.00264555                4.83379353
              13.71782644                4.29323910               50.58463901                0.01282826               -0.89950382                2.03350468               -2.39484058               -3.35128143               20.21477558                3.48101094
              14.70236692                3.88603746               50.55814220                0.21560775               -0.65759336                2.12050493               -1.68786563               -0.72040043               10.76684395                1.39723511
              15.70467457                3.49186989               50.33054086                0.70388064                0.23076559                1.46133856               -2.99599424                0.46936595                0.68692406               -2.81144492
               5.99208870                8.16910444               51.32801922                0.98244176               -0.08473082               -0.27015070                0.74977100               -0.03578097                0.01749911                0.72098102
               6.99124139                7.84345694               51.10251536                0.35235658                0.02759834                0.14569548               -0.23257996                0.00937904                0.33117486               -0.70366934
               7.99264066                7.51706406               50.88331452                0.00010000                0.89629080                0.62898514               -1.21120154               -0.44078234                8.27293403               -2.36001336
               9.00916720                7.18071879               50.81602724                0.00010000                1.75820683                0.59448576               -1.76124630               -0.73648544               16.56494271                1.40878020
              10.02780480                6.83094522               50.75755572                0.00010000                1.97951741                0.46042231               -2.26641818               -1.18651962               17.90510703                3.02290244
              11.04875755                6.46887917               50.71072922                0.00010000                2.08136526                0.30007954               -2.67525650               -1.60030120               19.26945928                4.06766108
              12.06943210                6.09419775               50.67208235                0.00010000                1.85610923                0.24256438               -2.82645091               -2.13277832               20.38887647                4.72492014
              13.08587974                5.70633085               50.63941940                0.00010000                1.25145774                0.51470716               -2.72781677               -2.62533960               21.25442166                4.69934929
              14.09446126                5.30700755               50.60987704                0.03325257                0.46208825                0.99312815               -2.39659044               -2.66547182               21.75848336                3.70903766
              15.09512150                4.89785556               50.58019567                0.25315711                0.31618741                0.98493581               -1.80734294               -0.95469335               11.16403022                1.19819729
              16.10078501                4.50689964               50.33338412                0.73072479                0.56635061                1.35026042               -3.05839705                0.19314427                0.30143925               -1.98192094
               6.31529403                9.16683054               51.24855318                0.95124704               -0.00321645               -0.18588301                0.47839654               -0.03656017                0.02701537                0.69850944
               7.31526187                8.84526687               51.01610062                0.34144170                0.11686476                0.21340871               -0.49061314                0.04169087                0.18558208               -0.69768793
               8.31763133                8.52364331               50.78678850                0.00010000                1.37952711                0.65277723               -1.42149039               -0.64846571               10.24716668               -2.36757944
               9.34285241                8.18626049               50.75485630                0.00010000                2.68938512                0.41018391               -1.97705977               -1.19767680               20.56821344                0.37804167
              10.37141903                7.83421696               50.72406688                0.00010000                2.93453459                0.11804286               -2.42238387               -1.44020229               21.34589902                2.24487162
              11.40154310                7.47037812               50.69811712                0.00010000                2.95407859               -0.04384943               -2.71600915               -1.55815084               22.39800950                3.42547157
              12.43050060                7.09556101               50.67772641                0.00010000                2.67486508               -0.02544125               -2.80700693               -1.77282630               23.34205998                4.22262431
              13.45504040                6.70978991               50.65991653                0.00010000                2.12458469                0.16145506               -2.67357965               -2.05008742               23.75983164                4.66456409
              14.47299230                6.31310167               50.63830401                0.05284384                1.41702813                0.40581595               -2.36601270               -2.31059325               23.07464812                4.27368964
              15.48338097                5.90573618               50.59914575                0.28216167                0.87285054                0.75823783               -1.99530812               -1.06440095               11.32095250                1.00284499
              16.49044931                5.51887510               50.33698842                0.74658627                0.70683402                1.12094022               -3.12031585                0.07822434                0.14501349               -1.89015090
               6.63448484               10.16538678               51.16920190                0.94392797                0.07775912               -0.09922381                0.20823607               -0.03543733                0.00501214                0.69567001
               7.63526243                9.84772512               50.92967447                0.37513492                0.20964437                0.27375177               -0.74270626                0.04839560                0.03988398               -0.66513334
               8.63867773                9.53011960               50.69075332                0.00010000                1.96887944                0.62584728               -1.63883206               -1.03612644               12.00708190               -2.06006206
               9.67464002                9.18892247               50.68982202                0.00010000                3.81026963               -0.01199617               -2.16891253               -1.71403330               24.21636259                0.09962904
              10.71488312                8.83330607               50.68427164                0.00010000                4.08052327               -0.42401395               -2.57232693               -1.50382497               24.69287958                1.55599282
              11.75625049                8.46800218               50.67988011                0.00010000                3.98403315               -0.45251688               -2.80655245               -1.30569220               25.64575904                2.59221504
              12.79456378                8.09368893               50.67942138                0.00010000                3.55434198               -0.36478640               -2.82313747               -1.31583867               26.67198029                3.42970884
              13.82733733                7.70955995               50.68193516                0.00010000                2.88696693               -0.20296438               -2.57328201               -1.50332239               26.97804075                4.31217230
              14.85230312                7.31512387               50.67584341                0.07229599                2.03613621                0.02712876               -2.12145626               -1.75385528               24.29920546                5.56592597
              15.86806005                6.91302032               50.61673583                0.30696992                1.18842680                0.73618564               -2.22171008               -0.95498832               11.00574811                0.98115605
              16.87607166                6.52931844               50.34005485                0.75419139                0.80116083                1.02635932               -3.23135493                0.04925613                0.08039346               -1.96568616
               6.94990861               11.16484607               51.08979454                0.91662795                0.15883434               -0.00753750               -0.06608053               -0.03936499                0.00183614                0.60404254
               7.95149696               10.85074190               50.84361466                0.41856973                0.29014170                0.33192381               -0.99917476                0.02034051                0.12738657               -0.54758526
               8.95571145               10.53616026               50.59979503                0.00010000                2.69441597                0.60843748               -1.86832971               -1.69326670               13.70084143               -1.25312694
              10.00538527               10.18602056               50.62435738                0.00010000                5.32756872               -0.99871597               -2.37799204               -1.75081783               27.35845446                0.04632396
              11.06226282                9.82573668               50.63974548                0.00010000                5.48305649               -0.99823151               -2.74985306               -1.09573923               27.69786379                0.84781566
              12.11504640                9.46132778               50.65417467                0.00010000                5.01816184               -0.85963789               -2.93842778               -0.72285516               28.71754626                1.46915358
              13.16262606                9.08826528               50.67285711                0.00010000                4.42463047               -0.69049783               -2.88390232               -0.72140642               30.09387715                2.02765190
              14.20353901                8.70573062               50.69812042                0.00010000                3.59143846               -0.53717240               -2.49629695               -0.88467583               31.58944891                2.79535674
              15.23445483                8.31364424               50.73145758                0.10247380                2.32738083               -0.18328001               -1.51207553               -0.93834586               26.05757206                4.72389452
              16.25008663                7.92045989               50.63550077                0.34281249                1.21916775                0.76090579               -2.47159309               -0.63685752                9.80817353                0.94742189
              17.25883818                7.53940228               50.34279494                0.75127441                0.87515510                1.02826188               -3.36917569                0.04010966               -0.09174574               -1.62789844
               7.26190587               12.16523603               51.00872706                0.96500958                0.24491810                0.03899621               -0.34052644                0.11248211                0.29672884                0.51567486
               8.26435505               11.85436359               50.75915578                0.75581071                0.38139333                0.36216891               -1.27056494                0.13842577                0.78478176               -0.44382709
               9.26953374               11.54228835               50.51912945                0.46223863                4.28460973                0.61280942               -2.14101640               -2.88854310               15.39406609               -0.69578332
              10.35004724               11.16894815               50.56090059                0.36893726                7.40636925               -1.70724125               -2.63643601               -1.98114846               29.80614990               -0.13314799
              11.41766112               10.81334144               50.58996379                0.36004320                6.46087706               -1.23952359               -2.98627931               -0.36710631               30.07302615                0.32000166
              12.47926479               10.45080942               50.61802131                0.36783439                5.90358464               -1.05183567               -3.14025286               -0.25128543               31.27405326                0.65651002
              13.53573281               10.07987897               50.65145442                0.39177994                5.25000303               -0.83863062               -3.03900580               -0.28897025               33.02270493                0.96029130
              14.58426485                9.69881650               50.69481931                0.43160614                4.15370609               -0.69141176               -2.56307761               -0.34845174               35.31050395                1.42059000
              15.61880694                9.31145827               50.75603100                0.57385791                2.26500062               -0.21859708               -1.43273625               -0.09369267               28.62806294                2.82212414
              16.62956486                8.92823843               50.65314445                0.69826872                1.00910680                0.77785400               -2.72280113               -0.13090674               10.62417253                0.84380546
              17.63898907                8.54988368               50.35406693                0.87596406                0.94242124                1.04813953               -3.54804556                0.17961361                0.74334795               -1.29057373
               4.15282759                2.29110080               52.80481271                1.00000000               -0.68022037               -0.80078655                2.77456136               -0.21949940               -0.98010999                0.92292407
               5.14602538                1.93400284               52.60216310                1.00000000               -0.54860582               -0.41640298                1.58556915               -0.15181811               -1.30347516                0.15127445
               6.14185547                1.57601272               52.39335492                1.00000000               -0.30997728               -0.05000728                0.45525890               -0.17249030               -1.22726781               -0.20950284
               7.13982584                1.21492754               52.19184569                0.68015464               -0.49191153                0.40776015               -0.68675561               -0.42848055                0.08913156               -0.84141520
               8.13201724                0.84605496               52.00798036                0.70562950               -0.56252649                0.86151720               -1.56303398               -0.27001448                1.52113852               -0.01029649
               9.12857531                0.47119888               51.82976510                0.68407489               -0.16180151                1.11073437               -2.58161827               -0.27308219                2.25140750               -0.10975058
              10.12878121                0.08853188               51.65443234                0.51589163               -0.04819443                1.58185490               -3.85162037               -0.62064049                3.76365174               -0.28772546
              11.12761142               -0.30697794               51.49698529                0.21317323               -2.22657025                2.47972752               -5.64971567               -2.88389253               10.93193428                0.30390432
              12.08424981               -0.75537113               51.44701331                0.00010000                0.16806615                4.31665893               -5.17756070               -3.06615691               11.35333228               -0.65429161
              13.13097274               -1.24539504               51.33787394                1.00000000                2.63726417                0.37611374               -1.67108487               -7.85975802                3.48144574                0.29059411
              14.13699509               -1.57909218               51.15636439                1.00000000                0.60223461                0.64826264               -2.40841596               -0.22403510               -0.11983695               -0.24787330
               4.50773055                3.28309294               52.72400332                1.00000000               -0.56793068               -0.76123916                2.46867238               -0.01397726               -0.23000726                1.23273916
               5.50205125                2.92983881               52.52132805                1.00000000               -0.40311658               -0.37892868                1.27774963                0.04695429               -0.35030633                0.23752699
               6.49966822                2.57551264               52.31658283                1.00000000               -0.07656683               -0.01019897                0.12192898                0.03624244               -0.23620261               -0.34503206
               7.50051991                2.21900514               52.11607684                0.48380257                0.07566006                0.41980212               -1.04980359               -0.24393645                1.51634041               -1.15810792
               8.50118142                1.85467013               51.94586608                0.56280491                0.20430596                0.75342295               -1.97412687               -0.13986752                2.74177121                0.04529052
               9.50460603                1.48230623               51.76988869                0.54358307                0.52408959                1.08825336               -3.04754791               -0.16881985                2.54594399               -0.04328708
              10.51166321                1.10435043               51.59358727                0.30822960                0.80589839                1.57323412               -4.37688678               -0.29585311                3.69707285               -0.38720883
              11.52072400                0.71781934               51.43645812                0.00010000                0.55667866                2.43310302               -6.26686902               -2.33576733               10.62059997                0.38887222
              12.52279679                0.28779546               51.39101137                0.00010000               -2.82441549               -1.14304111               -6.62032157              -12.50649099               18.39835090                9.77035764
              13.46423569               -0.24163390               51.39365524                1.00000000               -2.71724559                0.28080636               -1.02146592               -9.84124654                9.30304061                0.41869175
              14.46845188               -0.57260955               51.21003196                1.00000000                0.42161889                0.56873308               -1.81714323               -0.09851364                0.01400336               -0.21533825
               4.85905629                4.27587602               52.64995588                1.00000000               -0.45115261               -0.67770248                2.12336780               -0.01381379                0.00426723                1.52645114
               5.85454476                3.92642427               52.44232856                1.00000000               -0.28211474               -0.29123374                0.95846009                0.03780902                0.08903897                0.25623133
               6.85341400                3.57580874               52.23673442                0.82353763                0.06224271                0.08597431               -0.20128353               -0.00656965                0.30883350               -0.68853305
               7.85578962                3.22332358               52.03338357                0.00010000                0.62524033                0.46904880               -1.36669792               -0.46408668                3.10178378               -1.44820182
               8.86591880                2.86112342               51.88318410                0.00010000                0.98645004                0.69628746               -2.36408224               -1.11954389                4.22504452                0.32096974
               9.87551862                2.49296395               51.70880283                0.00010000                1.07161163                0.98858163               -3.50979119               -1.67706741                2.67285819                2.52558761
              10.88735103                2.11999656               51.52846466                0.00010000                1.09662090                1.12418123               -4.87359587               -2.59252616                4.00327074                5.45064989
              11.89745104                1.74168412               51.37904163                0.00010000               -4.68889041                0.82013222               -5.42176136              -10.91593688               21.10822296               10.52421586
              12.79357323                1.22176805               51.54157793                0.11534141               -5.14491068               -2.02752538               -5.45669784              -16.18985275               23.60062609               10.30518748
              13.79455282                0.76022109               51.45091390                0.81043631                0.17014438                0.09139317               -0.40662694               -6.58792449                4.87264098                0.45916595
              14.79697611                0.43228248               51.26422030                1.00000000                0.24232904                0.39131989               -1.20318361               -0.11021508                0.09035148               -0.17562160
               5.20635778                5.26953889               52.57543214                1.00000000               -0.34830675               -0.57879197                1.76828911               -0.03511945                0.13005987                1.34349556
               6.20287471                4.92401414               52.36189699                0.84590226               -0.18601292               -0.17814988                0.63196395               -0.00131470                0.33112094               -0.00348727
               7.20263752                4.57723213               52.15267877                0.27205638                0.15243909                0.21440504               -0.47502091               -0.08868518                0.93720686               -1.15371593
               8.20592349                4.22838611               51.95099553                0.00010000                0.32563276                0.59915224               -1.66205806               -0.69246557                5.05304395               -1.48664407
               9.20915017                3.86859588               51.82349229                0.00010000                0.31340252                0.89557163               -2.47563400               -1.72392975                8.66308476                1.69469524
              10.21219154                3.50207786               51.69741074                0.00010000                0.09711708                0.96267794               -3.30833024               -2.64487267                9.15848686                5.23548080
              11.21109252                3.12683405               51.58221586                0.00010000               -0.57788869                0.68389380               -3.89501048               -4.19701485               12.72949946                9.85732349
              12.20063377                2.73422198               51.52779969                0.00010000               -1.53148735               -0.66389699               -4.02119797               -9.86494718               20.42375296               13.67778535
              13.18046277                2.24724495               51.56156135                0.00010000               -3.93355030                3.03454646               -4.21274901               -9.77638464               20.73143470                2.31319125
              14.12196276                1.76019396               51.50673262                0.11757872               -2.91689936                4.03749738                0.29724473               -3.67819065                6.97674516               -2.07262569
              15.12212478                1.43521685               51.31855558                0.62913815                0.01620194                0.20838727               -0.52598700                3.69909691                0.31048925               -3.40285055
               5.54940340                6.26430018               52.49798635                1.00000000               -0.25781709               -0.47088538                1.42333308               -0.05055477                0.16528005                1.05094059
               6.54682523                5.92286127               52.27770388                0.52730036               -0.10675417               -0.04597521                0.28870894               -0.02881258                0.44636773               -0.41987672
               7.54726832                5.58009684               52.06323685                0.07138557                0.18756622                0.38035768               -0.80215462               -0.13613687                1.65506082               -1.68048348
               8.55057655                5.23530662               51.86671124                0.00010000                0.52400731                0.71428349               -1.81283150               -0.50956113                8.46866370                1.71332157
               9.55774846                4.87903485               51.78808861                0.00010000                0.69032227                0.92443948               -2.45526331               -1.11797011               13.61425177                3.23195365
              10.56438300                4.51221751               51.69464277                0.00010000                0.67590750                0.82767962               -3.08164022               -1.60195958               13.74344239                5.40221442
              11.57126661                4.13367443               51.61728966                0.00010000                0.76790958                0.39801165               -3.42603971               -2.62803345               16.17267486                7.37443449
              12.57974119                3.72840618               51.56866126                0.00010000                0.04034716               -0.21036345               -3.41752515               -4.79683864               18.69531039                6.63088390
              13.57207356                3.28245898               51.53619695                0.00010000               -2.33620365                2.91000678               -2.71689818               -5.52879183               20.41774491                1.36473071
              14.53301712                2.84097104               51.51334646                0.14449980               -2.55806372                5.88559792               -2.72429682               -1.14756548               12.08527079                0.03226302
              15.52091228                2.43645023               51.30769353                0.64909714               -1.21048357                1.61623896               -3.20546735                0.82536133                2.15936039               -5.07054648
               5.88822450                7.26012118               52.41777899                1.00000000               -0.17226975               -0.36888941                1.09811775               -0.03763211                0.01657588                0.81704377
               6.88650180                6.92309463               52.18893770                0.39498430               -0.03775344                0.06857253               -0.00497319               -0.01300775                0.42618150               -0.66134900
               7.88746943                6.58483928               51.96835281                0.00010000                0.51462260                0.54272892               -1.09946109               -0.20580822                5.85422329               -2.09790007
               8.89679425                6.24267178               51.84747402                0.00010000                1.12052287                0.70177677               -1.48657583               -0.28920780               12.66170475                3.51189746
               9.90987989                5.88708467               51.76010082                0.00010000                1.43592576                0.66480095               -2.47259282               -0.87061863               15.36766207                3.59065004
              10.92551277                5.51863145               51.69081808                0.00010000                1.62316415                0.45345131               -2.97712483               -1.37717874               17.08966095                4.88623400
              11.94234317                5.13479428               51.63336254                0.00010000                1.51998414                0.09287528               -3.21124260               -2.28757128               18.70793835                5.67603895
              12.95591245                4.73001471               51.58991901                0.00010000                0.74894554                0.27393129               -3.11962864               -3.70062114               20.46246360                5.11063047
              13.95732208                4.30544509               51.55900451                0.00613551               -0.54461252                1.78093510               -2.81684172               -3.82109878               22.07853057                3.54498837
              14.94502020                3.87790592               51.53894633                0.19836129               -0.48242307                2.48025369               -2.30095895               -0.96298222               11.99331962                1.55835241
              15.94767362                3.46754163               51.29875515                0.68858346                0.26534186                2.48761600               -3.36925324                0.79131790                1.04471057               -2.54809616
               6.22270385                8.25692239               52.33576343                0.97307444               -0.08568779               -0.27711238                0.79592886               -0.03697109                0.02125450                0.70963085
               7.22184697                7.92423272               52.09997475                0.33795869                0.04355766                0.15267691               -0.27493068                0.01881260                0.33734685               -0.67241943
               8.22357500                7.59095142               51.87051366                0.00010000                1.03500181                0.64416222               -1.34617278               -0.33893313                8.49882347               -2.27971658
               9.24254701                7.24934216               51.79728759                0.00010000                2.04007100                0.59509146               -1.98781752               -0.53869976               17.01220819                1.31542616
              10.26437642                6.89233087               51.73354765                0.00010000                2.32914029                0.37487657               -2.54725559               -0.99951554               18.43826209                3.14633918
              11.28912981                6.52128653               51.68258381                0.00010000                2.48777503                0.12373457               -2.97493302               -1.44453988               19.99962762                4.21999032
              12.31413192                6.13553194               51.64244684                0.00010000                2.29740738                0.00589242               -3.13469372               -2.09384047               21.41256669                4.87973582
              13.33507796                5.73388481               51.61082600                0.00010000                1.68142258                0.28703658               -3.04248218               -2.79672673               22.58404400                4.82425732
              14.34776038                5.31807768               51.58465093                0.03010748                0.82914873                0.89907609               -2.71069932               -3.05289605               23.43768136                3.81114825
              15.35166094                4.89057611               51.56137093                0.24240055                0.48534261                1.03567910               -2.01593728               -1.19403383               12.15263885                1.32266273
              16.35746723                4.48620255               51.30261566                0.71747017                0.58062913                1.55084633               -3.10005458                0.17401818                0.40921919               -1.55019374
               6.55286442                9.25457893               52.25353361                0.94423764               -0.00153865               -0.19233036                0.51570546               -0.03715328                0.02527925                0.69863107
               7.55284903                8.92614817               52.01092728                0.32822041                0.13584573                0.22570612               -0.54199300                0.04707008                0.20398213               -0.66417092
               8.55558133                8.59772253               51.77185744                0.00010000                1.58958861                0.67706958               -1.56378177               -0.58547610               10.47462109               -2.28318301
               9.58464080                8.25457361               51.73393010                0.00010000                3.11819352                0.36195362               -2.21486073               -1.04975719               21.01480091                0.43405324
              10.61794520                7.89458220               51.69843752                0.00010000                3.43900504               -0.00231285               -2.71936013               -1.32444729               21.92205559                2.29764377
              11.65342090                7.52110614               51.66951023                0.00010000                3.49614418               -0.21765329               -3.03366436               -1.45640769               23.16541761                3.50415338
              12.68786809                7.13491213               51.64837693                0.00010000                3.20056370               -0.21593199               -3.10611235               -1.73359809               24.35137990                4.31844780
              13.71743218                6.73575545               51.63223140                0.00010000                2.58523882                0.01300549               -2.92195869               -2.15050325               25.00905764                4.82266389
              14.73957286                6.32342661               51.61407969                0.05353083                1.77912394                0.32852073               -2.55086367               -2.60388045               24.50992938                4.54987661
              15.75301466                5.89861950               51.57926791                0.27748717                1.01641207                0.75577470               -2.00287147               -1.27048230               12.09425103                1.02729499
              16.75990110                5.49855855               51.30640941                0.73549581                0.68864471                1.11196885               -2.99281514                0.05438267                0.18243098               -1.58897385
               6.87882230               10.25307579               52.17142698                0.93782316                0.08224750               -0.10524384                0.23715439               -0.03668278                0.00591249                0.69461964
               7.87964478                9.92874685               51.92194149                0.36107865                0.23088683                0.29011682               -0.80275398                0.05087962                0.06874032               -0.63289252
               8.88344004                9.60449281               51.67362363                0.00010000                2.25237042                0.66003262               -1.78626256               -1.03577833               12.24624923               -1.98593832
               9.92469219                9.25658123               51.66692327                0.00010000                4.39574536               -0.10857302               -2.42118168               -1.66308940               24.67332659                0.15988094
              10.97135495                8.89228462               51.65709580                0.00010000                4.74897725               -0.59437798               -2.88323827               -1.43731957               25.29107840                1.60570630
              12.01967173                8.51693347               51.65039255                0.00010000                4.67278551               -0.65119966               -3.12407424               -1.21899629               26.44498806                2.64220132
              13.06481066                8.13121330               51.65014434                0.00010000                4.19408419               -0.57350922               -3.08057982               -1.23427138               27.73922601                3.51368021
              14.10355342                7.73414492               51.65598009                0.00010000                3.40040262               -0.38923221               -2.68582044               -1.47482111               28.31043639                4.52521840
              15.13281871                7.32464810               51.65544139                0.07631973                2.37829659               -0.10740754               -2.05465238               -1.85553915               25.43411450                6.22955589
              16.15111935                6.90569160               51.59504586                0.30768450                1.29290344                0.70440294               -2.12769338               -1.10982537               11.42167807                0.94364701
              17.15867678                6.50844193               51.30883564                0.74516741                0.75574309                0.95634290               -3.00812337                0.03660771                0.09173990               -1.75325071
               7.20078864               11.25247406               52.08923349                0.90828521                0.16609593               -0.01349999               -0.04482897               -0.04082371                0.00541314                0.60070771
               8.20244960               10.93195051               51.83326763                0.40085702                0.31213686                0.35292245               -1.06930807                0.02043945                0.16504370               -0.52708809
               9.20703138               10.61092318               51.58035274                0.00010000                3.05688032                0.64950854               -2.02237065               -1.78869040               13.94979463               -1.20774253
              10.26358721               10.25240215               51.59933508                0.00010000                6.09075974               -1.19968750               -2.63734089               -1.78155961               27.83034303                0.09186885
              11.32884657                9.88269464               51.61079269                0.00010000                6.32625424               -1.22719445               -3.06272194               -1.06378349               28.32481878                0.88361717
              12.39011229                9.50808215               51.62344700                0.00010000                5.85623163               -1.10696079               -3.24107942               -0.65769577               29.56496338                1.50150385
              13.44597121                9.12344195               51.64326122                0.00010000                5.21943342               -0.96103286               -3.08392081               -0.64778955               31.25737026                2.08439593
              14.49450096                8.72797080               51.67371169                0.00010000                4.24720947               -0.84359091               -2.45857374               -0.81769508               33.30910960                2.96501652
              15.53091540                8.32127846               51.71980200                0.11031873                2.62616784               -0.42355566               -0.95923608               -0.89052878               26.91623181                5.30378199
              16.54702432                7.91270756               51.61154756                0.34998878                1.21086076                0.71358018               -2.32720499               -0.69748753                9.61299787                0.88066694
              17.55513261                7.51768541               51.31051802                0.74479411                0.81082936                0.93814254               -3.08686626                0.03430584               -0.08362320               -1.47474120
               7.51905292               12.25280579               52.00537351                0.95974482                0.25515211                0.03317291               -0.32789563                0.12637911                0.28949322                0.51110074
               8.52160444               11.93580529               51.74604356                0.74551538                0.40808329                0.38547848               -1.35059390                0.14934406                0.80993209               -0.43167095
               9.52721459               11.61748298               51.49692215                0.45967197                4.78425430                0.65597985               -2.30440061               -3.14256955               15.64137222               -0.67427302
              10.61728953               11.23258748               51.53329790                0.36878347                8.35923462               -1.98146713               -2.89245487               -2.11688024               30.30618351               -0.09028922
              11.69439928               10.86774073               51.55871287                0.36015441                7.42404920               -1.49539185               -3.28289265               -0.33439061               30.75044548                0.35918695
              12.76577052               10.49479425               51.58541697                0.36759155                6.87834663               -1.32878964               -3.40990399               -0.22158184               32.18516283                0.69800418
              13.83196621               10.11199264               51.62054658                0.39073626                6.17962434               -1.14493034               -3.18508769               -0.27655672               34.27346281                1.02271024
              14.88936300                9.71727310               51.67022426                0.42898573                4.91525808               -1.06977001               -2.42156762               -0.30457894               37.15547998                1.56859445
              15.93027138                9.31617698               51.74602459                0.57917609                2.56998229               -0.51014782               -0.74618826                0.07010330               29.31798845                3.17437719
              16.94076265                8.91996321               51.62680368                0.70406021                0.95679101                0.72556463               -2.54407409               -0.07477722               10.15152710                0.77203433
              17.94940720                8.52720478               51.32017422                0.87340288                0.86445488                0.95193668               -3.22621950                0.15161558                0.70758081               -1.16876036
               4.35198387                2.38242477               53.83306449                1.00000000               -0.69187868               -0.82550378                2.86242084               -0.23491037               -0.91260466                0.87530394
               5.34506508                2.01784402               53.61811587                1.00000000               -0.54251717               -0.42051520                1.59821188               -0.16806589               -1.20100092                0.14219369
               6.34113352                1.65239415               53.39757233                1.00000000               -0.25999958               -0.03247220                0.38634237               -0.18328638               -1.10016525               -0.20133147
               7.33986509                1.28423588               53.18414378                0.67508129               -0.29938371                0.43172309               -0.84905350               -0.36961389                0.31000411               -0.81457027
               8.33514585                0.91019585               52.99032747                0.68668544               -0.22698353                0.92795382               -1.95828340               -0.26793857                1.80299192                0.00770974
               9.33532542                0.53224695               52.80079390                0.64909433                0.28118665                1.21848312               -3.17937320               -0.24401046                2.35984884               -0.12069470
              10.34076958                0.14911215               52.61127749                0.45618065                0.65569781                1.66649075               -4.64411157               -0.41939541                3.45785717               -0.30443045
              11.34843937               -0.24049267               52.43487536                0.09991037               -2.77845460                2.27981531               -6.30580975               -4.27669137               11.15789154                0.28037629
              12.28520049               -0.71004237               52.38649246                0.00010000               -1.69931983                2.75486883               -7.31478839               -9.39712556               13.34425513               -5.39285265
              13.31445298               -1.30130796               52.32061881                0.94523908                1.80412369                0.44131419               -2.03987577              -12.70368717                5.90220742                0.25880996
              14.32128296               -1.63858430               52.13248520                1.00000000                0.68299867                0.67502225               -2.68658165               -0.23229065               -0.01496893               -0.46627735
               4.71421552                3.37416973               53.74915704                1.00000000               -0.58157865               -0.78242732                2.54993836               -0.01963736               -0.20190919                1.17289618
               5.70839973                3.01363886               53.53416649                1.00000000               -0.40553945               -0.38113006                1.28437609                0.04143629               -0.29873290                0.22540229
               6.70610473                2.65206943               53.31745550                1.00000000               -0.05658149                0.00845925                0.05211130                0.03581861               -0.17210062               -0.33368209
               7.70726810                2.28855311               53.10479510                0.48666082                0.11780996                0.45056370               -1.20107202               -0.14516318                1.67674451               -1.11567988
               8.70846093                1.91947539               52.92442088                0.54830007                0.30795304                0.85642649               -2.30735063               -0.10682553                3.01037594                0.05025435
               9.71342716                1.54443178               52.73699697                0.51017756                0.72422540                1.20833873               -3.51165741               -0.12011479                2.68138383               -0.08855654
              10.72294544                1.16577706               52.54682416                0.25271766                1.09112777                1.65887705               -4.89783003               -0.18350163                3.56431849               -0.46215252
              11.73524972                0.78230549               52.37258885                0.00010000               -0.06542784                2.14580421               -6.25717033               -4.48385693               12.33496980                0.89416322
              12.72163688                0.31750632               52.35310421                0.00010000               -4.17813222               -2.69135991               -2.29965232              -17.71163350               20.57958043                2.00336686
              13.65168707               -0.29689481               52.38298124                1.00000000               -3.27002379                0.32707951               -1.17423755              -13.88108048               11.03574916                0.42810893
              14.65623640               -0.63183408               52.19179684                1.00000000                0.45493301                0.58082786               -1.92057712               -0.12180957                0.05084572               -0.34328253
               5.07265286                4.36677622               53.67162189                1.00000000               -0.46587470               -0.69192389                2.19979619               -0.01848443                0.02312378                1.44736862
               6.06799411                4.01022142               53.45193125                1.00000000               -0.28586032               -0.29121831                0.95846896                0.03634189                0.11648132                0.23651466
               7.06693565                3.65256334               53.23435252                0.81856572                0.07808790                0.10299569               -0.27403237                0.00773736                0.34043683               -0.65375080
               8.06955587                3.29324715               53.01898668                0.00010000                0.50975082                0.50806819               -1.51087884               -0.28473947                3.20616583               -1.38387153
               9.07713067                2.92732438               52.85825146                0.00010000                0.85327911                0.75785610               -2.62012079               -0.84400938                4.44874379                0.44336241
              10.08662145                2.55641372               52.67191844                0.00010000                1.10475880                0.92868396               -3.86373771               -1.39422340                2.79783645                2.77891463
              11.09922584                2.18228969               52.47772015                0.00010000                1.02057592                0.83322607               -5.23460260               -2.35087546                4.66042470                6.06754840
              12.10703297                1.80242342               52.32682520                0.00010000               -4.45288614               -0.35461586               -4.95175126              -12.90297655               22.14676175               11.46642109
              13.01016812                1.23613044               52.48673872                0.09084849               -6.04306001               -2.39283590               -5.73896002              -20.79055602               28.40896493                8.38273121
              13.98617177                0.70523363               52.44644922                0.72306684               -1.07214087                0.10008312               -0.44185040               -9.86057995                7.83031055                0.51016141
              14.98872530                0.37303226               52.25168226                1.00000000                0.25535343                0.39614516               -1.23836529               -0.14033106                0.11262091               -0.24388153
               5.42695545                5.36033126               53.59350238                1.00000000               -0.36159902               -0.58769721                1.83798695               -0.03627561                0.14542918                1.26762564
               6.42333946                5.00781450               53.36818558                0.82011552               -0.18608546               -0.17814177                0.62353528                0.00524387                0.36351241               -0.03537514
               7.42323374                4.65412934               53.14744899                0.25724907                0.17364066                0.22702772               -0.56712366               -0.05360086                0.94839181               -1.12359688
               8.42681227                4.29871447               52.93356849                0.00010000                0.25902149                0.63922713               -1.82080386               -0.52981785                5.22063088               -1.34396791
               9.42841417                3.93463251               52.79768943                0.00010000                0.18825549                0.85243028               -2.69596636               -1.36467724                9.02725104                1.93609395
              10.43057738                3.56300546               52.66307496                0.00010000                0.07520320                0.70854091               -3.57513075               -2.28728758                9.72594740                5.70600578
              11.42991823                3.18244158               52.54221055                0.00010000               -0.36139701               -0.00275297               -4.10233005               -4.23062909               13.76472532               10.72749324
              12.42334944                2.77521317               52.48618024                0.00010000               -1.34513454               -1.96274686               -4.26161102              -10.29628252               21.51496258               14.07350987
              13.40301554                2.26964960               52.51114335                0.00010000               -5.28878932                3.00292419               -5.22309354              -13.42880801               24.02734858                2.75325811
              14.31757365                1.70510685               52.50994083                0.08507604               -4.25915011                5.93216854                0.33544419               -5.06817094               10.10461816               -4.26673963
              15.31783254                1.37608882               52.31287615                0.61122854                0.02588854                1.15150568               -0.60175915                5.53971244                0.32960571               -5.34359692
               5.77696086                6.35502228               53.51255142                1.00000000               -0.26599587               -0.47669501                1.48356679               -0.04770530                0.15341995                0.99131488
               6.77430090                6.00665858               53.28049460                0.50841247               -0.09986002               -0.04796952                0.26949973               -0.01370668                0.45794331               -0.43673593
               7.77496366                5.65710389               53.05465680                0.05930345                0.20777230                0.38497259               -0.90487576               -0.08018268                1.74038375               -1.66431262
               8.77845635                5.30603170               52.84782685                0.00010000                0.52912383                0.76589490               -1.95117481               -0.32969073                8.77692323                2.12368673
               9.78554614                4.94437298               52.76240822                0.00010000                0.73051408                0.83649822               -2.68405849               -0.82711668               14.11945775                3.44675334
              10.79306663                4.57058454               52.66261358                0.00010000                0.84297080                0.55773522               -3.33752421               -1.36912826               14.45966841                5.68588149
              11.80240555                4.18223463               52.58171503                0.00010000                1.04163319               -0.16841308               -3.70671432               -2.58343012               17.28802677                7.63015396
              12.81389929                3.76316848               52.53267324                0.00010000                0.46463646               -0.78347697               -3.79457793               -5.27154271               20.39545730                6.74267428
              13.81169828                3.29618892               52.50771586                0.00010000               -1.77650809                2.30176440               -3.15956494               -6.59686448               21.93005415                1.80483856
              14.77836913                2.82387701               52.47835242                0.12122276               -2.70713399                8.20365981               -4.21324068               -0.76087682               13.38500411               -2.20670193
              15.75755560                2.39606237               52.27092951                0.63595417               -2.08135290                3.49485043               -4.00580527                1.62446715                3.41856385               -7.04876193
               6.12272874                7.35079736               53.42902859                1.00000000               -0.17450285               -0.37399236                1.14488864               -0.03771037                0.01138327                0.78041071
               7.12098371                7.00685511               53.18873311                0.37976538               -0.02358864                0.06801966               -0.03486277               -0.00156841                0.42643937               -0.64189781
               8.12225697                6.66182879               52.95676187                0.00010000                0.59828247                0.54306052               -1.21023965               -0.12410515                6.18563972               -2.04777157
               9.13294936                6.31403237               52.83107614                0.00010000                1.25310087                0.72697721               -1.78975281               -0.12726447               13.05136949                3.68267057
              10.14731899                5.95136247               52.73412444                0.00010000                1.61919016                0.55811568               -2.72801973               -0.70722639               15.74452882                3.69967139
              11.16533317                5.57416016               52.65964001                0.00010000                1.91733519                0.20011426               -3.27513699               -1.27524341               17.84186833                4.96522902
              12.18566569                5.17907332               52.59968485                0.00010000                1.93155649               -0.27282783               -3.55785857               -2.37904172               19.80034477                5.69536179
              13.20396430                4.75954363               52.55702738                0.00010000                1.23520178               -0.13324376               -3.52682991               -4.09655953               21.85463020                5.02296587
              14.21036973                4.31568489               52.52830217                0.00010000               -0.07408146                1.59832055               -3.40449510               -4.46959517               23.69821314                3.10571263
              15.20248267                3.86918005               52.51212302                0.17854851               -0.22092863                3.00551185               -3.27182871               -1.39293235               13.10645656                1.94448449
              16.20595115                3.44598583               52.26315579                0.67431899                0.34684866                3.60895676               -3.83264562                1.12679443                1.50688276               -2.30834151
               6.46409115                8.34754243               53.34393779                0.96319223               -0.08530532               -0.28288730                0.83459264               -0.03816974                0.02549896                0.69866137
               7.46323809                8.00801897               53.09701675                0.32529189                0.06065732                0.15807991               -0.31508678                0.02283173                0.34122873               -0.64021808
               8.46530429                7.66796510               52.85639107                0.00010000                1.15696432                0.65204426               -1.47242575               -0.27918849                8.71529039               -2.20016237
               9.48637738                7.32057124               52.77627089                0.00010000                2.29847608                0.56367509               -2.21573924               -0.44054126               17.44907963                1.19901804
              10.51127381                6.95553530               52.70661061                0.00010000                2.67367677                0.26296050               -2.85011867               -0.95116924               18.97634388                3.13670814
              11.53985092                6.57458683               52.65123056                0.00010000                2.90837182               -0.07538594               -3.32034289               -1.45891705               20.74176114                4.18664050
              12.56944125                6.17677807               52.60938847                0.00010000                2.77528048               -0.24204274               -3.52354686               -2.24709423               22.42791166                4.80922279
              13.59535652                5.76050361               52.57856976                0.00010000                2.16143556                0.07727367               -3.48126048               -3.15341220               23.87609993                4.70529334
              14.61266996                5.32815533               52.55566306                0.02462965                1.24265088                0.88119238               -3.18988105               -3.53658562               25.08484606                3.76137027
              15.62020954                4.88398724               52.53987692                0.22798002                0.69049758                1.17135522               -2.38056129               -1.47301104               13.15479795                1.61316192
              16.62647991                4.46824150               52.27138303                0.70360354                0.62703715                1.74449031               -3.19968404                0.11861474                0.57132835               -1.09723892
               6.80101227                9.34513961               53.25886729                0.93671174                0.00054131               -0.19815728                0.55049572               -0.03814386                0.02421859                0.70208257
               7.80101768                9.01001671               53.00526076                0.31590979                0.15543327                0.23539744               -0.59011888                0.04662828                0.21932191               -0.63035091
               8.80412093                8.67486968               52.75551286                0.00010000                1.77753307                0.69702188               -1.70200295               -0.56970931               10.68992284               -2.19764048
               9.83656834                8.32530587               52.71055909                0.00010000                3.50795401                0.30719332               -2.46415118               -0.99954950               21.43811469                0.42532486
              10.87428001                7.95662168               52.66967967                0.00010000                3.91718524               -0.12351318               -3.04885087               -1.33459199               22.48426031                2.23857500
              11.91491205                7.57265245               52.63744383                0.00010000                4.02635070               -0.38386962               -3.41323505               -1.50692117               23.92687529                3.43384116
              12.95480703                7.17423246               52.61560417                0.00010000                3.73033741               -0.38499161               -3.50440549               -1.86219099               25.35920140                4.26326952
              13.98951880                6.76108910               52.60147735                0.00010000                3.06736744               -0.09597884               -3.31039492               -2.40156204               26.24607321                4.88652573
              15.01615438                6.33330874               52.58728674                0.05226548                2.17087384                0.29186747               -2.90165743               -2.96161365               25.98904047                4.83337221
              16.03293627                5.89260715               52.55908832                0.26938313                1.18302738                0.78131797               -2.07914836               -1.47716444               12.92311996                1.10457163
              17.03981493                5.48087564               52.27713212                0.72299278                0.68786520                1.09516524               -2.88980285                0.01919719                0.24150541               -1.28306732
               7.13357408               10.34357929               53.17394499                0.93110181                0.08665131               -0.11129582                0.26678072               -0.03841977                0.00698224                0.69802555
               8.13444059               10.01272692               52.91361939                0.34733162                0.25234322                0.30406806               -0.86066712                0.04935761                0.09804091               -0.60267949
               9.13862094                9.68190554               52.65502807                0.00010000                2.50968996                0.69186061               -1.93212501               -1.07464339               12.47184335               -1.91385985
              10.18463439                9.32671511               52.64139839                0.00010000                4.93072311               -0.19112822               -2.69306297               -1.69283343               25.09620958                0.16841339
              11.23723540                8.95306503               52.62660687                0.00010000                5.37336620               -0.74148659               -3.23765803               -1.47192035               25.86856391                1.56713428
              12.29210171                8.56690944               52.61739863                0.00010000                5.32626853               -0.81595020               -3.51617415               -1.25108482               27.24541256                2.58630162
              13.34376077                8.16907824               52.61780979                0.00010000                4.80736466               -0.73407562               -3.45025008               -1.28118325               28.84667198                3.51165489
              14.38824901                7.75858403               52.62821875                0.00010000                3.90794351               -0.51511624               -2.95164193               -1.57119659               29.70069157                4.73996614
              15.42191964                7.33399268               52.63475036                0.07949879                2.74251746               -0.20860291               -2.20542594               -2.00906057               26.57640998                7.12495881
              16.44309935                6.89961360               52.57418196                0.30566477                1.42036177                0.68541264               -2.07832267               -1.25767897               11.82674044                0.90402373
              17.45032688                6.49014481               52.27989238                0.73443503                0.72275242                0.88466235               -2.80135338                0.02361402                0.11548927               -1.55030209
               7.46194861               11.34291369               53.08889796                0.89901531                0.17299785               -0.02006421               -0.02097597               -0.04248511                0.00941683                0.60153879
               8.46367858               11.01609807               52.82222850                0.38315946                0.33456389                0.37256860               -1.13830919                0.01788307                0.20545232               -0.50912319
               9.46863988               10.68870689               52.55934762                0.00010000                3.39367984                0.68792627               -2.17559353               -1.90644253               14.19015275               -1.16816221
              10.53155218               10.32148331               52.57161056                0.00010000                6.80036975               -1.37491857               -2.92005565               -1.85845688               28.27008004                0.11119153
              11.60464728                9.94179195               52.57849104                0.00010000                7.11624807               -1.41901075               -3.42447599               -1.09171555               28.93563025                0.87016883
              12.67387714                9.55633344               52.58935308                0.00010000                6.64307459               -1.30399341               -3.62348656               -0.66041906               30.43337693                1.47516059
              13.73750877                9.15955095               52.61117869                0.00010000                5.96516421               -1.16578966               -3.39982509               -0.64563286               32.51461427                2.10074000
              14.79318043                8.75078678               52.64894895                0.00010000                4.87174113               -1.07103861               -2.58462274               -0.83834142               35.26940337                3.16795886
              15.83494359                8.32913668               52.71227286                0.11883579                2.92250690               -0.57460191               -0.67676484               -0.89018706               27.72615086                6.08108606
              16.85163056                7.90631540               52.58895667                0.35527118                1.21405990                0.67766343               -2.22521686               -0.76106907                9.20950814                0.80005716
              17.85922479                7.49856889               52.28105762                0.73623630                0.75942264                0.85256364               -2.82831725                0.02898544               -0.06128262               -1.33412058
               7.78635562               12.34317800               53.00216915                0.95431969                0.26494268                0.02643106               -0.31108905                0.14073098                0.28499793                0.51040574
               8.78900505               12.02017829               52.73214390                0.73496283                0.43756119                0.40802266               -1.42950644                0.15694977                0.84029583               -0.42190827
               9.79510685               11.69566406               52.47304144                0.45714915                5.26875705                0.69571718               -2.46445545               -3.40138147               15.89157590               -0.66131738
              10.89438019               11.29921673               52.50305149                0.36868054                9.27220550               -2.22665745               -3.16905578               -2.26616112               30.79823340               -0.04919190
              11.98055096               10.92468482               52.52430594                0.36015770                8.33770696               -1.71071324               -3.62414293               -0.32899034               31.43785704                0.38347261
              13.06113433               10.54082957               52.54982323                0.36735810                7.79219099               -1.55038748               -3.75262107               -0.22039948               33.14270879                0.72180758
              14.13639478               10.14576245               52.58775267                0.38977501                7.03810563               -1.37885003               -3.43755241               -0.29471466               35.65293519                1.07995598
              15.20189644                9.73716326               52.64638796                0.42720917                5.60962501               -1.36235225               -2.43182933               -0.29148855               39.25371039                1.76733438
              16.24858728                9.32250064               52.74110724                0.58533256                2.82746624               -0.66360399               -0.39697331                0.16454932               29.91584172                3.55921026
              17.25844577                8.91316687               52.60226297                0.70903940                0.89061708                0.68514682               -2.39667389               -0.08370751                9.44400303                0.70072882
              18.26639962                8.50719608               52.28954254                0.86964100                0.79538512                0.86271963               -2.92116188                0.12040414                0.69032984               -1.04933165
               4.56447274                2.47642177               54.86206113                1.00000000               -0.69752132               -0.84283118                2.92355659               -0.24755767               -0.85026565                0.83203856
               5.55749752                2.10474546               54.63412734                1.00000000               -0.53242441               -0.42139820                1.59835317               -0.18203974               -1.10903037                0.13476356
               6.55382425                1.73221975               54.40108177                1.00000000               -0.21133729               -0.01609362                0.31734062               -0.19326183               -0.99883683               -0.18979709
               7.55327078                1.35733351               54.17486462                0.66824291               -0.11986415                0.45151384               -0.99655719               -0.32800650                0.41458952               -0.78623247
               8.55142697                0.97802234               53.96881469                0.66568282                0.07757413                0.97288892               -2.30528411               -0.27172309                1.83841449                0.03425438
               9.55482226                0.59637884               53.76617764                0.61428213                0.62149606                1.30317065               -3.67111971               -0.23280358                2.17900320               -0.13249574
              10.56385689                0.21134994               53.56155011                0.39929577                1.03660104                1.73147831               -5.17235969               -0.30873021                3.04733142               -0.37310120
              11.57555428               -0.17679739               53.37086910                0.00010000               -4.92327165                2.05501581               -6.37055267              -11.83117422                9.94984695                0.08151955
              12.46539145               -0.79645167               53.30071755                0.00010000               -3.62650623                2.40682153               -6.86311284              -13.54685893               14.91423337               -2.74974205
              13.50302416               -1.36494368               53.29707643                0.85852541                2.37857454                0.60415572               -3.08382132              -11.20607932                9.17267904                0.29089139
              14.51296295               -1.70704101               53.10263275                1.00000000                0.99387882                0.83687503               -3.76372870               -0.32226931                0.08671321               -0.71613978
               4.93367347                3.46799346               54.77500209                1.00000000               -0.58953330               -0.79718537                2.60690534               -0.02483190               -0.17444500                1.11874694
               5.92777814                3.10053148               54.54701557                1.00000000               -0.40379303               -0.38049889                1.28073994                0.03558003               -0.25000491                0.21512256
               6.92559761                2.73205881               54.31762506                1.00000000               -0.03443588                0.02602411               -0.01575669                0.03301085               -0.11719191               -0.31969404
               7.92708942                2.36184864               54.09205540                0.48053783                0.17947298                0.47696252               -1.33968565               -0.07821866                1.76747084               -1.07016136
               8.92918707                1.98775123               53.89971906                0.52950843                0.43705037                0.93498866               -2.61862171               -0.09515749                3.13337758                0.08521149
               9.93583043                1.60941055               53.69965554                0.47799492                0.90853167                1.30427075               -3.92657527               -0.09510523                2.70302266               -0.13238615
              10.94735770                1.22866472               53.49563067                0.20343588                1.26564593                1.73056004               -5.30170661               -0.19309470                3.66657341               -0.59684704
              11.96114334                0.84375277               53.31131472                0.00010000               -1.16808449                1.71092773               -6.01058445              -12.26173775               15.64981442                1.35937571
              12.92399601                0.22761655               53.34501832                0.00010000               -5.74426541                1.39176027               -2.85959640              -21.29589217               23.62148907                0.06993204
              13.84625804               -0.35890213               53.37017049                0.94845258               -3.60792153                0.42042059               -1.54884866              -12.15487371               11.13229928                0.51306820
              14.85183758               -0.69867226               53.17162041                1.00000000                0.55795451                0.66832794               -2.30011152               -0.18703819                0.13437905               -0.45911441
               5.29890006                4.46047806               54.69395181                1.00000000               -0.47562889               -0.70157905                2.25551564               -0.02293316                0.04397226                1.37395240
               6.29414377                4.09713548               54.46149794                1.00000000               -0.28663778               -0.28940951                0.95159994                0.03411927                0.14741617                0.21731169
               7.29316730                3.73274023               54.23125377                0.81354730                0.09351112                0.11985468               -0.34247852                0.01810544                0.37453218               -0.62472845
               8.29601399                3.36687276               54.00316600                0.00010000                0.43973066                0.54089712               -1.64542995               -0.15059381                3.28943989               -1.32782344
               9.30196191                2.99672211               53.83078168                0.00010000                0.79963368                0.77048873               -2.89955750               -0.67034204                4.62143508                0.58469019
              10.31200666                2.62246426               53.63152807                0.00010000                1.18454301                0.80461444               -4.22693145               -1.22010096                2.92537090                3.01804894
              11.32565277                2.24596114               53.42377261                0.00010000                0.96805203                0.43621544               -5.57792728               -2.45595256                5.81210219                6.60784075
              12.33136770                1.85742116               53.28000660                0.00010000               -4.17621345               -1.69543114               -4.08869598              -15.68603643               23.19243275               11.42692586
              13.24212850                1.23138354               53.42679873                0.06895553               -7.25761060                2.68582145               -5.82360447              -25.03516483               31.57040565                4.86523298
              14.18621549                0.64346473               53.44207689                0.65043026               -2.66830260                0.09290473               -0.45286479              -12.44968525               11.06568471                0.51148145
              15.18876245                0.30632555               53.23945300                1.00000000                0.25469611                0.38849598               -1.29704304               -0.16348478                0.21395923               -0.44884665
               5.65989996                5.45396188               54.61219188                1.00000000               -0.37016132               -0.59388959                1.89106796               -0.03758935                0.16325250                1.19403536
               6.65619835                5.09474329               54.37436769                0.79887341               -0.18387598               -0.17782307                0.61068801                0.01144893                0.39645875               -0.06824069
               7.65622244                4.73445591               54.14133629                0.24275520                0.19486556                0.23787329               -0.64607061               -0.02501317                0.96225717               -1.10072367
               8.66009566                4.37266659               53.91457946                0.00010000                0.19831422                0.66999771               -1.95861536               -0.44726472                5.38983048               -1.19894436
               9.66018873                4.00316100               53.76957296                0.00010000                0.10468593                0.74063998               -2.92109364               -1.18873899                9.38979480                2.14264380
              10.66218938                3.62550284               53.62590812                0.00010000                0.15465075                0.34529161               -3.86011656               -2.17545396               10.36519880                6.10862231
              11.66328174                3.23738903               53.50016926                0.00010000               -0.00945797               -0.85789655               -4.28377058               -4.71719859               14.88924324               11.32648041
              12.66200022                2.80984414               53.44256747                0.00010000               -1.30162962               -3.25043168               -4.37501164              -11.28871251               22.34808763               13.65296484
              13.63724915                2.28133297               53.45709948                0.00010000               -6.98389495                3.50066936               -5.20090780              -17.20106132               27.44126666                2.70081677
              14.52232232                1.64295597               53.51344150                0.06198745               -5.72014509                7.55950361                0.36735139               -6.04736322               13.48050600               -7.27790849
              15.52284625                1.30909766               53.30652040                0.60334539                0.05239274                1.94349012               -0.77670084                7.38251523                0.36157744               -7.76084561
               6.01658544                6.44860027               54.52765769                1.00000000               -0.27067306               -0.48094271                1.53213580               -0.04496701                0.14344472                0.92931316
               7.01387871                6.09357902               54.28309388                0.49304434               -0.09208528               -0.05043819                0.24898192               -0.00018087                0.47018000               -0.45464988
               8.01474374                5.73749770               54.04513933                0.04761738                0.22424426                0.38468393               -0.98507107               -0.03447784                1.84166753               -1.64443699
               9.01836360                5.38027271               53.82768774                0.00010000                0.53035730                0.76072843               -2.04946869               -0.27996856                9.08249855                2.45016853
              10.02535088                5.01153491               53.73440744                0.00010000                0.79529789                0.68573531               -2.90745349               -0.74423780               14.61620433                3.57530284
              11.03426956                4.62937009               53.62789229                0.00010000                1.08083049                0.19081086               -3.60560420               -1.40656778               15.20080961                5.81118145
              12.04696749                4.22880321               53.54315537                0.00010000                1.36899768               -0.81804780               -4.01095553               -2.96383027               18.36338406                7.56893495
              13.06164951                3.79241253               53.49276970                0.00010000                0.90139803               -1.26333165               -4.17217563               -6.25093864               21.92673366                6.35545943
              14.06499545                3.30139692               53.47300565                0.00010000               -1.20729823                1.91395838               -3.78885497               -7.94080911               22.70893316                1.62358959
              15.03750355                2.79465480               53.42908164                0.10188846               -3.04330380               10.61575708               -5.23126093               -0.31140923               13.94700765               -5.66861409
              16.00412938                2.34519535               53.22757743                0.62922608               -3.33741668                5.59118118               -4.68253798                2.69902926                4.71745235              -10.30194218
               6.36904312                7.44434302               54.44067676                0.99577182               -0.17458162               -0.37716769                1.17930506               -0.03732629                0.01250643                0.74219461
               7.36729730                7.09373452               54.18824045                0.36777148               -0.01019610                0.06608464               -0.06145894                0.00730622                0.42948508               -0.62363240
               8.36883920                6.74214959               53.94414802                0.00010000                0.65808860                0.53497397               -1.30093325               -0.09852179                6.45228838               -1.99632449
               9.38045907                6.38788115               53.81167897                0.00010000                1.36836986                0.67834307               -2.06757306               -0.11642091               13.41687968                3.75276656
              10.39620659                6.01687571               53.70554043                0.00010000                1.81653263                0.39874448               -2.98344251               -0.74846789               16.16619896                3.67933965
              11.41678973                5.62931905               53.62531534                0.00010000                2.23780507               -0.10772831               -3.59705862               -1.44650093               18.57422807                4.84570805
              12.44096270                5.22102808               53.56220536                0.00010000                2.37990031               -0.65030655               -3.96244797               -2.81790383               20.83203292                5.42262759
              13.46438773                4.78457751               53.51938241                0.00010000                1.76140010               -0.44359148               -4.06006099               -4.83700329               23.06388805                4.56558212
              14.47619070                4.31961214               53.49091460                0.00010000                0.39539891                1.64617985               -4.16047384               -5.30758617               24.84197637                2.31147394
              15.47229571                3.85527111               53.47350976                0.15703942               -0.02224805                4.06096253               -4.67072006               -1.85787417               14.04165017                2.31852435
              16.47574574                3.42092128               53.22210224                0.66187255                0.34500249                5.25430501               -4.59584648                1.65262740                2.23780680               -2.51492611
               6.71705591                8.44105692               54.35245528                0.95221045               -0.08376397               -0.28648157                0.86769056               -0.03968328                0.03297539                0.69284332
               7.71621827                8.09490071               54.09367301                0.31472997                0.07853796                0.16019949               -0.35215651                0.02164278                0.34274833               -0.61010796
               8.71862667                7.74819718               53.84106515                0.00010000                1.25453918                0.64915652               -1.58141121               -0.29094396                8.91166154               -2.12495543
               9.74130906                7.39383957               53.75297280                0.00010000                2.51584786                0.50357289               -2.43914146               -0.49550818               17.85158870                1.05157140
              10.76894363                7.01950980               53.67654527                0.00010000                2.99390582                0.12408644               -3.16460544               -1.10424905               19.48451363                2.98455185
              11.80118717                6.62721552               53.61617696                0.00010000                3.32036655               -0.28520773               -3.70873897               -1.72342682               21.44189464                3.95503125
              12.83535096                6.21579708               53.57197590                0.00010000                3.25691024               -0.46359332               -4.00432651               -2.68094647               23.35979414                4.49771009
              13.86632538                5.78354070               53.54120079                0.00010000                2.63995865               -0.03702721               -4.07562148               -3.75966105               25.03848782                4.33502244
              14.88815013                5.33432052               53.52085331                0.01628966                1.63557735                1.06973048               -3.90711565               -4.10573214               26.64705075                3.52705393
              15.89903692                4.87587405               53.51375970                0.20915964                0.88657257                1.55673913               -3.02695481               -1.73515536               14.20436392                2.18342657
              16.90588158                4.45028145               53.23862198                0.68904550                0.68446598                2.17332863               -3.48285106                0.08563408                0.86089945               -0.61942896
               7.06056186                9.43861339               54.26454352                0.92870421                0.00280392               -0.20256458                0.58471233               -0.03962619                0.02263389                0.71271656
               8.06058990                9.09693851               53.99912491                0.30505371                0.17598015                0.24123995               -0.63590181                0.04117856                0.23048906               -0.60089895
               9.06408146                8.75513272               53.73781738                0.00010000                1.93231951                0.70918372               -1.83066037               -0.62573306               10.88232476               -2.11941472
              10.09923629                8.39795261               53.68464708                0.00010000                3.83321019                0.25292264               -2.71879686               -1.10233812               21.81423892                0.33872499
              11.14074566                8.01935744               53.63746051                0.00010000                4.33988144               -0.23469345               -3.40719525               -1.52776795               22.99609370                2.04979439
              12.18603392                7.62361490               53.60124553                0.00010000                4.51364624               -0.52326372               -3.85874976               -1.77056651               24.62987936                3.19196922
              13.23101859                7.21175621               53.57828882                0.00010000                4.23185780               -0.49626036               -4.02180938               -2.21024591               26.29877938                4.03106286
              14.27067107                6.78383697               53.56602350                0.00010000                3.53620582               -0.10340234               -3.88449607               -2.82240797               27.41354862                4.82902079
              15.30174270                6.34100675               53.55604654                0.04862443                2.54803028                0.39203159               -3.47205627               -3.35987546               27.52913542                5.08346185
              16.32163168                5.88640589               53.53768494                0.25651111                1.34504588                0.90148391               -2.28416320               -1.65718439               13.85428969                1.29141208
              17.32864362                5.46438785               53.24861335                0.70874857                0.70119453                1.16144683               -2.87606499               -0.01759645                0.34074135               -0.94352246
               7.39961314               10.43700562               54.17676260                0.92402631                0.09093767               -0.11663593                0.29703152               -0.04030867                0.00795715                0.70724870
               8.40052252               10.09972551               53.90472815                0.33402499                0.27423856                0.31525091               -0.91658472                0.04471606                0.12644245               -0.57882843
               9.40509791                9.76238085               53.63498113                0.00010000                2.72575272                0.72069242               -2.07451568               -1.17282875               12.67194840               -1.84977888
              10.45503757                9.39889802               53.61306201                0.00010000                5.38140365               -0.24898659               -2.98118757               -1.84779076               25.45882240                0.11128464
              11.51272598                9.01481593               53.59234264                0.00010000                5.91697505               -0.84792423               -3.63753174               -1.65383928               26.38723352                1.42158201
              12.57337707                8.61675025               53.58006907                0.00010000                5.90989945               -0.92270690               -3.99594237               -1.44429005               27.99463648                2.40103670
              13.63092397                8.20587187               53.58113934                0.00010000                5.36248013               -0.81211715               -3.96307152               -1.48142762               29.93569911                3.39698384
              14.68062668                7.78147265               53.59694725                0.00010000                4.37298623               -0.53380957               -3.41262861               -1.77934628               31.08287098                4.92943493
              15.71838370                7.34216115               53.61133287                0.08117472                3.09427305               -0.22317250               -2.61132475               -2.19404713               27.78011169                8.21195284
              16.74251214                6.89390373               53.55347940                0.29953625                1.55910174                0.71109022               -2.11178112               -1.39263615               12.30124767                0.87466933
              17.74956573                6.47351038               53.25280858                0.72120481                0.70535971                0.84824910               -2.64905354                0.01373800                0.15049012               -1.34957825
               7.73431591               11.43628067               54.08881397                0.89014714                0.17930831               -0.02670460                0.00549502               -0.04420248                0.01249790                0.60734125
               8.73610899               11.10324353               53.81050144                0.36495642                0.35682336                0.39054031               -1.20548080                0.01407242                0.25100318               -0.49754658
               9.74145237               10.76954656               53.53684087                0.00010000                3.68682003                0.72440736               -2.32691910               -2.06150204               14.40995574               -1.13440702
              10.80984539               10.39297288               53.54093397                0.00010000                7.41821412               -1.50881200               -3.22729745               -2.00977435               28.64747612                0.09451099
              11.88981666               10.00239895               53.54230317                0.00010000                7.81233935               -1.55177789               -3.84332860               -1.20767114               29.49229390                0.79544410
              12.96609218                9.60516076               53.55097727                0.00010000                7.34254875               -1.42300674               -4.10806390               -0.75420981               31.27200775                1.37507524
              14.03666763                9.19551387               53.57526472                0.00010000                6.63513444               -1.27140270               -3.87261517               -0.72318842               33.80845189                2.05978777
              15.09879487                8.77316077               53.62201924                0.00010000                5.43815282               -1.18654438               -2.91844169               -0.92573006               37.40939014                3.38426533
              16.14543069                8.33654330               53.70626670                0.12808847                3.18174279               -0.62343639               -0.60548807               -0.91017911               28.55620462                7.01354016
              17.16242972                7.90062770               53.56704322                0.35760257                1.21371911                0.67307264               -2.20751920               -0.82476008                8.68479955                0.70435048
              18.16970507                7.48135283               53.25395168                0.72439964                0.72753479                0.78689514               -2.61788982                0.02695967               -0.03011143               -1.20795326
               8.06480337               12.43647153               53.99915173                0.94868366                0.27347030                0.01908604               -0.28970799                0.15522501                0.28189579                0.51378137
               9.06753807               12.10753632               53.71745344                0.72410327                0.46675767                0.42927864               -1.50521656                0.16278168                0.88359344               -0.41797850
              10.07413852               11.77686900               53.44763304                0.45459690                5.72258116                0.73224341               -2.61946784               -3.67211178               16.13516201               -0.65181373
              11.18198970               11.36872178               53.46991678                0.36854822               10.11230802               -2.42510966               -3.47092898               -2.44000060               31.25160253               -0.01548580
              12.27638468               10.98378038               53.48623001                0.36029462                9.15941350               -1.86185787               -4.02333146               -0.36478086               32.10087114                0.38695495
              13.36517797               10.58829011               53.51036455                0.36712831                8.60377540               -1.68706480               -4.19791534               -0.25824905               34.10067542                0.72050346
              14.44846019               10.18044382               53.55179554                0.38874204                7.79523365               -1.50700485               -3.84515531               -0.34816130               37.11031374                1.12270798
              15.52108264                9.75774176               53.62158767                0.42566077                6.21265022               -1.54190096               -2.64104566               -0.30879237               41.51357499                2.00503484
              16.57271320                9.32969242               53.73808512                0.59246763                3.00623820               -0.68508778               -0.31363047                0.20942165               30.48399912                3.90055524
              17.58120740                8.90736518               53.57887021                0.71267044                0.79707269                0.67374851               -2.33331473               -0.14443873                8.62446567                0.62580716
              18.58865465                8.48924829               53.26175098                0.86379826                0.74472471                0.78954530               -2.65871287                0.08326868                0.68778006               -0.94062274
               4.79084614                2.57318363               55.89153562                1.00000000               -0.69823087               -0.85296290                2.95841851               -0.25672824               -0.79421693                0.79379164
               5.78386383                2.19476283               55.65008293                1.00000000               -0.52133178               -0.41921164                1.58784643               -0.19231687               -1.02820575                0.12880644
               6.78041951                1.81551163               55.40391914                1.00000000               -0.17199385               -0.00080825                0.25377536               -0.20150282               -0.91960351               -0.17579808
               7.78042396                1.43412967               55.16421264                0.65854102                0.00908055                0.47188368               -1.12099183               -0.31201616                0.43705719               -0.75788339
               8.78060112                1.04907219               54.94422179                0.64349427                0.28730544                1.01404361               -2.57237585               -0.28169913                1.73930999                0.05081228
               9.78617006                0.66264124               54.72737150                0.58012149                0.82118172                1.37923854               -4.02457213               -0.23856423                1.93048259               -0.15548426
              10.79702475                0.27348901               54.50783030                0.34434201                1.10494053                1.81286067               -5.51139411               -0.36043996                2.88043055               -0.48086520
              11.80826888               -0.11975351               54.30746431                0.00010000               -6.98734620                2.01090096               -6.35207324              -17.29744159               10.70794491               -0.15528691
              12.65727783               -0.85363876               54.24923021                0.00010000               -5.61387618                4.64625398               -5.70643495              -18.30293125               16.83378900               -0.05751880
              13.69599135               -1.44167825               54.25894239                0.77304080                2.73133749                1.00443386               -5.02478344              -11.68822089                9.91562763                0.60040388
              14.71190458               -1.79088242               54.05721062                1.00000000                1.59132255                1.30458041               -5.85524276               -0.50846024                0.11575744               -0.76701419
               5.16669966                3.56465400               55.80129515                1.00000000               -0.59229975               -0.80590718                2.63999053               -0.02863450               -0.14883925                1.07095317
               6.16077666                3.19057071               55.55978129                1.00000000               -0.39893005               -0.37736508                1.26861084                0.03130932               -0.20548745                0.20636958
               7.15872106                2.81550355               55.31714036                1.00000000               -0.01265744                0.04229506               -0.07724026                0.03082625               -0.07370578               -0.30449752
               8.16052351                2.43884850               55.07800138                0.47085596                0.24036408                0.50184809               -1.45886733               -0.04490593                1.78997637               -1.02411453
               9.16352834                2.05921263               54.87204844                0.50966578                0.55262497                1.00460461               -2.89933966               -0.09093531                3.15689970                0.10939886
              10.17157601                1.67643362               54.65846546                0.44844868                1.05446928                1.39404405               -4.28967633               -0.08135670                2.69633215               -0.19289385
              11.18461773                1.29161762               54.44079003                0.15897407                1.36411670                1.82094506               -5.66418812               -0.30567573                4.09339376               -0.77100390
              12.19885835                0.90035550               54.25237716                0.00010000               -2.47034202                0.97313482               -5.81432864              -16.96036098               17.20224022                2.22800019
              13.13521089                0.19282378               54.29591228                0.00010000               -7.55636883                3.74963505               -5.11297965              -25.48806492               27.08752414                3.06873391
              14.04773097               -0.43163391               54.35200426                0.77905700               -3.95933734                0.69352536               -2.60647923              -13.59102729               13.04354451                0.83115693
              15.05602414               -0.77783661               54.14579461                1.00000000                0.82931686                1.00188768               -3.49730265               -0.30288498                0.39610981               -0.51387428
               5.53844003                4.55706548               55.71673221                1.00000000               -0.47995588               -0.70739599                2.29010774               -0.02653535                0.06534700                1.30750817
               6.53364047                4.18721552               55.47096325                1.00000000               -0.28408941               -0.28584788                0.93870938                0.03198017                0.17891014                0.19778724
               7.53275824                3.81635753               55.22750295                0.80896514                0.10881440                0.13628798               -0.40274113                0.02485806                0.40632635               -0.59894259
               8.53581676                3.44416663               54.98607808                0.00010000                0.42195260                0.56826689               -1.75527793               -0.06722728                3.30851939               -1.27165087
               9.54119729                3.06916429               54.80026031                0.00010000                0.81605921                0.73234981               -3.22416443               -0.61457267                4.73114845                0.75387658
              10.55213794                2.69052212               54.58737981                0.00010000                1.28960347                0.61900352               -4.61762774               -1.17736631                3.05795196                3.27583664
              11.56698936                2.30990791               54.36616160                0.00010000                0.78587781               -0.10145980               -5.95819679               -3.21934520                7.76313094                7.20529371
              12.56785550                1.89970918               54.24505128                0.00010000               -4.37417097               -3.24230639               -2.60225221              -18.70156767               24.28954695               10.36223129
              13.47950594                1.22135394               54.37026663                0.04838999               -8.65121505                4.23176220               -5.15827278              -29.08804877               33.56705089                4.11534087
              14.39483120                0.57219225               54.43739192                0.58879946               -4.06268334                0.20889207               -0.71698449              -15.10833580               14.25393212                0.49212838
              15.39825227                0.22915534               54.22574140                1.00000000                0.34210784                0.52920492               -1.94391863               -0.15958423                0.52694636               -0.96526826
               5.90586887                5.55050608               55.63132374                1.00000000               -0.37446533               -0.59709105                1.92629206               -0.03936477                0.18187054                1.12635500
               6.90212422                5.18485375               55.38039934                0.77398441               -0.18008760               -0.17613492                0.59459881                0.01528103                0.43204193               -0.10422009
               7.90226712                4.81822931               55.13452757                0.22760637                0.21239992                0.25229470               -0.70787839               -0.00975056                0.98288768               -1.08163991
               8.90637222                4.45021384               54.89439618                0.00010000                0.13071393                0.68844635               -2.05638088               -0.46741140                5.53877806               -1.03027018
               9.90488140                4.07385963               54.73926756                0.00010000                0.04564216                0.53736444               -3.11675906               -1.24658811                9.70586410                2.36380950
              10.90728506                3.68881369               54.58587262                0.00010000                0.30811789               -0.15605808               -4.12556290               -2.40371279               11.04796946                6.51341619
              11.91104375                3.28958842               54.45653513                0.00010000                0.30479551               -1.91653447               -4.40559374               -5.77489292               16.12838520               11.80521824
              12.91338097                2.83550937               54.39868000                0.00010000               -1.50384568               -4.31232286               -4.35682845              -12.87006079               23.27404240               12.19505816
              13.88096684                2.27745902               54.40712519                0.00010000               -8.78090562                3.67458260               -4.61844938              -20.64531943               30.80182894                1.84601369
              14.73776286                1.57254393               54.51728785                0.04820753               -7.10302758                8.91221057                0.35134821               -6.84026121               16.86155111              -10.79182491
              15.73890629                1.23274749               54.29734213                0.60517927                0.11434331                2.26431764               -1.26087760                8.85339641                0.46742910              -10.74409860
               6.26895738                6.54512366               55.54319413                1.00000000               -0.27345244               -0.48312114                1.56749480               -0.04395237                0.13155737                0.86744397
               7.26622286                6.18369283               55.28547423                0.47725987               -0.08771215               -0.05252153                0.22637348                0.01288524                0.49007767               -0.47358009
               8.26720314                5.82140343               55.03495538                0.03561074                0.23076761                0.38735910               -1.04955818               -0.00800862                1.98096498               -1.63034523
               9.27083821                5.45793555               54.80683748                0.00010000                0.52312680                0.67944015               -2.08674298               -0.39847585                9.36911863                2.69706875
              10.27766568                5.07991157               54.70425915                0.00010000                0.87483380                0.44759010               -3.09603229               -0.92046998               15.06185519                3.63936032
              11.28833489                4.68740096               54.59050150                0.00010000                1.35650738               -0.30120172               -3.85003453               -1.77333091               15.92556137                5.82612937
              12.30479582                4.27157722               54.50149592                0.00010000                1.71243977               -1.54415424               -4.30686102               -3.83713510               19.38842180                7.23229697
              13.32258368                3.81346273               54.44922972                0.00010000                1.23845859               -1.65425959               -4.51459424               -7.67898920               23.27023123                5.48008131
              14.32956500                3.29484559               54.43193876                0.00010000               -0.99230874                1.83038471               -4.38690917               -9.54555995               23.22490506                0.51792985
              15.30273751                2.75043647               54.37372720                0.08657640               -3.73259551               12.91642755               -5.64251144               -0.30193597               14.13796907              -10.22512993
              16.25491309                2.27444169               54.17727875                0.62865224               -4.78244224                7.59476342               -5.54456607                3.13132466                5.97317628              -14.41749893
               6.62785149                7.54084366               55.45261469                0.97867619               -0.17493368               -0.37955627                1.21311270               -0.03614294                0.02590539                0.70768538
               7.62610216                7.18380332               55.18750393                0.35685057                0.00063619                0.06197653               -0.08618277                0.01965861                0.44306743               -0.60893573
               8.62786422                6.82597649               54.93074321                0.00010000                0.68961965                0.51966027               -1.37391208               -0.14830428                6.66840237               -1.95650881
               9.63989455                6.46380264               54.78972468                0.00010000                1.45711885                0.53495031               -2.28783602               -0.30371248               13.75708396                3.71498334
              10.65700660                6.08281143               54.67445559                0.00010000                2.01291197                0.16973392               -3.21142089               -1.04593641               16.59839135                3.53919166
              11.68015279                5.68278966               54.58769883                0.00010000                2.56163427               -0.48218448               -3.91420980               -1.95913969               19.24635129                4.54609215
              12.70823928                5.25870534               54.52043589                0.00010000                2.81900141               -1.04642024               -4.39388752               -3.67740025               21.73884949                4.87888645
              13.73653282                4.80242418               54.47582616                0.00010000                2.24213117               -0.64498824               -4.67812183               -5.99867160               24.02828221                3.71681800
              14.75308190                4.31406672               54.44509269                0.00010000                0.77976099                1.93594399               -5.05965382               -6.40323134               25.37309945                1.10967682
              15.75212804                3.83087248               54.41870862                0.13368510                0.02202155                5.65220647               -6.47864214               -2.28166626               14.79430774                1.93468498
              16.75352234                3.38464275               54.17123886                0.65124433                0.13942970                7.74500619               -5.95793136                2.33004009                3.39602376               -3.48894319
               6.98231519                8.53753254               55.36129160                0.94065891               -0.08319954               -0.28785148                0.90535206               -0.03748368                0.04425845                0.69914404
               7.98148320                8.18493236               55.08997362                0.30590962                0.09612709                0.15701352               -0.38789563                0.02577721                0.34996343               -0.58800601
               8.98423773                7.83179663               54.82476284                0.00010000                1.32229141                0.62944535               -1.67155781               -0.39583777                9.08598752               -2.06651509
              10.00792903                7.46863456               54.72748806                0.00010000                2.67610998                0.40942638               -2.64299979               -0.75874680               18.20363868                0.85802282
              11.03775993                7.08330625               54.64331850                0.00010000                3.26645789               -0.04956112               -3.46829976               -1.51402257               19.93846764                2.68744574
              12.07325818                6.67775727               54.57705578                0.00010000                3.69266825               -0.50949704               -4.11723619               -2.30644512               22.05173732                3.52239180
              13.11161330                6.25064882               54.52930194                0.00010000                3.69953453               -0.65075275               -4.55834520               -3.47144713               24.13706322                3.93203144
              14.14724887                5.80056296               54.49705733                0.00010000                3.07193854               -0.02505566               -4.82696049               -4.67925603               25.97135942                3.68348480
              15.17305207                5.33356447               54.47752074                0.00467116                1.96396357                1.52158505               -4.93063942               -4.75443119               28.02578081                3.03448755
              16.18652815                4.86348059               54.47933783                0.18541087                1.04606331                2.39216055               -4.24835362               -1.94477175               15.34582031                3.03971183
              17.19397334                4.42934181               54.20172601                0.67389318                0.74451909                3.15879211               -4.16688532                0.14865153                1.44341077               -0.03648675
               7.33230218                9.53508663               55.27056154                0.91989775                0.00514260               -0.20393619                0.61759803               -0.03995717                0.02038338                0.73175022
               8.33235361                9.18694359               54.99254272                0.29559313                0.19715393                0.24207302               -0.67872526                0.03732380                0.24153298               -0.57908642
               9.33624526                8.83856540               54.71889966                0.00010000                2.04281934                0.70449211               -1.94379256               -0.77320524               11.04589878               -2.06085744
              10.37320999                8.47199117               54.65618315                0.00010000                4.06790890                0.20096728               -2.96810381               -1.41124437               22.12382962                0.16303759
              11.41760344                8.08182020               54.60153577                0.00010000                4.67356633               -0.33261221               -3.77893660               -1.95891893               23.42489003                1.71675306
              12.46668132                7.67259972               54.56026883                0.00010000                4.92006019               -0.62794192               -4.35682220               -2.30951795               25.21829025                2.75780647
              13.51600464                7.24569028               54.53516798                0.00010000                4.66753628               -0.53033991               -4.65963698               -2.83466861               27.08407394                3.58811633
              14.56003205                6.80192306               54.52378743                0.00010000                3.95355032                0.03070147               -4.68078741               -3.43639239               28.42626710                4.60234875
              15.59507565                6.34449842               54.51784561                0.04218023                2.87116070                0.72235532               -4.35289935               -3.76348620               29.12869371                5.24694756
              16.61745526                5.87871569               54.51340506                0.23768154                1.48486408                1.21340544               -2.73377398               -1.77796836               14.94294823                1.69479635
              17.62477293                5.44781860               54.21961082                0.69221157                0.73176693                1.42365512               -3.04206141               -0.05445958                0.52785336               -0.47027565
               7.67780212               10.53345381               55.17988562                0.91681641                0.09487854               -0.12076194                0.32810362               -0.04192753                0.00902491                0.72281843
               8.67875090               10.18977382               54.89528770                0.32147534                0.29619674                0.32391287               -0.97048398                0.03754032                0.15517262               -0.56363488
               9.68372605                9.84588647               54.61353775                0.00010000                2.88492143                0.74007235               -2.20832247               -1.34793498               12.83658394               -1.80455321
              10.73644933                9.47265391               54.58177464                0.00010000                5.71234788               -0.27362081               -3.27964893               -2.17015313               25.73683608               -0.02636171
              11.79797301                9.07665401               54.55385624                0.00010000                6.33742078               -0.90033738               -4.07528944               -2.03045296               26.80635441                1.15022466
              12.86319775                8.66519843               54.53747978                0.00010000                6.38117849               -0.95301233               -4.56340416               -1.84687794               28.62468115                2.05915007
              13.92559658                8.24004202               54.53854836                0.00010000                5.82575733               -0.77998893               -4.64146013               -1.86951191               30.91605523                3.12922861
              14.97971289                7.80117699               54.55996618                0.00010000                4.76965716               -0.40457024               -4.12332814               -2.08481231               32.36533511                5.04838599
              16.02098972                7.34801158               54.58252386                0.08160766                3.39678531               -0.09215917               -3.31794797               -2.37301195               29.07445811                9.48739277
              17.04764860                6.88774870               54.53194634                0.28797234                1.68443043                0.81479592               -2.26299655               -1.50051709               12.91626274                0.88854484
              18.05467833                6.45781492               54.22691131                0.70437886                0.70297319                0.88244109               -2.58036887                0.00825723                0.20200419               -1.09502412
               8.01882362               11.53267139               55.08900786                0.88074532                0.18481304               -0.03378487                0.03453332               -0.04555320                0.01553933                0.61947679
               9.02067175               11.19342185               54.79811888                0.34654958                0.37914246                0.40704594               -1.26990861                0.00700814                0.29967116               -0.49303717
              10.02640647               10.85336684               54.51280924                0.00010000                3.91838222                0.75784815               -2.47976415               -2.26412014               14.59679159               -1.11646583
              11.09903940               10.46651875               54.50706461                0.00010000                7.90216925               -1.58562566               -3.55859236               -2.25937236               28.93549840                0.03089012
              12.18444986               10.06381346               54.50162447                0.00010000                8.36581758               -1.60418894               -4.32119804               -1.44158386               29.94751151                0.64564456
              13.26635575                9.65353947               54.50719181                0.00010000                7.90929911               -1.43666751               -4.70910536               -0.96691900               32.00499180                1.18213047
              14.34263584                9.23009050               54.53372639                0.00010000                7.20052477               -1.24435234               -4.54277706               -0.89632307               35.03993894                1.93416025
              15.41036624                8.79383166               54.59058011                0.00010000                5.92039291               -1.15249559               -3.52651914               -1.06349019               39.67958603                3.58379042
              16.46104370                8.34265523               54.70016310                0.13914329                3.36376677               -0.55683317               -0.69359475               -0.94125241               29.43244901                8.08703264
              17.47764158                7.89501161               54.54480629                0.35632046                1.18809769                0.71401714               -2.29892648               -0.87835961                8.05149258                0.59090570
              18.48480565                7.46546742               54.22869982                0.70781140                0.71640712                0.74850541               -2.45526916                0.03134819                0.01168148               -1.06824594
               8.35539013               12.53277812               54.99637499                0.94316779                0.28054802                0.01067288               -0.26326810                0.17031249                0.28339694                0.52298288
               9.35819561               12.19791474               54.70203957                0.71304243                0.49783081                0.44928866               -1.57743397                0.16565150                0.93745007               -0.41913939
              10.36534674               11.86104344               54.42065208                0.45193206                6.13098312                0.76765927               -2.78042891               -3.95464000               16.36154260               -0.65383626
              11.48081527               11.44094139               54.43363291                0.36835718               10.83869359               -2.55773616               -3.80157199               -2.64607313               31.63837685                0.00514116
              12.58212062               11.04457023               54.44383931                0.36036551                9.83835242               -1.92432278               -4.49051458               -0.45673989               32.69021604                0.36195140
              13.67758232               10.63646508               54.46586492                0.36688815                9.26286559               -1.70743928               -4.77142052               -0.34810582               34.98264823                0.68477908
              14.76737793               10.21515497               54.51084956                0.38780772                8.41480206               -1.49355303               -4.46109689               -0.44269104               38.55210214                1.14035430
              15.84587836                9.77812708               54.59356704                0.42403375                6.68033994               -1.57045799               -3.11524571               -0.36279152               43.85518953                2.27424810
              16.90098473                9.33687491               54.73483463                0.60163525                3.06954310               -0.57803200               -0.44476035                0.18920122               31.01803248                4.14408038
              17.90726922                8.90202905               54.55559668                0.71497764                0.67044736                0.70174393               -2.37462100               -0.24173030                7.72016929                0.53415039
              18.91439367                8.47278502               54.23636829                0.85514020                0.71244517                0.73176058               -2.42807052                0.03439993                0.68940494               -0.82706961
               5.03149378                2.67277854               56.92122950                1.00000000               -0.69438914               -0.85626034                2.96819726               -0.26230562               -0.74475443                0.76060150
               6.02454989                2.28792486               56.66588427                1.00000000               -0.50956546               -0.41463079                1.56823110               -0.19853085               -0.95784247                0.12375060
               7.02130247                1.90226134               56.40615728                1.00000000               -0.14203062                0.01237142                0.19809864               -0.20623212               -0.85756367               -0.16219127
               8.02170927                1.51459835               56.15244478                0.64866060                0.08759171                0.49025617               -1.21721757               -0.31664463                0.40910690               -0.72810587
               9.02305430                1.12338527               55.91736718                0.62210167                0.40570627                1.05154097               -2.75864805               -0.29518832                1.59817756                0.04626522
              10.02982340                0.73108123               55.68568620                0.54733945                0.91591940                1.44631265               -4.26076275               -0.25939579                1.71979120               -0.19143613
              11.04137269                0.33581318               55.45132223                0.29118392                0.92449371                1.91001593               -5.74993468               -0.64638495                2.96203610               -0.57910853
              12.04831327               -0.06972884               55.24382763                0.00010000               -9.53917688                2.04546394               -6.38637551              -21.16370674               11.01166602               -0.38853158
              12.85058915               -0.89096619               55.18658885                0.00010000               -7.74784908                5.89209957               -6.89398062              -21.91350191               17.14100602                0.94500330
              13.89335629               -1.53905936               55.19658076                0.69568938                3.40762351                1.83308347               -8.13475159              -14.04012397                9.99033199                0.94004005
              14.91874162               -1.89954927               54.98552790                1.00000000                2.53853314                2.20687498               -9.29508836               -0.70524574                0.09694514               -1.05296902
               5.41372440                3.66421593               56.82780190                1.00000000               -0.59012243               -0.80894487                2.65027853               -0.03118137               -0.12568546                1.02954094
               6.40782318                3.28377855               56.57238778                1.00000000               -0.39104979               -0.37258379                1.24958959                0.02852338               -0.16598024                0.19833078
               7.40590340                2.90238506               56.31608025                1.00000000                0.00788446                0.05564129               -0.12963431                0.02994416               -0.04174241               -0.29069880
               8.40798086                2.51950091               56.06287805                0.46516154                0.29787886                0.52232950               -1.54908566               -0.03833197                1.74076589               -0.97530260
               9.41186098                2.13390068               55.84173227                0.49374885                0.65173113                1.05976274               -3.12542636               -0.08638554                3.08912498                0.08660673
              10.42101549                1.74554436               55.61386201                0.42312699                1.17264483                1.47462987               -4.59574681               -0.07731634                2.66891600               -0.27725473
              11.43531388                1.35491334               55.38234690                0.11887796                1.45252043                1.92543613               -6.00552842               -0.64736604                4.81281850               -0.92343930
              12.45006590                0.95072580               55.19502814                0.00010000               -3.45972417               -0.59541054               -5.51218489              -21.11090984               18.85550816                3.75037605
              13.36611939                0.16795480               55.24275873                0.00010000               -9.64096507                4.67218176               -5.43084370              -30.04572988               29.76408994                3.42482374
              14.25724659               -0.52072852               55.31804091                0.62074261               -4.69701559                1.35415315               -4.91635187              -16.14861290               14.49732002                1.44166513
              15.27217908               -0.87748052               55.10167436                1.00000000                1.49324881                1.75109660               -6.11607925               -0.48215972                0.84481751               -0.70986430
               5.79174491                4.65659964               56.73975396                1.00000000               -0.47936842               -0.70944437                2.30467423               -0.02955682                0.08585685                1.24889572
               6.78695123                4.28047318               56.48027213                1.00000000               -0.27829602               -0.28153272                0.92103576                0.02933533                0.20893449                0.17787601
               7.78617899                3.90337417               56.22319895                0.80195167                0.12378908                0.14928085               -0.45206572                0.02758517                0.43715427               -0.57655884
               8.78942701                3.52504494               55.96806044                0.00010000                0.45520775                0.59004380               -1.83078142               -0.03216362                3.21953681               -1.20938394
               9.79528315                3.14458053               55.76629839                0.00010000                0.89187008                0.62688363               -3.52291250               -0.67512638                4.69114501                0.96693442
              10.80726441                2.76057383               55.53917552                0.00010000                1.39803899                0.35525597               -4.99186265               -1.26964559                3.15337942                3.60120618
              11.82324393                2.37432191               55.30460867                0.00010000                0.28946026               -0.83771330               -6.32713371               -5.22413437               10.78179842                7.99720715
              12.81305362                1.91836295               55.22796156                0.00010000               -5.10575246               -5.05794684               -1.20592625              -22.25096735               25.81148861                8.50524968
              13.72112888                1.20247744               55.32363328                0.02856087               -9.86171277                4.43131569               -4.38903664              -33.08903796               34.79215313                3.44793362
              14.61581936                0.48802370               55.42773720                0.53685220               -4.92632245                0.57563567               -1.55274544              -17.74574896               16.95261354                0.78246874
              15.62260243                0.13547266               55.20057463                1.00000000                0.67830676                1.00794276               -3.56865157               -0.25974512                0.80992914               -1.62572207
               6.16538617                5.65002705               56.65071772                1.00000000               -0.37508223               -0.59707215                1.94387322               -0.04234093                0.20134832                1.06559859
               7.16163535                5.27814790               56.38625967                0.74615496               -0.17514108               -0.17351799                0.57695251                0.01557112                0.47104814               -0.14445132
               8.16188335                4.90537068               56.12717873                0.21072183                0.22479415                0.26504944               -0.75720964               -0.00126533                1.01758585               -1.07325093
               9.16613123                4.53130179               55.87345184                0.00010000                0.04731072                0.69203254               -2.11952347               -0.59585655                5.67233425               -0.82556416
              10.16282957                4.14643836               55.70723778                0.00010000               -0.01250189                0.22767806               -3.25465943               -1.55057477                9.97375209                2.65861862
              11.16588120                3.75264948               55.54339687                0.00010000                0.51062513               -0.82536809               -4.32701791               -2.99998383               11.78449142                6.99987595
              12.17304207                3.33815908               55.41205738                0.00010000                0.55049081               -3.23867574               -4.48068468               -7.51594184               17.54146072               12.32527701
              13.17689101                2.84956686               55.35543090                0.00010000               -1.91820950               -4.67474738               -4.36589748              -14.90101404               24.73839699                9.57520375
              14.13467788                2.25658112               55.36473049                0.00010000              -10.37773063                3.56552855               -4.01207719              -23.74577367               34.35701364                0.09613285
              14.96933640                1.49078419               55.52046846                0.04353856               -8.12958032               10.03538636                0.04619016               -7.73996076               20.27400607              -14.54154525
              15.97208627                1.14267833               55.28130285                0.61668136                0.27498725                2.37379901               -2.33172467                9.88378300                0.80050598              -14.27213326
               6.53465639                6.64465820               56.55900759                1.00000000               -0.27373694               -0.48138933                1.58661925               -0.04570881                0.11997739                0.81689353
               7.53191902                6.27700282               56.28762135                0.45930020               -0.08282973               -0.05457373                0.20322851                0.02058716                0.51756014               -0.49776412
               8.53299980                5.90867516               56.02414817                0.02253166                0.22615890                0.39206356               -1.10668005               -0.00070431                2.18575292               -1.63536499
               9.53644220                5.53888559               55.78595288                0.00010000                0.49620841                0.51142245               -2.05079000               -0.68919667                9.65344282                2.86668164
              10.54292397                5.14913409               55.67248679                0.00010000                0.95509068                0.10809182               -3.21733344               -1.37242145               15.44323026                3.66359470
              11.55554401                4.74406647               55.55089160                0.00010000                1.65418699               -0.94814317               -4.03458473               -2.48652198               16.63178782                5.77928970
              12.57600771                4.30954839               55.45701815                0.00010000                2.05336417               -2.36796487               -4.56249880               -5.23140851               20.41366887                6.66913374
              13.59661130                3.82486800               55.40247781                0.00010000                1.44941863               -1.92402983               -4.82564561               -9.61774088               24.54864230                4.16687797
              14.60499608                3.27378801               55.38526747                0.00010000               -1.08441820                1.98212876               -4.92117788              -11.50221130               23.95236583               -1.64261561
              15.57492293                2.68873143               55.31623142                0.07516180               -4.42531355               14.87849975               -5.89555046               -0.90700384               14.46937264              -16.00334221
              16.51648981                2.18294864               55.11668610                0.63378807               -5.84331267                9.20084151               -6.61430547                2.74769358                7.15918552              -19.13133822
               6.89978274                7.64039926               56.46493901                0.96096566               -0.17526099               -0.37826255                1.24327311               -0.03825083                0.03403636                0.68844614
               7.89803013                7.27705642               56.18651679                0.34589365                0.01018790                0.05494891               -0.11076503                0.03199843                0.46454923               -0.60152470
               8.89998650                6.91321195               55.91666978                0.00010000                0.69291195                0.50176338               -1.43700202               -0.28470007                6.86484430               -1.94085959
               9.91188837                6.54153024               55.76592225                0.00010000                1.51068817                0.28279822               -2.42866549               -0.71138924               14.09021347                3.55859171
              10.93020026                6.14860019               55.64131201                0.00010000                2.19240418               -0.14777748               -3.37937555               -1.63111648               17.02307106                3.29309921
              11.95573645                5.73368661               55.54703114                0.00010000                2.87060500               -0.94865540               -4.18736147               -2.85529745               19.85085612                4.09405958
              12.98761236                5.29079978               55.47432761                0.00010000                3.22800595               -1.49213874               -4.80808544               -5.02586871               22.51867192                4.09632715
              14.02029657                4.81108627               55.42581997                0.00010000                2.65789295               -0.78094410               -5.32433295               -7.68268095               24.78416130                2.46212479
              15.04077022                4.29622369               55.38972153                0.00010000                1.08695628                2.42346697               -6.07018846               -8.06714528               25.32104877               -0.68366777
              16.04203570                3.78835418               55.34393692                0.10818942               -0.10822456                7.66202096               -8.46215786               -3.13516979               15.32238242                0.09740280
              17.03860573                3.32669516               55.10294361                0.64233451               -0.34299683               10.91155606               -8.12496802                2.50827934                5.05584336               -5.57105957
               7.26057705                8.63709295               56.37056232                0.92882223               -0.08307445               -0.28724398                0.94283766               -0.03789345                0.04296800                0.71166465
               8.25974630                8.27810180               56.08591510                0.29781748                0.11274672                0.14931427               -0.41940026                0.03348934                0.36197462               -0.57495658
               9.26283198                7.91871043               55.80763399                0.00010000                1.35399337                0.59643542               -1.74753674               -0.60938694                9.24924485               -2.03733274
              10.28682617                7.54454156               55.70011281                0.00010000                2.76566391                0.26982759               -2.80854246               -1.26717455               18.51319968                0.59807621
              11.31814526                7.14617854               55.60717928                0.00010000                3.47061531               -0.27227155               -3.73068368               -2.22453415               20.33289066                2.24893124
              12.35623848                6.72509336               55.53383223                0.00010000                3.99727087               -0.76697922               -4.50662295               -3.27209337               22.55014589                2.89808222
              13.39809068                6.27970562               55.48080900                0.00010000                4.06476448               -0.82638287               -5.14075073               -4.71375665               24.72115192                3.10395953
              14.43753377                5.80924912               55.44466158                0.00010000                3.41472874                0.09444117               -5.69340310               -6.06130281               26.58889543                2.68337740
              15.46638525                5.32225735               55.42224052                0.00010000                2.21071511                2.23594446               -6.27679197               -5.66742672               28.95835278                2.10829072
              16.48174807                4.84197185               55.42879263                0.15578368                1.17940937                3.96695582               -6.64280561               -2.21939275               16.58932656                3.86600504
              17.48997344                4.40117976               55.15528428                0.65806097                0.82253713                5.15509367               -5.73230061                0.32996294                2.67913347                0.60647755
               7.61700716                9.63465438               56.27689548                0.91129984                0.00752789               -0.20386403                0.64883238               -0.04054552                0.02006256                0.75380320
               8.61708244                9.28004271               55.98555040                0.28670995                0.21759249                0.23874243               -0.71752607                0.03569030                0.25928642               -0.56623170
               9.62135901                8.92514066               55.69894153                0.00010000                2.09971646                0.68348884               -2.04380361               -1.03026253               11.18173712               -2.03567798
              10.65907677                8.54692679               55.62528500                0.00010000                4.18993848                0.14738856               -3.19790655               -1.96781292               22.36288971               -0.11424815
              11.70515778                8.14315476               55.56188177                0.00010000                4.88453713               -0.42234065               -4.13721510               -2.67885468               23.75785400                1.23147712
              12.75676751                7.71834703               55.51410908                0.00010000                5.20118452               -0.70415402               -4.87243653               -3.19712675               25.65264866                2.11809365
              13.80918147                7.27427212               55.48509608                0.00010000                4.98756358               -0.49037927               -5.38544472               -3.83519689               27.63178120                2.89170168
              14.85651878                6.81297509               55.47240775                0.00010000                4.27587434                0.31992878               -5.70436033               -4.34527192               29.15436488                4.12026111
              15.89469895                6.34094258               55.46898856                0.03172927                3.11033285                1.36670850               -5.68951749               -4.18871703               30.73645135                5.21788736
              16.91872544                5.86769330               55.48300946                0.21121409                1.60451084                1.91507718               -3.75057159               -1.82218348               16.26606038                2.50727582
              17.92678917                5.42979704               55.18777212                0.67321258                0.80637342                2.06705694               -3.59108010               -0.10450449                0.95015880                0.28726612
               7.96898948               10.63301567               56.18332467                0.90953339                0.09843538               -0.12367721                0.35897239               -0.04402663                0.00880695                0.74640338
               8.96997383               10.28287665               55.88531847                0.30910916                0.31765859                0.32941015               -1.02086303                0.02915688                0.18728860               -0.56047715
               9.97534265                9.93238020               55.59081468                0.00010000                2.97409866                0.74811326               -2.33877680               -1.61519281               12.95968675               -1.79702911
              11.02945581                9.54748933               55.54746903                0.00010000                5.89026380               -0.25971901               -3.58018758               -2.69925572               25.91774359               -0.26083366
              12.09314793                9.13773173               55.51083685                0.00010000                6.58613865               -0.89129939               -4.53105628               -2.64985680               27.10103127                0.73717596
              13.16117858                8.71101028               55.48880099                0.00010000                6.68053758               -0.89644001               -5.19462492               -2.52555570               29.07115124                1.53347429
              14.22675868                8.26989803               55.48831013                0.00010000                6.13896447               -0.61881288               -5.47866323               -2.52329734               31.67123340                2.65296541
              15.28395787                7.81564769               55.51448068                0.00010000                5.05670101               -0.08696847               -5.13733983               -2.54377038               33.41238843                5.00992997
              16.32789270                7.34959152               55.54497391                0.08064392                3.62460383                0.25153037               -4.45724021               -2.51098819               30.47511819               10.96329094
              17.35644995                6.88027339               55.50821947                0.26939629                1.78915916                1.05510861               -2.59379182               -1.54366071               13.75956124                1.01744320
              18.36367588                6.44252090               55.20120120                0.68337048                0.72259367                1.03669512               -2.66199462               -0.00712651                0.29230718               -0.69744575
               8.31640465               11.63218084               56.08950464                0.87148456                0.18963831               -0.04093624                0.06591991               -0.04735954                0.01810328                0.63946267
               9.31830104               11.28663091               55.78510327                0.32837765                0.40189120                0.42177496               -1.33149112               -0.00208839                0.34965200               -0.49956956
              10.32444248               10.94010292               55.48724558                0.00010000                4.07195464                0.78631939               -2.64210527               -2.52325588               14.73800671               -1.12898358
              11.39974013               10.54173241               55.46976212                0.00010000                8.20986071               -1.59006586               -3.91525045               -2.63299768               29.11602878               -0.09303820
              12.48863969               10.12532877               55.45587921                0.00010000                8.71749804               -1.55710055               -4.84877260               -1.82525587               30.26393394                0.40668199
              13.57409009                9.70041823               55.45679516                0.00010000                8.27192062               -1.31854090               -5.42035240               -1.33954034               32.54757533                0.87424242
              14.65407810                9.26189587               55.48440918                0.00010000                7.59298957               -1.04467344               -5.43211686               -1.20705374               36.06807790                1.68638234
              15.72594988                8.81123572               55.55148885                0.00010000                6.28876935               -0.91974168               -4.48368468               -1.28395925               41.99174364                3.71691699
              16.77985349                8.34597319               55.69239481                0.15407061                3.44864836               -0.31802798               -1.06487690               -0.96443671               30.29569155                9.28833774
              17.79492285                7.88879547               55.52106469                0.35159462                1.11490716                0.80970062               -2.49744402               -0.89075338                7.30509479                0.45358732
              18.80215163                7.45053094               55.20484630                0.68562178                0.72287853                0.74245307               -2.34422610                0.03472876                0.07887270               -0.87211659
               8.65914214               12.63219694               55.99388637                0.93747194                0.28678437                0.00161046               -0.23218763                0.18526939                0.28836035                0.54039807
               9.66200998               12.29131215               55.68590476                0.70256189                0.53169503                0.46812387               -1.64724048                0.16637700                0.99867030               -0.43089651
              10.66977604               11.94810659               55.39202446                0.44922342                6.47800100                0.80036706               -2.95587742               -4.24785104               16.55461512               -0.67408452
              11.79157000               11.51568801               55.39388534                0.36813185               11.40904768               -2.60443994               -4.17037525               -2.89285661               31.93528106                0.00395266
              12.89795699               11.10658972               55.39641972                0.36038082               10.31253401               -1.87390576               -5.02802563               -0.62069754               33.15924180                0.29908259
              13.99782068               10.68463946               55.41493614                0.36661513                9.69215608               -1.57787689               -5.48418383               -0.50619852               35.69605263                0.60248697
              15.09180011               10.24900456               55.46257360                0.38676683                8.81903398               -1.28913024               -5.32792211               -0.59712901               39.84437434                1.11882918
              16.17420136                9.79725286               55.55928276                0.42184273                6.96220492               -1.39828587               -3.93463545               -0.46353203               46.16986817                2.59239727
              17.23104421                9.34323096               55.72918991                0.61424882                2.99378847               -0.27422252               -0.86668887                0.07979936               31.41192461                4.15989722
              18.23407713                8.89646741               55.53137779                0.71655889                0.49276593                0.76719336               -2.48468341               -0.37762206                6.73679879                0.40128510
              19.24089953                8.45736996               55.21318957                0.84321805                0.68223996                0.68390225               -2.20816043               -0.03495513                0.68328120               -0.67452182
               5.28664152                2.77525086               57.95089956                1.00000000               -0.68623172               -0.85305028                2.95456281               -0.26474041               -0.70201838                0.73238934
               6.27977921                2.38423080               57.68144755                1.00000000               -0.49669035               -0.40813395                1.54090345               -0.20150086               -0.89760479                0.11917930
               7.27670772                1.99242185               57.40788111                1.00000000               -0.11915057                0.02260503                0.15144818               -0.20766731               -0.80875754               -0.15027875
               8.27739620                1.59870100               57.13986829                0.63958780                0.13077677                0.50257877               -1.28302271               -0.32866530                0.35261721               -0.69714663
               9.27932325                1.20126731               56.88904883                0.60229942                0.46073207                1.07462412               -2.87117833               -0.31164324                1.45209716                0.02375860
              10.28661084                0.80246088               56.64215625                0.51621055                0.94003920                1.49383202               -4.40360291               -0.29760465                1.56086113               -0.23788354
              11.29812404                0.39985749               56.39283161                0.23974451                0.33123691                2.00049003               -5.90330947               -1.46090961                3.22677526               -0.63615251
              12.29323558               -0.02992516               56.17973680                0.00010000              -12.53896075                2.11542590               -6.37348143              -25.11468704               10.22336954               -0.88312537
              13.04734482               -0.94707846               56.11135059                0.00010000               -9.81883168                7.13542871               -7.64370123              -25.78011916               15.79788568                1.04002179
              14.09685894               -1.66579775               56.09624736                0.63463424                4.43021904                3.18406905              -12.21765285              -16.66753288                9.01185570                1.54712422
              15.13594920               -2.04423472               55.87130886                1.00000000                3.90902608                3.71540947              -13.96932129               -0.87325983               -0.14618573               -1.20111529
               5.67501418                3.76672036               57.85430072                1.00000000               -0.58354778               -0.80616413                2.63929559               -0.03312467               -0.10507004                0.99494019
               6.66917870                3.38014946               57.58477309                1.00000000               -0.38091189               -0.36648195                1.22489119                0.02612546               -0.13153461                0.19082935
               7.66739594                2.99264790               57.31454768                1.00000000                0.02540563                0.06530155               -0.17101404                0.02913148               -0.01833590               -0.27918259
               8.66968682                2.60372679               57.04701967                0.46390424                0.34654693                0.53520791               -1.60678704               -0.04612497                1.63696386               -0.92385053
               9.67432688                2.21201355               56.80953992                0.48328000                0.73264425                1.08650790               -3.26745976               -0.08728656                2.93095725                0.02683346
              10.68433970                1.81739920               56.56655053                0.40287585                1.26905417                1.52752517               -4.81372705               -0.09333738                2.58350649               -0.37295270
              11.69970796                1.41986239               56.32067946                0.08296431                1.56084909                2.01420439               -6.27756834               -1.52274262                5.89536138               -1.00523926
              12.71555668                0.99122909               56.14213347                0.00010000               -4.61140214               -3.03317059               -4.74337680              -26.18807397               20.60088965                5.06134540
              13.60747992                0.12427582               56.18729541                0.00010000              -11.83974698                5.77096563               -5.76717233              -34.84788076               30.23411995                3.16043834
              14.47876174               -0.63395706               56.25367723                0.47877723               -5.09131704                2.56059083               -9.23567006              -18.56366373               14.76261150                2.82314563
              15.50565358               -1.00708063               56.02347303                1.00000000                2.68918385                3.06235651              -10.88640132               -0.67101682                1.62860211               -0.55062192
               6.05912082                4.75912758               57.76282569                1.00000000               -0.47466532               -0.70779668                2.30022425               -0.03275373                0.10446921                1.19896209
               7.05437417                4.37690116               57.48938396                1.00000000               -0.27039042               -0.27669746                0.89966162                0.02528877                0.23663978                0.15870287
               8.05371302                3.99372788               57.21846163                0.79111322                0.13669394                0.15835834               -0.48937727                0.02673617                0.46937689               -0.55909951
               9.05710805                3.60940516               56.94946245                0.00010000                0.50960471                0.60416599               -1.87436524               -0.03286923                3.04461735               -1.14506021
              10.06390511                3.22299747               56.72980206                0.00010000                0.98935995                0.44150239               -3.70684457               -0.81546229                4.47470814                1.23343421
              11.07689525                2.83301139               56.48754256                0.00010000                1.49670912               -0.01520352               -5.25986877               -1.45201534                3.14893263                4.03363722
              12.09383929                2.44014158               56.23961893                0.00010000               -0.59172931               -1.80889525               -6.60345970               -8.67344947               14.41045933                9.02449821
              13.06506066                1.90941142               56.22093275                0.00010000               -5.91329675               -6.93659529               -1.18022041              -26.59408070               28.20623828                7.04240037
              13.97557336                1.16834085               56.28248589                0.00910677              -10.40592725                4.67358324               -4.19524723              -36.42038646               35.77505469                2.70429554
              14.85694212                0.38541407               56.40633701                0.49419939               -5.33986737                1.35879322               -2.96995460              -20.17097792               19.19321691                1.98946766
              15.86877601                0.01701241               56.15436837                1.00000000                1.18338925                1.91369849               -6.02038761               -0.46046317                0.89742146               -1.92211814
               6.43881194                5.75256442               57.67020120                1.00000000               -0.37277663               -0.59436694                1.94718712               -0.04446174                0.22161301                1.01291055
               7.43508417                5.37461551               57.39193839                0.71855394               -0.16926369               -0.17103709                0.55824707                0.01549774                0.51041819               -0.18706790
               8.43542667                4.99581507               57.11938338                0.19158946                0.23378379                0.27385965               -0.79705850                0.00341218                1.06332194               -1.07518691
               9.43975985                4.61581011               56.85200571                0.00010000               -0.05076270                0.66968077               -2.15792604               -0.82555392                5.80535312               -0.56538088
              10.43441141                4.22084360               56.67417437                0.00010000               -0.08022831               -0.19441134               -3.31320047               -2.05142607               10.22596123                3.05240453
              11.43815528                3.81709513               56.49933227                0.00010000                0.77137632               -1.68294572               -4.43245043               -3.88075377               12.57861513                7.62051557
              12.44983894                3.38368448               56.36692144                0.00010000                0.86602574               -4.87259541               -4.56491959               -9.84771245               19.08411663               13.00026107
              13.45547580                2.85249719               56.31136205                0.00010000               -2.33846954               -4.15001058               -4.50070934              -17.28452249               26.77676205                6.51511683
              14.40306955                2.21774749               56.32688365                0.00010000              -11.44025863                3.43306989               -3.87599548              -26.99965150               38.33383238               -2.06997649
              15.22667062                1.39321881               56.51821166                0.04836346               -8.49109520               11.07435499               -0.97559453               -9.13949695               23.76002621              -18.17176880
              16.23324764                1.03119334               56.25070764                0.63752100                0.65770182                2.65808777               -4.18162592               10.21802380                1.35032543              -17.95490108
               6.81412941                6.74724024               57.57492652                1.00000000               -0.26959338               -0.47532918                1.58415786               -0.04774571                0.10984397                0.77662590
               7.81143348                6.37348042               57.28953880                0.43946372               -0.07713774               -0.05682201                0.18376724                0.02715221                0.54691613               -0.52600585
               8.81258666                5.99920508               57.01282178                0.00817081                0.20674818                0.39292034               -1.14993140               -0.01763286                2.47309164               -1.65626416
               9.81556844                5.62279878               56.76582168                0.00010000                0.45024539                0.25022210               -1.92501321               -1.13995482                9.95300583                2.96796867
              10.82159157                5.21910924               56.63991248                0.00010000                1.04354208               -0.34313368               -3.25125188               -2.07492979               15.76321766                3.68327635
              11.83643929                4.79935247               56.50980980                0.00010000                1.99457098               -1.76824591               -4.14014271               -3.52102730               17.33434261                5.72364701
              12.86148299                4.34268967               56.41024594                0.00010000                2.44339621               -3.34217249               -4.76333048               -7.14781533               21.47391095                6.00284968
              13.88530721                3.82641121               56.35271681                0.00010000                1.66878606               -2.15071423               -5.14849315              -12.21705447               25.89666000                2.64358535
              14.89485871                3.23700225               56.33351520                0.00010000               -1.23004429                2.28364110               -5.45316185              -14.05968270               25.11237836               -4.54131328
              15.86070632                2.60690117               56.25581619                0.06750895               -4.88356446               16.35202574               -6.23228845               -2.40725517               15.18348230              -22.58900476
              16.79718742                2.07017416               56.04499264                0.64387409               -6.35189049               10.17150244               -7.60145452                1.49620794                8.15351154              -24.34158819
               7.18537666                7.74305784               57.47748015                0.94471004               -0.17142843               -0.37154392                1.25395985               -0.04089776                0.04039605                0.68214410
               8.18366238                7.37347907               57.18528863                0.33370085                0.01894931                0.04595993               -0.13206650                0.04165892                0.48861068               -0.59911784
               9.18575565                7.00367348               56.90200317                0.00010000                0.66971051                0.47865749               -1.49267730               -0.51131266                7.07194584               -1.95346513
              10.19705659                6.62081455               56.74115137                0.00010000                1.53017354               -0.07827224               -2.47799451               -1.33066344               14.44826380                3.27119913
              11.21635912                6.21398092               56.60686808                0.00010000                2.35488585               -0.56970644               -3.46363479               -2.49887926               17.43880468                2.96683998
              12.24415431                5.78173021               56.50395160                0.00010000                3.17323849               -1.53557499               -4.38415994               -4.14738951               20.40172009                3.54930508
              13.27982389                5.31684103               56.42427418                0.00010000                3.63339119               -2.03650633               -5.16917190               -6.92616548               23.20138541                3.15907850
              14.31682213                4.80948290               56.36933950                0.00010000                3.07810224               -0.93842410               -5.95199717              -10.05663383               25.37545079                0.90107591
              15.34138594                4.26342031               56.32368893                0.00010000                1.42657368                2.97305050               -7.15965815              -10.79971051               24.87721101               -3.10987565
              16.34535360                3.72025932               56.24946547                0.08110158               -0.23800600                9.74134916              -10.01892525               -5.21161625               15.43729587               -3.49065588
              17.33662582                3.23462339               56.00873950                0.63487230               -0.87277886               14.32343446              -10.63001462                1.30567106                6.78818126               -8.86637048
               7.55246900                8.73980936               57.38014836                0.91710751               -0.08179744               -0.28287485                0.97087756               -0.04012749                0.03838085                0.73376190
               8.55165102                8.37439962               57.08158562                0.28949945                0.12779633                0.13682593               -0.44369407                0.03998889                0.37931020               -0.57276080
               9.55502492                8.00877823               56.78981211                0.00010000                1.34983526                0.54988332               -1.81647265               -0.93882657                9.41251082               -2.05132093
              10.57864773                7.62123333               56.67131721                0.00010000                2.78366985                0.07677171               -2.92130179               -2.02960819               18.80809254                0.25722564
              11.61069832                7.20771511               56.56870483                0.00010000                3.59918278               -0.55943737               -3.92344003               -3.25075231               20.68755447                1.69160909
              12.65063138                6.76864097               56.48692332                0.00010000                4.22543332               -1.08686893               -4.83308633               -4.66949440               22.95029011                2.12928493
              13.69520699                6.30195954               56.42648693                0.00010000                4.34819372               -1.04089275               -5.69162124               -6.52402687               25.12225742                2.06380857
              14.73759526                5.80764273               56.38318927                0.00010000                3.64405460                0.25131404               -6.60475344               -8.15457736               26.86573714                1.32168481
              15.76808808                5.29646326               56.35198490                0.00010000                2.38378296                3.13512324               -7.80634188               -7.40487721               28.94299261                0.61820060
              16.78527092                4.80172815               56.34648171                0.12016305                1.32423130                6.45875191              -10.70083427               -3.05905525               17.82036450                3.87341292
              17.79457271                4.35664285               56.08707999                0.64183047                0.93017878                8.65118022               -9.23888874                0.37271816                5.28501588                0.69730864
               7.91539360                9.73740034               57.28353819                0.90290845                0.00996929               -0.20183171                0.67714631               -0.04239242                0.01913730                0.78256569
               8.91549329                9.37621559               56.97819220                0.27812985                0.23759025                0.23058935               -0.75104173                0.03132173                0.28028760               -0.56807975
               9.92014540                9.01467114               56.67802358                0.00010000                2.10171250                0.64318053               -2.13975588               -1.40606495               11.29496766               -2.06862444
              10.95752754                8.62234999               56.59222502                0.00010000                4.18955157                0.08633890               -3.39653659               -2.78723300               22.55448276               -0.49986589
              12.00393644                8.20279218               56.51879147                0.00010000                4.94962226               -0.51575096               -4.45021968               -3.71968993               24.01708415                0.60654392
              13.05651999                7.75999284               56.46282010                0.00010000                5.32025800               -0.77295684               -5.35224592               -4.51264461               25.93865100                1.29593250
              14.11034160                7.29602318               56.42745909                0.00010000                5.13534412               -0.40856548               -6.13184423               -5.36745447               27.90315569                1.93664893
              15.15922687                6.81450919               56.40970023                0.00010000                4.44306867                0.73258801               -6.88392510               -5.80993898               29.45366299                3.29670806
              16.19920297                6.32612277               56.40405526                0.01604440                3.23830167                2.37039435               -7.57385141               -4.82048029               32.07281449                4.78109920
              17.22399290                5.84943436               56.43839363                0.17573448                1.75239060                3.41570897               -6.26819094               -1.85670829               17.88356745                3.99262775
              18.23425078                5.40764699               56.14778921                0.65204896                1.02578779                3.50744870               -5.11028637               -0.17932114                2.06411689                1.54144676
               8.27399066               10.73577273               57.18706507                0.90206250                0.10160023               -0.12506998                0.38814545               -0.04639079                0.00884366                0.77894548
               9.27500666               10.37901141               56.87487044                0.29665676                0.33892855                0.33142908               -1.06616697                0.01498336                0.21603857               -0.57328081
              10.28076923               10.02164184               56.56676222                0.00010000                2.98876883                0.74531256               -2.48250145               -1.98444714               13.03634491               -1.85671457
              11.33478204                9.62296011               56.51017088                0.00010000                5.89462234               -0.20541553               -3.87980621               -3.45214709               26.02154310               -0.60902578
              12.39866167                9.19740009               56.46323511                0.00010000                6.61827264               -0.82139755               -4.97522245               -3.55096071               27.28901814                0.18139411
              13.46714749                8.75318184               56.43358728                0.00010000                6.73399373               -0.75518331               -5.83578606               -3.56772786               29.31452684                0.82063036
              14.53334155                8.29378823               56.42897509                0.00010000                6.20746982               -0.32342468               -6.41820704               -3.59626179               32.10279269                1.92021765
              15.59129689                7.82229449               56.45721938                0.00010000                5.17058744                0.44293704               -6.46454835               -3.34642361               34.04346161                4.70811821
              16.63675330                7.34387114               56.49337906                0.07614197                3.76578233                0.90416047               -6.30741827               -2.70367196               32.02671570               12.60175889
              17.66661253                6.87004233               56.48007051                0.24115537                1.89038589                1.57453384               -3.30593416               -1.48901154               15.01043433                1.49544028
              18.67456102                6.42679183               56.17367142                0.65832043                0.79484844                1.41948604               -3.08378369               -0.09659461                0.51427529               -0.00736640
               8.62798843               11.73489894               57.09032626                0.86263493                0.19354230               -0.04750537                0.09865329               -0.04898228                0.01972635                0.66998971
               9.62992385               11.38284417               56.77148906                0.31072008                0.42596648                0.43412136               -1.38892104               -0.01486460                0.38892509               -0.52086506
              10.63650776               11.02957739               56.45996713                0.00010000                4.14012485                0.81810741               -2.84969649               -2.84566305               14.82017040               -1.19346408
              11.71272635               10.61824168               56.42875960                0.00010000                8.30938706               -1.50930529               -4.30757929               -3.14347868               29.20355881               -0.29590150
              12.80269550               10.18636422               56.40464902                0.00010000                8.80254715               -1.39646178               -5.40611314               -2.38797628               30.44952407                0.07128450
              13.88877729                9.74488917               56.39878476                0.00010000                8.33041038               -1.04744854               -6.20009127               -1.93037659               32.84747394                0.43843685
              14.96930370                9.28955469               56.42508405                0.00010000                7.67190991               -0.62927579               -6.52688744               -1.74720007               36.75366919                1.27471060
              16.04221549                8.82336793               56.50090642                0.00010000                6.40389917               -0.39536377               -5.85746009               -1.69930897               44.18902006                3.72119430
              17.09738169                8.34420598               56.67886556                0.17107457                3.45382510                0.13057525               -2.02398038               -1.10339984               31.12156577               10.68261921
              18.11129199                7.88092504               56.49485741                0.34060078                1.07191070                0.96931149               -2.78120178               -0.83881296                6.59728853                0.33114058
              19.11881990                7.43603672               56.18181530                0.65788884                0.75279129                0.79081057               -2.35573762                0.00490348                0.20866434               -0.57628042
               8.97712056               12.73482262               56.99173124                0.93215309                0.29103612               -0.00763251               -0.19687397                0.20033440                0.29855906                0.56807939
               9.98003092               12.38769383               56.66909476                0.69331781                0.56689528                0.48496607               -1.71113907                0.16977517                1.05584550               -0.45592989
              10.98845846               12.03800398               56.36153453                0.44710564                6.75473571                0.84265908               -3.18870484               -4.55092071               16.69549858               -0.71840635
              12.11512563               11.59277401               56.35022541                0.36796850               11.78980974               -2.54676719               -4.59935592               -3.18672786               32.14089610               -0.03336745
              13.22425466               11.16947086               56.34327880                0.36040855               10.51119322               -1.68933694               -5.63264163               -0.87114101               33.49886252                0.19037598
              14.32534950               10.73223286               56.35618125                0.36639464                9.78320677               -1.26563051               -6.31865576               -0.75618620               36.17153237                0.46080916
              15.41991879               10.28120272               56.40429112                0.38579095                8.86549561               -0.83519694               -6.46853570               -0.83077368               40.85324012                1.03273451
              16.50265941                9.81438722               56.51487434                0.41959337                6.86046987               -0.89807106               -5.20372875               -0.69161129               48.34838751                2.99604356
              17.55712819                9.34648265               56.71750085                0.62935996                2.76730661                0.22766643               -1.67612463               -0.27328245               31.68822041                3.89620719
              18.55800554                8.88942856               56.50590301                0.71611915                0.36537705                0.85035243               -2.58668795               -0.52237535                5.80892787                0.22859397
              19.56443573                8.44260804               56.19220508                0.82824348                0.64301901                0.65713217               -2.04868800               -0.12046959                0.67811029               -0.45218630
               5.55635744                2.88062401               58.98032076                1.00000000               -0.67411953               -0.84353970                2.91943282               -0.26457964               -0.66568310                0.70918949
               6.54961624                2.48365738               58.69670233                1.00000000               -0.48254274               -0.39986496                1.50705254               -0.20213972               -0.84665591                0.11496505
               7.54670658                2.08592264               58.40918624                1.00000000               -0.10111684                0.02982461                0.11440522               -0.20688439               -0.77008859               -0.13977328
               8.54759391                1.68635265               58.12678433                0.63108906                0.15508528                0.50770829               -1.32047923               -0.33881939                0.28079272               -0.66717534
               9.54980829                1.28287827               57.85994361                0.58385812                0.48319687                1.08058526               -2.92491469               -0.32678495                1.30871648               -0.00938764
              10.55725784                0.87753500               57.59761414                0.48663680                0.92596785                1.51639905               -4.47227674               -0.34536829                1.44462877               -0.29267965
              11.56832765                0.46739443               57.33325604                0.19017589               -1.14980821                2.06268056               -5.96508376               -3.55493181                3.67727666               -0.64965819
              12.53426168               -0.01218468               57.11635800                0.00010000              -15.91456682                2.29414338               -5.94457366              -28.35188439                8.03514807               -2.10752072
              13.25003631               -1.02205538               57.03371482                0.00010000              -11.03132670                8.20836499               -7.45017006              -29.61742420               12.78166000                1.64757659
              14.31363514               -1.82297661               56.95222770                0.59599111                5.78293008                4.86213448              -15.82026414              -20.02362121                6.52778788                2.46349796
              15.36569491               -2.22789992               56.70614147                1.00000000                5.20597658                5.63474469              -18.33571482               -0.54586921               -0.78263158               -0.87245449
               5.95067827                3.87218861               58.88058781                1.00000000               -0.57327439               -0.79728029                2.60864747               -0.03497247               -0.08695282                0.96689079
               6.94494553                3.47965873               58.59688561                1.00000000               -0.36940853               -0.35877187                1.19542591                0.02320596               -0.10127536                0.18386952
               7.94329010                3.08622089               58.31265997                1.00000000                0.03911864                0.07169167               -0.20095551                0.02762328                0.00009359               -0.27009553
               8.94572790                2.69142974               58.03074231                0.46544057                0.38295832                0.54025200               -1.63518308               -0.05758748                1.50508697               -0.87205621
               9.95094927                2.29368412               57.77638308                0.47720372                0.79090877                1.08682460               -3.32812086               -0.09209183                2.71054227               -0.04469135
              10.96154608                1.89269899               57.51758747                0.38708342                1.33444497                1.54649182               -4.92446123               -0.12472611                2.43230331               -0.46115319
              11.97763817                1.48802124               57.25679554                0.05100451                1.69608324                2.05877280               -6.43008484               -3.61034797                7.58392050               -1.00298023
              12.99546774                1.01075675               57.10016061                0.00010000               -5.91900675               -4.89164743               -3.34012890              -31.39716146               21.88886737                4.34485211
              13.85925803                0.06002827               57.12741528                0.00010000              -13.95732689                6.95152463               -6.06531354              -39.19613076               27.34150126                3.32352639
              14.71632120               -0.77435527               57.13332750                0.35581909               -4.70492538                4.31276205              -15.97714919              -20.87073306               12.85639325                6.61968945
              15.76515952               -1.17155247               56.88394633                1.00000000                4.88383214                4.88478009              -18.28117720               -0.78005818                2.52216135                1.76246233
               6.34071775                4.86467840               58.78575845                1.00000000               -0.46696706               -0.70020922                2.27802502               -0.03635675                0.12155346                1.16006449
               7.33604808                4.47648194               58.49826536                1.00000000               -0.26148568               -0.27035158                0.87498869                0.01970401                0.26236102                0.14066121
               8.33548804                4.08735648               58.21341140                0.77604837                0.14654219                0.16429506               -0.51506409                0.02340580                0.50449951               -0.54839586
               9.33897893                3.69715769               57.93057313                0.00010000                0.56045804                0.61026052               -1.89044903               -0.05111582                2.83355591               -1.08268151
              10.34669720                3.30461476               57.69216150                0.00010000                1.07236362                0.18459545               -3.76809730               -0.98099464                4.14688934                1.55801406
              11.36042620                2.90846483               57.43397814                0.00010000                1.56828603               -0.49532209               -5.37540375               -1.64422564                3.04970686                4.57830596
              12.37806292                2.50856989               57.17253948                0.00010000               -1.30573913               -3.02419781               -6.73454907              -12.67130087               17.60729657               10.21486249
              13.33431142                1.88998237               57.20435715                0.00010000               -6.34186047               -8.13358045               -2.39019039              -31.72992343               31.59442309                6.34715286
              14.25122571                1.11697511               57.23972833                0.00010000              -10.32550949                5.20620052               -4.71902093              -39.57284249               37.07408308                2.29195464
              15.12780123                0.26327863               57.36833811                0.46136410               -5.33687792                2.61124520               -4.23421685              -22.13938525               20.99287752                5.87997344
              16.14448815               -0.13020432               57.08016687                0.98297938                1.66869272                3.22542538               -8.19502340               -0.90122997                0.41181749                0.19797948
               6.72634406                5.85818443               58.68966146                1.00000000               -0.36825269               -0.58833189                1.93553227               -0.04772574                0.23713846                0.96398456
               7.72266153                5.47425170               58.39742461                0.69199869               -0.16307983               -0.16747384                0.53884128                0.01181827                0.54501220               -0.22854938
               8.72308246                5.08950679               58.11123756                0.16998468                0.23928848                0.27868062               -0.82669606                0.00369838                1.11646441               -1.08539752
               9.72744730                4.70363495               57.83029332                0.00010000               -0.15301145                0.59708085               -2.17027258               -1.13490388                5.95910126               -0.21186106
              10.72002224                4.29737603               57.64097377                0.00010000               -0.13704363               -0.72544241               -3.28284138               -2.66697069               10.50842891                3.54673199
              11.72470643                3.88279254               57.45474786                0.00010000                1.13361892               -2.72723826               -4.43579466               -4.91837704               13.40301329                8.39154618
              12.74269461                3.42753728               57.32075899                0.00010000                1.38788082               -6.81586224               -4.67984441              -12.50957048               20.70397013               13.84435105
              13.75246405                2.84808514               57.26541671                0.00010000               -2.40948457               -3.51100524               -4.77203043              -20.32105883               29.03492374                4.17054054
              14.69450492                2.16415228               57.28721058                0.00010000              -11.58755591                3.45906772               -4.29944257              -30.86484776               42.29631841               -3.90971872
              15.52071293                1.27786964               57.50095657                0.06234880               -8.02020538               12.12094505               -3.14102471              -11.59411682               27.08305506              -20.71732369
              16.53410082                0.89295603               57.19767033                0.66718934                1.33878855                3.41446646               -6.78030845                9.34458926                2.04514237              -20.48526547
               7.10762870                6.85291177               58.59069074                0.98329202               -0.26666147               -0.46820618                1.58099896               -0.04644809                0.11851709                0.74396472
               8.10496209                6.47313246               58.29129669                0.41936965               -0.07249709               -0.06122207                0.17169044                0.03180584                0.58254052               -0.55765946
               9.10617876                6.09293009               58.00114954                0.00010000                0.17247639                0.38227624               -1.17697106               -0.07764694                2.87311612               -1.69229204
              10.10841161                5.70909931               57.74745262                0.00010000                0.40107154               -0.10881315               -1.68615842               -1.71413754               10.28889982                3.00837723
              11.11420019                5.29010591               57.60746175                0.00010000                1.17428949               -0.91156908               -3.20112653               -2.95126810               16.01821432                3.73965398
              12.13189740                4.85392007               57.46808874                0.00010000                2.41893633               -2.76166750               -4.16847732               -4.80974709               18.03817148                5.72344540
              13.16257892                4.37225264               57.36175154                0.00010000                2.96889191               -4.48984586               -4.91335369               -9.53001204               22.51652145                5.41895170
              14.19127524                3.81976226               57.29950795                0.00010000                2.07826737               -2.47249064               -5.51452575              -15.50846900               27.25016271                1.22077178
              15.20414426                3.18615647               57.27620423                0.00010000               -1.20800521                2.57020970               -6.09843590              -17.51905915               26.60573202               -7.47656090
              16.16711514                2.50569753               57.19158565                0.06379410               -5.14685618               17.50029559               -6.46774949               -5.15266738               16.24822046              -28.77867490
              17.10120714                1.93808501               56.96465701                0.65793405               -6.59079974               10.71621827               -8.46820359               -0.67522846                9.03023242              -29.25369922
               7.48497370                7.84882030               58.49001821                0.93011586               -0.16943746               -0.36008087                1.26657883               -0.03723249                0.05888381                0.70131889
               8.48327933                7.47302726               58.18387546                0.32148233                0.02944889                0.03052763               -0.14835130                0.05193412                0.51367547               -0.60708445
               9.48556268                7.09715232               57.88681623                0.00010000                0.63547030                0.43667511               -1.53386690               -0.81983643                7.31681553               -1.99733091
              10.49598873                6.70145868               57.71636236                0.00010000                1.53067186               -0.52434468               -2.44396009               -2.11619918               14.87051035                2.84266178
              11.51617612                6.27914465               57.57203931                0.00010000                2.51880105               -1.10092869               -3.46004679               -3.59047204               17.85192333                2.61200631
              12.54636475                5.82755919               57.45934794                0.00010000                3.50380302               -2.25547551               -4.49202716               -5.79197530               20.91091171                3.02158183
              13.58625218                5.33774037               57.37094418                0.00010000                4.10130449               -2.72278798               -5.45511953               -9.36164503               23.79705414                2.24579865
              14.62839084                4.79863533               57.30678003                0.00010000                3.59681486               -1.22200884               -6.53073537              -13.20542988               25.78891855               -0.66814920
              15.65818847                4.21555648               57.24652836                0.00010000                1.86700973                3.40492804               -8.15633423              -14.64756935               24.45628602               -5.75284434
              16.66573104                3.62787555               57.14355841                0.05356400               -0.11835974               11.24072103              -10.77507180               -8.61654717               15.12242898               -8.75381327
              17.65582128                3.10728040               56.89034332                0.62889451               -0.99097591               16.89956049              -12.27192006               -1.39601178                7.50001182              -13.08297445
               7.85847015                8.84571015               58.38997988                0.90669495               -0.08013909               -0.27156597                0.98865213               -0.04130441                0.03008394                0.77275260
               8.85766876                8.47374302               58.07704122                0.28114779                0.14402273                0.11845183               -0.46127311                0.04384532                0.39184301               -0.58380443
               9.86135060                8.10166359               57.77130454                0.00010000                1.32132719                0.48328702               -1.87684536               -1.37338684                9.58775621               -2.11276373
              10.88409530                7.69861242               57.64168677                0.00010000                2.74698177               -0.16914431               -2.97990155               -3.00832253               19.13411941               -0.16320750
              11.91629024                7.26808734               57.52871048                0.00010000                3.66834385               -0.91946465               -4.03119952               -4.55368014               21.04133029                1.07665927
              12.95746218                6.80881056               57.43717051                0.00010000                4.39898221               -1.49787387               -5.06251356               -6.48911475               23.29281656                1.33422207
              14.00426988                6.31779688               57.36697657                0.00010000                4.59441783               -1.36117131               -6.15230888               -8.96880947               25.37710476                0.97825499
              15.04935053                5.79532209               57.31256651                0.00010000                3.88413880                0.31219019               -7.46229216              -11.14684186               26.87684570               -0.20356290
              16.08195266                5.25425503               57.26611368                0.00010000                2.68548675                3.98069671               -9.40451971              -10.77683833               27.44161942               -1.34570445
              17.10306027                4.73051195               57.21477594                0.08005622                1.62622697                9.30407584              -14.88815595               -5.56235060               18.15540535                2.30428017
              18.11447720                4.27607622               56.97050650                0.62580000                1.14169283               13.33770730              -14.99232433               -0.77062013                8.87654126               -0.58102995
               8.22808188                9.84338899               58.29043841                0.89491074                0.01209143               -0.19518254                0.69937888               -0.04499611                0.01731553                0.81913847
               9.22820279                9.47539629               57.97052957                0.26970544                0.25718338                0.21855780               -0.77730331                0.01788833                0.29538161               -0.58737635
              10.23322554                9.10681806               57.65614641                0.00010000                2.05978744                0.58193850               -2.23800155               -1.89509977               11.38928462               -2.17846515
              11.26939854                8.69807580               57.55735427                0.00010000                4.08394152                0.00809042               -3.56294580               -3.83721164               22.74562260               -0.99159672
              12.31490437                8.26075535               57.47287738                0.00010000                4.87371854               -0.62926382               -4.69132559               -5.06262134               24.26701893               -0.10415380
              13.36687291                7.79760172               57.40706416                0.00010000                5.27300425               -0.86761636               -5.73725286               -6.29857255               26.14022604                0.39362755
              14.42036446                7.31051694               57.36245920                0.00010000                5.10614766               -0.35597343               -6.80886931               -7.59050178               27.95161244                0.83193753
              15.46899586                6.80487913               57.33472925                0.00010000                4.35486934                1.16408906               -8.09944975               -8.21369656               29.28105088                2.15566331
              16.50746185                6.29517041               57.31751153                0.00010000                3.18334858                3.62806887               -9.68032554               -6.36494174               32.45350959                3.67594457
              17.53266283                5.81395706               57.35764564                0.13083553                2.09092434                6.16032350              -12.03955545               -2.39149287               19.87889863                6.07182416
              18.54928033                5.37403455               57.08556639                0.62994301                1.66174977                6.61356328               -9.59030346               -0.37813335                5.30489413                3.40900226
               8.59355561               10.84180650               58.19108758                0.89521665                0.10418418               -0.12372628                0.41381716               -0.04964713                0.00731469                0.82284496
               9.59459745               10.47811417               57.86399513                0.28465325                0.36067456                0.32964952               -1.10404567               -0.01341300                0.22250681               -0.60602424
              10.60076910               10.11330236               57.54116466                0.00010000                2.94081596                0.73216340               -2.66630136               -2.44950736               13.05575357               -2.03344890
              11.65341377                9.69877423               57.46987290                0.00010000                5.73713947               -0.11579703               -4.19274906               -4.40347092               26.10158431               -1.08799839
              12.71551189                9.25550206               57.41133240                0.00010000                6.41576841               -0.70222870               -5.38041293               -4.73076760               27.45825253               -0.48562697
              13.78172914                8.79145823               57.37208527                0.00010000                6.48352703               -0.55043581               -6.40682783               -5.05465109               29.42726341               -0.01414667
              14.84518243                8.31067742               57.35994599                0.00010000                5.93469964                0.07785553               -7.35279176               -5.30944968               32.20340729                0.95455767
              15.90042313                7.81860387               57.38518972                0.00010000                5.01967300                1.15627610               -8.01281664               -4.84540471               34.05495584                4.02153161
              16.94557589                7.32681641               57.41882554                0.06283098                3.79715713                2.01666859               -9.15391992               -3.20067389               33.82079039               14.21433675
              17.97636628                6.85371842               57.44210079                0.20011905                2.05918369                2.78143585               -5.27865693               -1.36064376               17.02252138                2.99587151
              18.98675957                6.40834749               57.13952553                0.63083529                1.03932904                2.32185606               -4.43569838               -0.38065287                1.28152233                1.32385419
               8.95447358               11.84091446               58.09147770                0.85391456                0.19650840               -0.05289581                0.13055513               -0.05098512                0.01941260                0.71413088
               9.95643867               11.48198928               57.75732485                0.29617748                0.45508811                0.44339872               -1.43930890               -0.03634971                0.37563114               -0.56020845
              10.96357534               11.12146132               57.43025165                0.00010000                4.13453787                0.86506533               -3.16761494               -3.22215802               14.81436335               -1.35937374
              12.03912942               10.69575986               57.38361053                0.00010000                8.20148366               -1.33425858               -4.77494116               -3.77603310               29.26045718               -0.60151951
              13.12760502               10.24671078               57.34775695                0.00010000                8.57375538               -1.11821951               -5.98329474               -3.13501734               30.60479629               -0.35131036
              14.21060453                9.78659300               57.33279333                0.00010000                7.97124052               -0.61977827               -6.95504342               -2.80634298               32.95887445               -0.09845129
              15.28702983                9.31207405               57.35387143                0.00010000                7.26721239                0.02838536               -7.73357506               -2.67994764               36.99720383                0.68007286
              16.35594878                8.82800465               57.43433965                0.00010000                6.06519944                0.53170145               -7.75273166               -2.45170117               46.05755747                3.48880717
              17.40833382                8.33550378               57.65191520                0.18057516                3.39850501                0.85340563               -3.98620078               -1.51074103               32.19713980               12.49378772
              18.42391888                7.86958578               57.46544066                0.31638826                1.20376613                1.26148309               -3.18577881               -0.79234644                6.35106804                0.41914509
              19.43240914                7.42047167               57.15773154                0.62689498                0.84902602                0.95995927               -2.72603828               -0.15650974                0.47812010               -0.13551165
               9.31038626               12.84074858               57.98994889                0.92704904                0.29373322               -0.01658784               -0.15888162                0.21462458                0.31672283                0.61025610
              10.31332359               12.48698215               57.65168197                0.68700713                0.60845530                0.49928643               -1.76776195                0.18124713                1.06018387               -0.49702941
              11.32255537               12.13060367               57.32825037                0.44754759                6.96600309                0.91423440               -3.54624079               -4.84665235               16.74204364               -0.81561118
              12.45264366               11.67208905               57.30189822                0.36777964               11.97115165               -2.36708035               -5.15296375               -3.52187674               32.29047103               -0.12544681
              13.56197840               11.23313767               57.28376689                0.36049532               10.37976767               -1.35731097               -6.32413557               -1.21398113               33.78838815                0.03248422
              14.66023901               10.77906266               57.28856302                0.36619178                9.40967128               -0.75303367               -7.20410440               -1.13117945               36.43943708                0.25963919
              15.75017183               10.31124512               57.33320288                0.38476470                8.38601843               -0.08289264               -7.83765114               -1.17703855               41.45620219                0.84834244
              16.82795938                9.82923790               57.45520818                0.41720035                6.18040593                0.12332423               -7.15735630               -1.16697033               50.38557964                3.45931517
              17.87377994                9.34388452               57.69566742                0.64107244                2.37960415                0.83807375               -2.97416614               -0.96987797               32.34740839                3.76582035
              18.87555146                8.87894808               57.47964403                0.70889641                0.40388265                0.93622998               -2.67643955               -0.65363417                5.23728514                0.07214544
              19.88185760                8.42754667               57.17221581                0.81160067                0.63061372                0.70750049               -2.17123823               -0.19529497                0.72952803               -0.16664145
               5.84056471                2.98890054               60.00928822                1.00000000               -0.65841032               -0.82800571                2.86465689               -0.26221679               -0.63503829                0.69039658
               6.83398061                2.58616355               59.71158860                1.00000000               -0.46703774               -0.38997304                1.46759081               -0.20103820               -0.80365738                0.11100882
               7.83122395                2.18267892               59.41016922                1.00000000               -0.08629614                0.03419087                0.08680744               -0.20438559               -0.73925681               -0.13046799
               8.83225468                1.77744153               59.11345870                0.62334493                0.17219088                0.50553331               -1.33261386               -0.34283794                0.19829375               -0.64001082
               9.83466777                1.36820062               58.83055053                0.56666182                0.49681509                1.07012093               -2.93180863               -0.33656542                1.16051799               -0.04627973
              10.84219098                0.95666062               58.55271071                0.45833592                0.91289663                1.51515076               -4.48241360               -0.38253263                1.35538411               -0.35214798
              11.85292570                0.53978533               58.27352993                0.14237029               -4.43556161                2.07340183               -5.94569772               -8.22831709                4.60613580               -0.64493193
              12.75347975               -0.03968078               58.06084532                0.00010000              -19.29086897                2.98077773               -4.36902100              -29.14220635                4.66346801               -4.13751331
              13.46710832               -1.10152786               57.96234719                0.00010000               -9.92458505                8.62606978               -6.84037401              -31.54885793                9.09011997                3.73357181
              14.55498805               -1.97872739               57.77984207                0.58371403                7.26803534                6.10537169              -17.30255868              -23.35123317                3.00778572                2.84397056
              15.61246903               -2.41729354               57.50459456                1.00000000                5.74809803                7.14367522              -20.47125573                0.38239755               -1.55620680               -0.64729167
               6.24067953                3.98062049               59.90647367                1.00000000               -0.55984963               -0.78226628                2.55993366               -0.03699871               -0.07079577                0.94510014
               7.23508103                3.58226382               59.60868160                1.00000000               -0.35692093               -0.34940845                1.16185488                0.01940876               -0.07402095                0.17705878
               8.23354111                3.18302083               59.31052857                1.00000000                0.04922097                0.07517305               -0.22019360                0.02521590                0.01593106               -0.26389035
               9.23606545                2.78249686               59.01431601                0.46910253                0.40757285                0.53794998               -1.63778721               -0.06723049                1.36244852               -0.82173358
              10.24169257                2.37890183               58.74297750                0.47443104                0.82539261                1.06832154               -3.32422391               -0.09573059                2.45904207               -0.11210713
              11.25257331                1.97181213               58.46806130                0.37485686                1.35603349                1.53782470               -4.93444794               -0.15310304                2.24273576               -0.53310745
              12.26881324                1.56051935               58.19207776                0.02248445                1.50704879                2.03450222               -6.44104528               -7.95023115               10.13965827               -0.95407016
              13.28271428                0.99012699               58.07533089                0.00010000               -7.38350941               -4.46104188               -2.06731541              -34.97529942               21.62156873                1.44643745
              14.12114305               -0.01526716               58.06598913                0.00010000              -15.16778610                7.79562490               -6.30824682              -41.09174682               19.96584436                4.30142351
              14.97935856               -0.91767368               57.93413424                0.25404751               -3.31419498                5.70559314              -22.63135890              -22.46082746                7.95803101               15.16373617
              16.05485915               -1.34585678               57.65784948                1.00000000                7.55005910                6.22707689              -25.64938721               -0.77402069                2.46133977                9.15973035
               6.63653806                4.97325522               59.80838619                1.00000000               -0.45696241               -0.68543341                2.23928818               -0.04053911                0.13615069                1.12975650
               7.63196844                4.57917538               59.50688374                1.00000000               -0.25214122               -0.26253129                0.84735191                0.01272275                0.28626205                0.12335377
               8.63149524                4.18418238               59.20816035                0.75553167                0.15303183                0.16740753               -0.52993799                0.01856381                0.54403904               -0.54637218
               9.63502907                3.78820053               58.91165347                0.00010000                0.59713260                0.60982724               -1.88176701               -0.07375609                2.62124695               -1.02331639
              10.64343789                3.38956705               58.65444012                0.00010000                1.12411687               -0.12119250               -3.73846591               -1.11752629                3.77989210                1.93809708
              11.65751141                2.98741712               58.38003449                0.00010000                1.60841669               -1.04983378               -5.35227201               -1.76173303                2.90234216                5.20163523
              12.67560622                2.58047537               58.10492795                0.00010000               -1.38755701               -4.45799520               -6.71799989              -16.59412460               20.07001292               11.44002997
              13.62976027                1.87109838               58.17312895                0.00010000               -6.12660817               -7.46848970               -3.82332578              -36.95411671               34.94880276                5.30851532
              14.55307406                1.05438464               58.18810547                0.00010000               -9.66995710                5.91721867               -5.82700122              -42.17004531               38.89263690                2.72936497
              15.43636113                0.13538447               58.32165268                0.43856020               -4.98596119                3.66492371               -4.18620466              -23.43116087               22.84481892               14.80830120
              16.45335483               -0.29275200               57.99046790                0.96750834                1.69937067                4.14273383               -8.18374580               -1.52045536               -0.66836672                7.95352474
               7.02802841                5.96691182               59.70891185                1.00000000               -0.36200905               -0.57462162                1.90854961               -0.05237172                0.25257772                0.93405383
               8.02440832                5.57701320               59.40271521                0.66605256               -0.15705836               -0.16495037                0.51938232                0.00571124                0.57590837               -0.26714102
               9.02488725                5.18636898               59.10284946                0.14585662                0.23986695                0.27990890               -0.84577618                0.00390123                1.17782367               -1.10420220
              10.02920566                4.79469340               58.80860026                0.00010000               -0.23808979                0.43483782               -2.15712369               -1.49429223                6.15820938                0.28366784
              11.02012545                4.37647798               58.60851754                0.00010000               -0.13876677               -1.33651388               -3.17971388               -3.29980523               10.85815533                4.13448968
              12.02643033                3.95081546               58.41061637                0.00010000                1.65620185               -3.90979131               -4.36084438               -5.98585095               14.20363639                9.29952128
              13.05324949                3.47135944               58.27332455                0.00010000                2.16461761               -8.97959268               -4.79749724              -15.26351338               22.22487019               14.86745480
              14.06972268                2.84075720               58.21592144                0.00010000               -1.98967175               -3.08175239               -5.18415614              -24.10923617               31.07938850                2.93790017
              15.01345605                2.10307721               58.24089479                0.00010000              -10.59253484                3.68843038               -5.02779787              -35.16554033               45.07084718               -4.68637720
              15.85787198                1.15562480               58.45539116                0.08562094               -6.63665361               12.66706826               -6.36476906              -15.26112491               29.39139847              -20.63902023
              16.88072298                0.73699789               58.11510147                0.70502389                2.28509981                4.25895947               -9.76670928                7.05203448                2.59550907              -20.33021344
               7.41528786                6.96176278               59.60654650                0.96651687               -0.26623691               -0.45583653                1.58084369               -0.04806960                0.11686530                0.73725447
               8.41262550                6.57587638               59.29297261                0.39955168               -0.06974063               -0.07101726                0.16415397                0.03736618                0.61319446               -0.59374073
               9.41389305                6.18978056               58.98928236                0.00010000                0.12043657                0.36014396               -1.18807833               -0.21306369                3.43485151               -1.74103059
              10.41503423                5.79689728               58.73209851                0.00010000                0.37133390               -0.56298837               -1.33577642               -2.34528655               10.67924356                2.98353295
              11.42131973                5.36283678               58.57588995                0.00010000                1.39393516               -1.57528288               -3.10148160               -3.86947199               16.18472876                3.87837681
              12.44291293                4.90922129               58.42644026                0.00010000                2.95372406               -3.88676839               -4.13819212               -6.24579529               18.71325663                5.85801644
              13.48039421                4.40088352               58.31197887                0.00010000                3.64724217               -5.74137328               -5.02170208              -12.23372799               23.42090392                5.12451032
              14.51585777                3.80946333               58.24242630                0.00010000                2.72507202               -2.88479210               -5.87335630              -19.27183177               28.30827866                0.31680017
              15.53489565                3.12815325               58.21154648                0.00010000               -0.93199114                2.76883791               -6.90932362              -22.02301369               28.11335462               -9.45877076
              16.49721795                2.38872583               58.12646120                0.06423860               -5.16231587               18.31839827               -6.31240422               -9.48054044               17.21753828              -33.31577473
              17.43164933                1.79242719               57.87562857                0.67530119               -6.55686163               11.50582609               -9.62159296               -4.01320140                9.78050998              -32.12205808
               7.79883984                7.95779509               59.50281173                0.91745972               -0.17019667               -0.34592853                1.28110992               -0.03721731                0.05683756                0.72856443
               8.79713787                7.57559285               59.18232160                0.30851674                0.03826152                0.00965249               -0.15625643                0.06572506                0.53225252               -0.62429546
               9.79960507                7.19357186               58.87132583                0.00010000                0.60529234                0.37061056               -1.55709834               -1.19588849                7.62126663               -2.07090924
              10.80924372                6.78343364               58.69227216                0.00010000                1.54034669               -0.99600049               -2.36609841               -2.98547941               15.38368206                2.27242976
              11.83041200                6.34497232               58.53766714                0.00010000                2.71119807               -1.72132746               -3.39084397               -4.78160426               18.26868623                2.31516745
              12.86346768                5.87308009               58.41411106                0.00010000                3.89604449               -3.08060489               -4.52232845               -7.65658271               21.37305338                2.66610402
              13.90833289                5.35653198               58.31517179                0.00010000                4.67743177               -3.54369491               -5.65151927              -12.15299336               24.25803329                1.61608305
              14.95701631                4.78306136               58.23872479                0.00010000                4.27001919               -1.69205397               -7.01360107              -16.89703574               25.98594422               -1.79089172
              15.99373327                4.15845397               58.16056224                0.00010000                2.34854589                3.52063773               -8.81800557              -19.06266026               24.26804906               -7.95379417
              17.00398723                3.52199276               58.03396403                0.02809029               -0.03385169               12.25003464              -11.14334540              -12.22856519               14.88006410              -14.54386998
              17.99305624                2.96711441               57.76330110                0.62442306               -1.09309908               17.86859928              -13.02147239               -4.03818105                7.26762138              -17.85012446
               8.17894799                8.95484421               59.39992140                0.89740199               -0.07847653               -0.25598388                0.99646504               -0.04159063                0.02580250                0.81442400
               9.17816322                8.57606943               59.07236015                0.27288514                0.15932547                0.09606504               -0.47021507                0.04518066                0.40113332               -0.60386995
              10.18213450                8.19719277               58.75227520                0.00010000                1.28804764                0.38349300               -1.93029221               -1.87954127                9.78276904               -2.23365105
              11.20392418                7.77697727               58.61171918                0.00010000                2.69533480               -0.45508578               -2.99150449               -4.11586193               19.52568697               -0.62920945
              12.23604119                7.32841023               58.48808084                0.00010000                3.71487242               -1.34425737               -4.05958736               -6.01065800               21.43741086                0.51496746
              13.27822162                6.84760919               58.38567305                0.00010000                4.56559417               -2.00647308               -5.18424431               -8.60627958               23.62104328                0.70990689
              14.32735308                6.33000962               58.30344075                0.00010000                4.88867194               -1.84197337               -6.48195897              -11.93055384               25.52592492                0.13786681
              15.37599506                5.77562225               58.23394342                0.00010000                4.36789818                0.09689455               -8.15462132              -14.93321871               26.59096337               -1.47818725
              16.41471104                5.19856600               58.16389451                0.00010000                3.39955712                4.42379156              -10.91324105              -15.51361130               25.05854022               -3.19939633
              17.44398621                4.63372653               58.04871859                0.03861969                2.29656858               11.07766175              -16.45824401               -9.96190240               16.10302404               -1.50178083
              18.46064241                4.14979918               57.78723351                0.61085279                1.66562066               16.98468007              -18.80457946               -3.82018934                9.01696019               -3.09897779
               8.55555760                9.95267541               59.29752576                0.88780805                0.01353265               -0.18269413                0.71338979               -0.04743253                0.01404593                0.86709473
               9.55569292                9.57751415               58.96264613                0.26195244                0.27743988                0.20131053               -0.79274972               -0.01085957                0.28997399               -0.62313602
              10.56110639                9.20124172               58.63326355                0.00010000                2.00080498                0.48374216               -2.34910673               -2.46551010               11.45948826               -2.40508807
              11.59570902                8.77433192               58.52096610                0.00010000                3.92302615               -0.10166986               -3.70435438               -5.02163718               22.98551557               -1.57848095
              12.63956692                8.31808718               58.42496495                0.00010000                4.70168343               -0.78011210               -4.84710889               -6.59040621               24.59407414               -0.79563314
              13.68974269                7.83295063               58.34807505                0.00010000                5.10709197               -1.02197321               -5.98829847               -8.47685624               26.36309427               -0.37807835
              14.74170876                7.31969251               58.29128170                0.00010000                5.00264320               -0.42712336               -7.33406898              -10.54996060               27.88035564               -0.13848333
              15.78979556                6.78499925               58.24771123                0.00010000                4.18240068                1.37462356               -9.19458940              -11.76206587               28.85642985                0.96102812
              16.82535677                6.24692980               58.21044875                0.00010000                3.18602268                4.75941007              -11.66552515               -9.99531273               30.48767106                1.95795307
              17.85351601                5.74354600               58.19760252                0.07942905                2.95751924                9.42191083              -19.44246313               -4.88725084               21.13335294                7.85018423
              18.88450716                5.30680802               57.95598315                0.60884694                3.09911460               11.56522920              -19.24045479               -1.43881956               11.30050571                5.50360466
               8.92832185               10.95119033               59.19534141                0.88921861                0.10578699               -0.11775778                0.43246124               -0.05322985                0.00346136                0.87976265
               9.92937972               10.58009564               58.85278952                0.27580307                0.38423385                0.32195025               -1.12888528               -0.06765584                0.16424965               -0.66044789
              10.93600653               10.20686762               58.51343619                0.00010000                2.86331284                0.70312437               -2.91640453               -2.98744102               12.97921441               -2.40539107
              11.98664598                9.77494388               58.42631590                0.00010000                5.48039185               -0.00729768               -4.56362795               -5.46692301               26.22188643               -1.73139595
              13.04561436                9.31280798               58.35562686                0.00010000                6.02165955               -0.55918239               -5.74329008               -6.08662200               27.76447313               -1.19986111
              14.10707917                8.82716973               58.30545073                0.00010000                5.93454405               -0.32541191               -6.82499254               -6.96216135               29.59145090               -0.77740695
              15.16430524                8.32146715               58.28191926                0.00010000                5.32186420                0.51033709               -8.14457161               -7.90311511               32.11323339               -0.02896673
              16.21351645                7.80311472               58.29696305                0.00010000                4.59763954                1.90631778               -9.65440730               -7.60928202               33.34033706                2.92397114
              17.25625804                7.29375420               58.31030066                0.03603351                3.64232627                3.51550285              -12.45876722               -4.80416360               35.52140367               15.03560595
              18.28636298                6.82216474               58.37449737                0.14586059                2.45419756                5.41093508              -11.55115545               -1.68347231               20.39446370                6.78696082
              19.30534199                6.38110376               58.08495745                0.60440528                1.89790099                4.69140916               -9.21260707               -1.14142948                4.37481698                4.41919518
               9.29668239               11.95032025               59.09293737                0.84606173                0.19801344               -0.05524791                0.15810486               -0.05336008                0.01590782                0.77544259
              10.29866252               11.58395316               58.74270288                0.29044780                0.49134741                0.44716771               -1.47673341               -0.07313241                0.22374017               -0.62269327
              11.30650934               11.21530421               58.39661484                0.00010000                4.08838359                0.94133589               -3.64931092               -3.63453145               14.62710860               -1.68935925
              12.38043019               10.77418597               58.33326078                0.00010000                7.95496432               -1.06270911               -5.43210424               -4.48140635               29.36571655               -1.06973896
              13.46560862               10.30690353               58.28498312                0.00010000                8.07050509               -0.73536653               -6.62628596               -4.00001604               30.95847320               -0.83744608
              14.54184030                9.82644239               58.25968389                0.00010000                7.10464207               -0.06417275               -7.57485532               -3.96906007               33.13948876               -0.61119128
              15.60770146                9.32989925               58.27041255                0.00010000                6.17412840                0.90197506               -8.77984787               -4.26121783               36.85293141                0.00043740
              16.66532286                8.82312560               58.34585178                0.00010000                5.12610061                1.93608664              -10.15199858               -3.91346883               47.21932556                2.85344981
              17.71022348                8.31723986               58.59914154                0.16801407                3.35870716                2.02702052               -8.14785282               -2.39892131               34.02805582               14.67859487
              18.73249701                7.85176470               58.43114183                0.27110067                1.67885287                2.01499935               -4.10395417               -0.83818923                7.39474229                1.50133172
              19.74380053                7.40063620               58.12729453                0.59728423                1.13035263                1.46014567               -4.10013682               -0.68581312                1.21165701                0.70255790
               9.65998884               12.95008537               58.98855360                0.92226740                0.29442774               -0.02348803               -0.12133146                0.22600690                0.34263395                0.67195113
              10.66293312               12.58903899               58.63373953                0.68884232                0.65471243                0.50858336               -1.81125026                0.20750737                0.92616427               -0.56162283
              11.67308309               12.22569433               58.29060972                0.45500111                7.12427062                1.03901252               -4.03351707               -5.11008982               16.56729923               -1.00956174
              12.80541853               11.75368969               58.24716613                0.36753732               12.01372671               -2.04962746               -6.04075467               -3.88085058               32.39381781               -0.30100512
              13.91335762               11.29810065               58.21679609                0.36055232                9.96418577               -0.88028751               -7.22146995               -1.61527101               34.26082314               -0.17094558
              15.00470224               10.82588628               58.21209916                0.36599385                8.45200261               -0.05561133               -8.02633265               -1.64350521               36.78062236                0.03110082
              16.08239767               10.33950665               58.24753810                0.38380037                7.16021104                0.96074037               -9.12648492               -1.73287011               41.60021976                0.55950702
              17.14790646                9.84183645               58.37172721                0.41491245                4.86214195                1.87108514              -10.11212688               -2.00224195               52.22865874                3.85767004
              18.17964051                9.33429461               58.65801753                0.63862515                1.91481945                1.70547544               -5.67513756               -2.02688256               34.15028692                4.64361806
              19.18620285                8.86246473               58.45237422                0.68861572                0.71211069                1.07000315               -3.01900134               -0.82881245                5.61630491                0.03777562
              20.19388273                8.41030667               58.14878031                0.79612984                0.76798726                0.96704751               -3.13233311               -0.20758651                1.08425546                0.21590690
               6.13905591                3.10006104               61.03761390                1.00000000               -0.63938119               -0.80683946                2.79181292               -0.25789050               -0.60896246                0.67540002
               7.13266210                2.69169155               60.72605415                1.00000000               -0.45022817               -0.37867812                1.42320920               -0.19851106               -0.76700901                0.10713040
               8.13005135                2.28259459               60.41092239                1.00000000               -0.07418160                0.03573646                0.06840364               -0.20038906               -0.71433939               -0.12221742
               9.13117847                1.87183783               60.10013205                0.61612899                0.18576469                0.49624691               -1.32150906               -0.33984521                0.10834785               -0.61635916
              10.13376664                1.45709874               59.80130744                0.55050843                0.51038308                1.04536556               -2.89809411               -0.34053125                0.99616498               -0.08214491
              11.14138613                1.03979085               59.50796587                0.43133599                0.92745544                1.49222089               -4.44080303               -0.39348967                1.26056536               -0.40860359
              12.15231575                0.61740014               59.21434208                0.09671870              -10.13361742                2.01416849               -5.85932238              -16.10024652                6.67896834               -0.66657375
              12.93871378               -0.12390608               59.02897758                0.00010000              -21.97368946                5.13079531               -2.11759609              -27.07600178                3.83638152               -4.80867420
              13.71284196               -1.15466783               58.89690734                0.00010000               -5.35851431                7.49662851               -6.52130560              -28.84581274                5.79534240                7.70936868
              14.83154349               -2.07468154               58.60617653                0.60296532                8.61119217                6.17903915              -16.17453202              -24.42659029               -0.34015052                2.26351157
              15.88506580               -2.54735560               58.29671636                1.00000000                5.35223104                7.31243937              -19.51751453                0.92159801               -2.03908551               -0.79508182
               6.54484649                4.09199265               60.93178648                1.00000000               -0.54362785               -0.76128405                2.49459833               -0.03929897               -0.05624150                0.92850422
               7.53941021                3.68790477               60.62012271                1.00000000               -0.34360869               -0.33880721                1.12468897                0.01481871               -0.04886364                0.17007796
               8.53797432                3.28295195               60.30825610                1.00000000                0.05588622                0.07567770               -0.22941412                0.02216323                0.03069894               -0.26093026
               9.54052794                2.87680030               59.99798657                0.47432629                0.42052480                0.52846432               -1.61681890               -0.07269615                1.21996270               -0.77419316
              10.54638481                2.46755239               59.70989860                0.47410938                0.83862964                1.03689582               -3.27047540               -0.09699224                2.19854182               -0.16784475
              11.55730053                2.05471306               59.41889851                0.36540621                1.33884669                1.50758066               -4.86302366               -0.17057427                2.05033587               -0.58565888
              12.57316175                1.63754182               59.12797463                0.00010000               -0.16563943                1.93617805               -6.32174907              -14.66291063               13.09346155               -0.91811203
              13.55398774                0.92740188               59.05881430                0.00010000               -8.66950919               -1.02659037               -2.64570825              -35.29235989               20.66190117               -0.50364700
              14.39977156               -0.07970154               59.00125035                0.00010000              -13.51831333                7.56622897               -6.85726912              -38.62901325               10.63220056                6.91875020
              15.28362148               -1.01289115               58.68070033                0.17615030               -1.64078617                5.64346359              -24.40283402              -22.18689870                1.06088758               28.13163472
              16.36695584               -1.47423120               58.37095859                1.00000000                8.33343650                5.94848934              -27.70712605               -0.71277683                1.12225164               22.12994618
               6.94644568                5.08483536               60.83054421                1.00000000               -0.44465126               -0.66437246                2.18477906               -0.04487553                0.14873637                1.10811906
               7.94199917                4.68491541               60.51521240                1.00000000               -0.24232963               -0.25423861                0.81733700                0.00523283                0.30868489                0.10690617
               8.94159909                4.28410814               60.20281264                0.72909166                0.15624674                0.16743941               -0.53449773                0.01356384                0.58820314               -0.55433118
               9.94512410                3.88240711               59.89293779                0.00010000                0.61574715                0.60314861               -1.85026071               -0.09280094                2.42749531               -0.96928875
              10.95391403                3.47783665               59.61739218                0.00010000                1.14305563               -0.44682037               -3.64772538               -1.18401160                3.42355330                2.36023813
              11.96798521                3.06994247               59.32693270                0.00010000                1.62273461               -1.61679314               -5.22861920               -1.75206672                2.75134152                5.85095238
              12.98636872                2.65612370               59.03817948                0.00010000               -0.89376348               -5.98531837               -6.58142580              -20.28275754               21.77858386               12.58416093
              13.95010994                1.85556212               59.12789063                0.00010000               -5.29070003               -4.49280413               -5.08385700              -40.34865555               37.38239373                4.52647605
              14.88055472                0.99665675               59.12318831                0.00010000               -8.38873807                6.33426359               -6.95282794              -43.03469004               41.81031519                5.03225264
              15.78233518                0.03818773               59.28461402                0.42697723               -4.35321715                3.65859267               -3.00854177              -23.71649089               25.66239054               28.31336630
              16.79349038               -0.42838581               58.91649196                0.95888834                1.11551952                3.77111499               -5.92509966               -1.67562728               -1.38863834               21.73960621
               7.34378888                6.07870520               60.72783245                1.00000000               -0.35467950               -0.55391924                1.86825383               -0.05511477                0.26670112                0.91921494
               8.34024209                5.68282000               60.40781226                0.64013522               -0.15174967               -0.16320751                0.49978392                0.00432475                0.60112509               -0.30263232
               9.34075389                5.28630074               60.09432203                0.11910707                0.23506588                0.27624833               -0.85448353                0.00970396                1.24531103               -1.13002068
              10.34494341                4.88886327               59.78715084                0.00010000               -0.27923304                0.13454762               -2.12043457               -1.87099815                6.41289735                0.95705764
              11.33516923                4.45861599               59.57737949                0.00010000               -0.04856267               -1.96564040               -3.04401114               -3.84235415               11.27671946                4.79408109
              12.34397215                4.02237720               59.36753097                0.00010000                2.33588589               -5.11783793               -4.24469055               -6.93460639               14.91371195               10.31147022
              13.38188695                3.51783545               59.22480905                0.00010000                3.12547115              -11.16140429               -4.87576257              -17.80945850               23.39105586               16.13852888
              14.40648158                2.83754579               59.16173359                0.00010000               -1.27173990               -2.61335980               -5.59277735              -28.15442317               32.59355936                3.11793952
              15.35645215                2.04698373               59.18665463                0.00010000               -8.60736764                4.03284261               -5.71704204              -38.77216803               45.81644116               -3.60995633
              16.23433422                1.06028070               59.37366119                0.11904988               -4.49308842               11.13107178               -9.41357750              -19.03720014               29.72429588              -17.25615488
              17.26659038                0.60119110               59.00233614                0.75119090                3.22561578                3.79150151              -11.94978635                4.34065053                2.45147396              -17.31730561
               7.73711378                7.07375697               60.62230762                0.95189701               -0.26236603               -0.43442519                1.56051727               -0.04548090                0.11011963                0.74618288
               8.73449012                6.68165126               60.29457977                0.38006503               -0.06819409               -0.08330960                0.15756886                0.05221598                0.64178911               -0.62821727
               9.73574990                6.28963311               59.97738797                0.00010000                0.04493871                0.32202741               -1.18355157               -0.46348150                4.19346812               -1.80419907
              10.73538889                5.88509807               59.72073709                0.00010000                0.39015595               -1.07883311               -0.99339891               -2.93658039               11.14732607                2.94430611
              11.74355301                5.43852385               59.54543212                0.00010000                1.73423627               -2.26794390               -3.00337230               -4.64853215               16.22727966                4.13767402
              12.77007362                4.96758571               59.38532490                0.00010000                3.57289707               -5.03643591               -4.08005304               -7.66396057               19.30734863                6.20619321
              13.81501096                4.43289561               59.26131750                0.00010000                4.38997933               -6.96176547               -5.07934391              -14.96893099               24.08148706                5.30288564
              14.85787320                3.80329492               59.18204082                0.00010000                3.36827469               -3.31227137               -6.10602274              -22.96721517               28.78794408                0.32802168
              15.88237645                3.07731361               59.13801776                0.00010000               -0.52446941                2.85744165               -7.53356968              -27.53138427               29.43725890               -9.63562670
              16.84738382                2.26080917               59.06533756                0.07089937               -4.19469215               17.72300258               -6.40986587              -15.18050747               17.35627628              -34.59569521
              17.79848261                1.64744422               58.77222515                0.69631047               -4.89012084               11.87409395              -11.28563426               -7.54103573                9.17737898              -30.29708930
               8.12709070                8.07001669               60.51564041                0.90655721               -0.16804234               -0.32361916                1.27391539               -0.03654289                0.04997255                0.76342951
               9.12541027                7.68115381               60.18075033                0.29674871                0.04733771               -0.01550849               -0.15446990                0.07860506                0.54337702               -0.64478629
              10.12803745                7.29274129               59.85567426                0.00010000                0.59553924                0.27098696               -1.56710142               -1.59850702                7.97387954               -2.18940057
              11.13732106                6.86728661               59.66904039                0.00010000                1.58367458               -1.38818876               -2.30523858               -3.80348344               15.98369252                1.60341285
              12.15971094                6.41325711               59.50422243                0.00010000                2.95000579               -2.37174860               -3.30806200               -5.90532778               18.69210309                2.19245213
              13.19632118                5.92164848               59.36890138                0.00010000                4.35440852               -3.92704990               -4.50716618               -9.51037253               21.76730652                2.63699435
              14.24679911                5.37860015               59.25791379                0.00010000                5.31990515               -4.42256496               -5.74979437              -14.94205307               24.52611052                1.51505164
              15.30271928                4.77130037               59.16650801                0.00010000                5.07555515               -2.32615103               -7.29393373              -20.58123707               25.94077155               -2.07669084
              16.34831022                4.10413256               59.07016825                0.00010000                2.89370911                3.15334930               -9.07784788              -23.52938844               23.98421188               -9.00526031
              17.36059346                3.41474076               58.92069150                0.00897496               -0.29053274               13.80143388              -11.29802940              -15.55308258               14.50773387              -18.82934574
              18.34249956                2.83867297               58.62991387                0.62342016               -1.80938980               18.69852017              -13.59479342               -6.64157970                6.58946651              -20.38915446
               8.51410869                9.06728459               60.40990918                0.88992589               -0.07710675               -0.23529112                0.99422779               -0.04278249                0.02104937                0.86215110
               9.51333762                8.68134109               60.06763692                0.26610794                0.17691329                0.06751974               -0.46708173                0.03112304                0.38894952               -0.63177868
              10.51764696                8.29505285               59.73269869                0.00010000                1.27328899                0.24070081               -1.97967391               -2.39744548                9.99454374               -2.43133201
              11.53880340                7.85733429               59.58185668                0.00010000                2.67188137               -0.76885753               -2.97039016               -5.19387917               19.99617618               -1.04471047
              12.57108458                7.39108887               59.44751873                0.00010000                3.78598632               -1.79802186               -4.04019003               -7.41618068               21.88635654                0.15644266
              13.61452313                6.88904471               59.33348562                0.00010000                4.77167125               -2.56930029               -5.22581396              -10.75738431               23.95223929                0.47805895
              14.66651801                6.34444431               59.23733739                0.00010000                5.30964571               -2.46656886               -6.66563350              -15.03682688               25.58412754               -0.13532061
              15.72071604                5.75677190               59.14947409                0.00010000                5.09151416               -0.51101503               -8.61459624              -18.99127959               25.92837860               -2.03869276
              16.76834829                5.14038059               59.04784886                0.00010000                4.05328550                4.18953775              -11.71451735              -20.04601455               23.06454895               -4.43393467
              17.80178175                4.53683784               58.88561106                0.00195492                2.47191424               11.52206096              -15.92147384              -13.48819649               13.82745223               -6.48466660
              18.81778658                4.02141462               58.59441491                0.59902474                1.60048235               17.38548611              -18.63031737               -5.74084087                7.23495438               -7.88286132
               8.89812205               10.06531087               60.30470621                0.88231140                0.01424259               -0.16472218                0.71582786               -0.04967089                0.00885759                0.92299069
               9.89826448                9.68250420               59.95467457                0.25801299                0.29866432                0.17536880               -0.79035782               -0.06527626                0.23490421               -0.67076771
              10.90409534                9.29755530               59.60916428                0.00010000                1.95714843                0.33952052               -2.47038879               -3.07073463               11.47811084               -2.77194349
              11.93740745                8.85190946               59.48326718                0.00010000                3.77907852               -0.27413314               -3.78890720               -6.17006007               23.28329690               -2.24576479
              12.97967691                8.37729667               59.37593520                0.00010000                4.52053010               -0.98011023               -4.93001613               -8.05325164               25.03949087               -1.32162338
              14.02781805                7.87026248               59.28729819                0.00010000                4.93292377               -1.23717310               -6.12195724              -10.76426370               26.69120118               -0.73166337
              15.07833539                7.32926877               59.21577782                0.00010000                4.95696784               -0.67385425               -7.69398021              -13.98828215               27.80796375               -0.55759841
              16.12695741                6.76108007               59.15083746                0.00010000                4.44942977                1.10854186               -9.94483253              -16.16065120               28.22403921                0.20268693
              17.16732398                6.18792332               59.08420102                0.00010000                4.14190464                4.92275716              -13.65727617              -15.28883668               26.44713678                0.48143750
              18.20979550                5.64518198               58.96879638                0.02870403                4.56026042               10.95402382              -22.09759467               -9.68618071               17.55179156                6.78846009
              19.25852919                5.18638270               58.70075730                0.59160677                4.87336899               15.20026905              -25.75972821               -4.10246969               10.78900118                5.80672771
               9.27872861               11.06399015               60.19973680                0.88414733                0.10590546               -0.10498768                0.43954733               -0.05723597               -0.00357336                0.94948923
              10.27978766               10.68484846               59.84141742                0.27547003                0.40492005                0.30406068               -1.13161709               -0.15876859               -0.01786784               -0.73517138
              11.28682701               10.30184326               59.48283657                0.00010000                2.79365854                0.64726543               -3.19579955               -3.57662784               12.69799319               -3.02414638
              12.33566083                9.85185163               59.37860034                0.00010000                5.24197603                0.08026975               -5.06541747               -6.48442840               26.38060453               -2.69816759
              13.39166653                9.37148667               59.29646660                0.00010000                5.58024616               -0.42520231               -6.08344875               -7.34379600               28.33467504               -1.87251423
              14.44726576                8.86430125               59.23558542                0.00010000                5.21341220               -0.12708661               -7.08448751               -9.01863089               30.00140693               -1.16785954
              15.49593477                8.33096723               59.19705456                0.00010000                4.57913552                0.85975949               -8.67875255              -11.28866681               32.07369909               -0.49672377
              16.53884847                7.77894274               59.19210157                0.00010000                4.12674374                2.46147130              -11.38375377              -12.37412998               32.36641863                1.92421585
              17.57846965                7.23883573               59.16965020                0.00010000                3.53751466                4.67177460              -14.70996596               -9.33717559               34.76124290               14.26020859
              18.60959876                6.75591832               59.21107768                0.08489689                3.74330457                8.82767940              -23.01031771               -3.97752487               24.30710506               12.45751787
              19.65333574                6.32542000               58.95527338                0.58372601                4.37369793                9.21586322              -22.65135906               -2.75944746               12.58094465               10.14669278
               9.65526070               12.06321112               60.09463980                0.83864641                0.19752974               -0.05175105                0.17553883               -0.05564569                0.00735634                0.85788244
              10.65723600               11.68858542               59.72779018                0.30478615                0.51494595                0.44139716               -1.49257350               -0.13537009               -0.17889940               -0.71078495
              11.66555962               11.31050061               59.35726543                0.00010000                4.04197348                1.02897068               -4.13859070               -4.07114144               13.99951793               -2.20815516
              12.73807547               10.85351485               59.27496845                0.00010000                7.73958753               -0.67966898               -6.67763404               -5.15175912               29.48107418               -1.88846518
              13.82035137               10.36879262               59.21523123                0.00010000                7.49447032               -0.26969230               -7.45732000               -4.75994012               31.82708778               -1.33579661
              14.88796487                9.86772074               59.18129623                0.00010000                5.87845948                0.52764472               -7.96299382               -5.22424883               33.79645561               -0.87310244
              15.93792056                9.34646396               59.17827447                0.00010000                4.18207131                1.86084748               -9.50166382               -6.53989276               36.68298819               -0.37730553
              16.97160630                8.81030949               59.23129968                0.00010000                3.28421628                3.78488551              -12.30394343               -7.09502479               47.51134154                1.98108803
              18.00360489                8.28135881               59.48895814                0.12354503                3.60272169                4.00845854              -17.59137928               -4.54524526               38.39944808               16.25099752
              19.04366073                7.82173556               59.38336157                0.20484916                3.03659952                4.06602480               -7.92140701               -1.15714188               11.87095780                5.89921463
              20.06433688                7.37069996               59.07572881                0.57547406                2.06761421                3.17366218               -8.69788110               -2.23382146                3.79920179                3.49135331
              10.02686710               13.06295513               59.98752226                0.91798720                0.29236684               -0.02559896               -0.09000623                0.23276767                0.38134371                0.76059631
              11.02979077               12.69367641               59.61545697                0.70547986                0.68038247                0.50909921               -1.83007675                0.22885390                0.58668277               -0.65494477
              12.04047475               12.32242267               59.24758003                0.47706690                7.22714374                1.19220581               -4.37009538               -5.27939535               15.84792955               -1.34752962
              13.17433364               11.83825825               59.18108313                0.36742901               12.08935443               -1.52566020               -8.04467707               -4.19067514               32.30631818               -0.55363577
              14.28226184               11.36609282               59.13933749                0.36058771                9.53879039               -0.26998010               -8.45889205               -1.97915888               35.42742861               -0.42704961
              15.36510945               10.87485414               59.12803637                0.36575110                7.01431677                0.71333990               -8.62836094               -2.18097495               37.69068215               -0.14240662
              16.42254817               10.36818418               59.15067319                0.38285339                4.84718355                2.17202198              -10.00834368               -2.54792375               41.54542021                0.31813370
              17.46205312                9.85464045               59.25296565                0.41261697                2.67952514                4.43309552              -13.35497314               -3.41428174               53.97294663                3.36603784
              18.47613867                9.31900491               59.58216467                0.61381511                1.75308275                3.76460947              -14.20478707               -3.61670283               39.16059083                8.92748151
              19.49711477                8.83723882               59.41926400                0.65299103                1.72959216                1.55032537               -4.85892487               -1.16017900                8.84950081                0.61254266
              20.51073052                8.38889325               59.10956915                0.78560042                1.36157426                1.81932859               -6.56267822               -0.19519303                2.79964515                0.88656123
               6.45150495                3.21406336               62.06512448                1.00000000               -0.61730179               -0.78031081                2.70215450               -0.25170057               -0.58621428                0.66316912
               7.44533193                2.80016905               61.74005279                1.00000000               -0.43228404               -0.36619186                1.37444800               -0.19458932               -0.73491737                0.10322500
               8.44285927                2.38556715               61.41153729                1.00000000               -0.06476687                0.03448222                0.05907299               -0.19499106               -0.69346158               -0.11484158
               9.44403659                1.96940531               61.08702852                0.60988953                0.19489935                0.48019449               -1.28822549               -0.33102557                0.01284820               -0.59600942
              10.44675725                1.54937540               60.77258865                0.53561876                0.51655257                1.00847892               -2.82363754               -0.33968167                0.81223442               -0.11478925
              11.45436764                1.12662326               60.46389465                0.40547656                0.93680491                1.45088545               -4.34153252               -0.39569782                1.14315339               -0.45710578
              12.46549335                0.69918876               60.15634348                0.05307654              -15.33627606                1.91309524               -5.70293190              -23.58021511                9.66002401               -0.74947432
              13.14764212               -0.19552770               60.01849340                0.00010000              -22.98385619                7.66687024               -1.41413764              -25.25731632                9.58381662               -1.92030584
              14.00581623               -1.15602650               59.83192108                0.00010000                0.03669516                5.28533747               -6.21873849              -23.74037262                3.77589007               12.15099518
              15.14837603               -2.08250476               59.45635143                0.65606594                9.23957171                4.90262878              -12.98682907              -23.03345273               -2.44097712                1.57853590
              16.19060766               -2.58167964               59.11424427                1.00000000                4.22316367                5.86461755              -15.87710055                0.70051166               -2.01680804               -0.59060050
               6.86288226                4.20626026               61.95636564                1.00000000               -0.52481127               -0.73458678                2.41369524               -0.04173973               -0.04283298                0.91599116
               7.85763414                3.79650713               61.63117538                1.00000000               -0.32955140               -0.32725462                1.08438586                0.00967431               -0.02508560                0.16289143
               8.85629123                3.38591197               61.30594028                1.00000000                0.05940337                0.07313385               -0.22909369                0.01873787                0.04510122               -0.26106409
               9.85882221                2.97420725               60.98197963                0.48114464                0.42301160                0.51225842               -1.57374127               -0.07444672                1.08150785               -0.72940229
              10.86475146                2.55946019               60.67756799                0.47585937                0.83408888                0.99577593               -3.17532573               -0.09591738                1.94074026               -0.21005019
              11.87550399                2.14113212               60.37080083                0.35803305                1.30076106                1.45902234               -4.72842243               -0.18785923                1.87863046               -0.61889381
              12.89076668                1.71831971               60.06564278                0.00010000               -2.64137010                1.80677088               -6.12028300              -20.76322476               14.99295229               -0.92518873
              13.82267659                0.88114100               60.02241672                0.00010000               -8.94328242                2.71181543               -4.51307475              -33.83678200               22.78601840                1.75214016
              14.71190103               -0.10317312               59.92884375                0.00010000               -9.59042583                6.28259550               -7.28843032              -34.39393639                4.60969856               11.47120293
              15.63086807               -1.03347847               59.44607756                0.12510792               -0.75566877                4.55978444              -20.07342595              -20.59655401               -5.14562423               41.36980343
              16.69678766               -1.52303346               59.10370696                1.00000000                6.59195876                4.61711042              -22.96071883               -0.39457292               -0.19246409               36.62353922
               7.27017640                5.19937163               61.85208177                1.00000000               -0.43027031               -0.63637744                2.11527763               -0.04873835                0.15936284                1.09356560
               8.26587370                4.79362396               61.52323048                1.00000000               -0.23212488               -0.24569745                0.78536032               -0.00173494                0.32927028                0.09175430
               9.26553390                4.38702983               61.19747040                0.69600660                0.15628701                0.16406320               -0.52885168                0.00950836                0.63604170               -0.57218404
              10.26899944                3.97965048               60.87464826                0.00010000                0.61900689                0.59140040               -1.79743135               -0.10774838                2.25759207               -0.91946994
              11.27791404                3.56929092               60.58148561                0.00010000                1.13757512               -0.75702648               -3.51736985               -1.16592571                3.10009622                2.79989360
              12.29175094                3.15580371               60.27546210                0.00010000                1.61529635               -2.12397262               -5.04126994               -1.60978627                2.61964175                6.48488309
              13.31021997                2.73532418               59.97329943                0.00010000                0.03241861               -7.36638551               -6.36763211              -23.04968970               22.82932322               13.58715579
              14.29239931                1.85870861               60.07145181                0.00010000               -3.88314965               -1.60876028               -5.85259969              -41.43135316               38.76145997                6.06612852
              15.23255698                0.96962541               60.04904892                0.00010000               -6.80470133                5.96108787               -7.32988078              -42.20307218               45.83845820                9.78809775
              16.15630529                0.00869093               60.26148184                0.42729168               -3.53653955                3.16283131               -2.01542961              -22.65772656               29.37667564               42.21421797
              17.16182619               -0.48933743               59.87196591                0.95634886                0.55208979                2.89760225               -3.44261731               -1.02209089               -1.10623623               37.32361579
               7.67340283                6.19353271               61.74627692                1.00000000               -0.34615858               -0.52465707                1.81264786               -0.05547488                0.27875578                0.91481209
               8.66994125                5.79159318               61.41271089                0.61471067               -0.14739763               -0.16250021                0.47973579                0.00838764                0.61857203               -0.33394682
               9.67045488                5.38919324               61.08575979                0.09015901                0.22324523                0.26572604               -0.85232089                0.02566322                1.31705857               -1.16093899
              10.67440615                4.98603526               60.76619157                0.00010000               -0.25875827               -0.28783078               -2.06035900               -2.19682072                6.70671368                1.74100786
              11.66527971                4.54431966               60.54763732                0.00010000                0.14344299               -2.52718034               -2.92662435               -4.20095628               11.71705567                5.50287469
              12.67727501                4.09865266               60.32572256                0.00010000                3.07941364               -6.19144789               -4.12218761               -7.59520392               15.48443097               11.37666195
              13.72686799                3.57099200               60.17580930                0.00010000                4.12366372              -13.07438439               -4.88455188              -19.72994021               24.09533056               17.70748534
              14.75974828                2.84896580               60.10406590                0.00010000               -0.45053579               -2.37296329               -5.78104633              -31.62131416               33.56579853                4.77639002
              15.71785727                2.01604864               60.12655395                0.00010000               -6.15359507                4.11508372               -6.04280081              -40.57002649               45.14149240               -0.17081223
              16.63667638                1.02977815               60.26711961                0.16548039               -2.27273567                7.05453453              -10.68447705              -21.36496308               28.17308182              -12.20527621
              17.67240256                0.53491858               59.87610574                0.80774758                3.57261741                2.41225540              -12.03230744                2.49382005                1.52545626              -13.00273738
               8.07294595                7.18887849               61.63775684                0.93909280               -0.25650319               -0.40352946                1.52040857               -0.03962309                0.10228196                0.76557270
               9.07038092                6.79037395               61.29612399                0.36201267               -0.06704310               -0.09766031                0.15256211                0.07480856                0.66493748               -0.65853100
              10.07160509                6.39234435               60.96561133                0.00010000               -0.02221613                0.26399461               -1.16484332               -0.80711852                5.07297542               -1.88098965
              11.06993660                5.97389386               60.71223053                0.00010000                0.48362105               -1.58264780               -0.88895380               -3.38168930               11.66884705                3.02459778
              12.08127751                5.51874732               60.51582250                0.00010000                2.16189633               -2.87924530               -2.96113249               -5.14028735               16.17820661                4.52498546
              13.11317453                5.03197475               60.34483920                0.00010000                4.20152589               -6.04967030               -4.02670088               -8.85316936               19.77547706                6.79432206
              14.16530803                4.47383649               60.21039199                0.00010000                5.08709340               -8.00894423               -5.07371362              -17.31724618               24.49266010                6.01103769
              15.21491639                3.81124934               60.12030584                0.00010000                3.75180298               -3.74357609               -6.12170815              -25.90402009               28.85372567                1.43017389
              16.24034409                3.05192709               60.06087509                0.00010000               -0.23901573                2.62345138               -7.43032421              -33.00454896               30.26241371               -8.09523692
              17.21013608                2.14978162               59.99826389                0.08833178               -1.94611804               14.76770974               -7.36292896              -19.76497509               16.59826198              -29.56563211
              18.20142173                1.55890768               59.64991588                0.72474109               -0.87143501               10.11114921              -11.75382422               -7.38748008                5.50655565              -22.65099591
               8.46961944                8.18546212               61.52829003                0.89744676               -0.16478818               -0.29285238                1.24701509               -0.03383734                0.04352038                0.80459636
               9.46797155                7.78963998               61.17923221                0.28767907                0.05865829               -0.04321687               -0.14531100                0.08913929                0.53744028               -0.66414774
              10.47079260                7.39447313               60.83998380                0.00010000                0.61989215                0.13658859               -1.56578040               -1.95285782                8.32129554               -2.35310819
              11.48036940                6.95438230               60.64616739                0.00010000                1.68002364               -1.60187934               -2.30425379               -4.43236562               16.62240772                1.00196348
              12.50439308                6.48673476               60.47150590                0.00010000                3.23765262               -2.94605029               -3.27388057               -6.79305867               19.11192001                2.32728174
              13.54512245                5.97765926               60.32396774                0.00010000                4.84276968               -4.66005974               -4.49501646              -11.08242089               22.07066726                3.00314708
              14.60124847                5.41081312               60.20017590                0.00010000                5.92274154               -5.21986534               -5.76047793              -17.29129256               24.61139855                2.04789651
              15.66357728                4.77409428               60.09284612                0.00010000                5.89927733               -3.03652019               -7.27914869              -23.65803399               25.67808746               -1.45747114
              16.71923402                4.06851766               59.97900528                0.00010000                3.54095052                2.19637241               -8.93431700              -27.47204867               23.35162040               -8.29785368
              17.73439629                3.32513235               59.80800344                0.00240154               -0.64165889               15.30733506              -10.54978490              -18.37714898               13.75007953              -20.69528987
              18.70640084                2.73714157               59.49140523                0.63000417               -2.79954538               18.11954211              -13.52855133               -9.48347483                6.38307062              -19.82080603
               8.86391349                9.18302144               61.41980595                0.88396922               -0.07607940               -0.20772616                0.97603494               -0.04225330                0.01652166                0.91307072
               9.86315270                8.78950962               61.06301852                0.26402067                0.19460590                0.03391581               -0.44809525                0.00080322                0.33956897               -0.66024466
              10.86780561                8.39507612               60.71268172                0.00010000                1.29374818                0.05959245               -2.00833210               -2.81849711               10.18905634               -2.69332669
              11.88902766                7.94185627               60.55231138                0.00010000                2.71668886               -1.08546702               -2.96896932               -6.05075877               20.48842502               -1.29096501
              12.92213939                7.45982631               60.40727704                0.00010000                3.92100448               -2.20139583               -4.03379517               -8.55750356               22.32281052                0.12781650
              13.96744775                6.93877356               60.28115677                0.00010000                5.04538875               -3.07208463               -5.25547803              -12.58927388               24.25587226                0.76044935
              15.02304716                6.36943918               60.17012808                0.00010000                5.83017081               -3.09948718               -6.74581016              -17.75871601               25.53321982                0.30675732
              16.08405117                5.75051894               60.06165150                0.00010000                5.84089418               -1.38343873               -8.73963859              -22.56543961               25.14217190               -1.59050386
              17.13986504                5.09585454               59.92960416                0.00010000                4.49590157                3.31197752              -11.52412773              -23.87420216               21.38238746               -5.03919576
              18.17396920                4.45592832               59.73028912                0.00010000                2.39343767               11.43581167              -14.85193553              -16.04783701               12.22939929               -9.31806022
              19.18773380                3.92129852               59.41462716                0.59375760                1.37646002               16.24712649              -17.24421277               -6.96475502                5.96747666              -10.86660462
               9.25579802               10.18130759               61.31184232                0.87810709                0.01349208               -0.13874596                0.70255809               -0.05014768                0.00470872                0.98191201
              10.25593294                9.79031829               60.94683898                0.26230215                0.31389931                0.13834923               -0.76292671               -0.14363557                0.10373174               -0.72093548
              11.26207600                9.39566498               60.58385578                0.00010000                1.93355479                0.16037041               -2.55012626               -3.63337338               11.42515049               -3.23123727
              12.29460403                8.93267296               60.44518796                0.00010000                3.71248587               -0.62885096               -3.77786652               -7.06788835               23.60199058               -2.85139658
              13.33632572                8.44270684               60.32636463                0.00010000                4.45600336               -1.18823177               -5.00495423               -9.16359953               25.51575362               -1.52671664
              14.38372410                7.91621757               60.22563590                0.00010000                4.90015215               -1.44795249               -6.23933478              -12.74059360               27.06459068               -0.47086463
              15.43432876                7.34882337               60.13740209                0.00010000                5.10645156               -1.02015789               -7.92732043              -17.17880769               27.84059323               -0.12475599
              16.48585313                6.74642550               60.04881458                0.00010000                5.10059136                0.53089405              -10.38392407              -20.49340694               27.10362976                0.17082711
              17.53634059                6.13475721               59.93730323                0.00010000                5.10712175                3.91733595              -14.72144690              -19.99675893               23.30991803                0.28589310
              18.58799557                5.55384858               59.75565062                0.00010000                5.00123732               10.04107913              -20.54998208              -12.98802119               13.70296419                1.51191799
              19.63636534                5.06208410               59.44078858                0.58208031                4.83697702               14.38837930              -24.51355213               -5.13466511                7.19728929                0.05626999
               9.64488914               11.18024652               61.20413236                0.88067897                0.10334602               -0.08075735                0.42893203               -0.06045503               -0.01296358                1.02755017
              10.64592260               10.79227660               60.83015718                0.29377771                0.39471646                0.26898106               -1.09865272               -0.27185142               -0.35082410               -0.82313063
              11.65278347               10.39828353               60.44952020                0.00010000                2.73527151                0.53663332               -3.30267509               -4.28759626               12.02295956               -3.73326905
              12.70062803                9.92927925               60.32500755                0.00010000                5.12696616                0.06304583               -5.43839517               -7.23700024               26.30567676               -4.35782386
              13.75532279                9.43606167               60.23395788                0.00010000                5.29456573               -0.26950673               -6.53001049               -7.99839343               29.04130783               -2.31004999
              14.80651935                8.90981451               60.16376098                0.00010000                4.69701383                0.01559113               -7.29664714              -10.80117936               30.64878595               -0.88864651
              15.84926307                8.34903602               60.10834421                0.00010000                4.08649193                0.99555710               -9.08084434              -14.58243361               32.03702866               -0.06522204
              16.88824918                7.76113682               60.06928798                0.00010000                4.16218575                2.77288938              -12.80598972              -17.79109385               32.12932308                2.07474427
              17.93250679                7.17420126               60.01610134                0.00010000                4.93163535                4.74940628              -16.74752402              -15.72884832               29.52750700               10.60778659
              18.98688189                6.65674990               59.91429101                0.03085976                6.80313410               10.38570437              -29.24062852               -8.49926078               20.21017731               16.03939130
              20.06856947                6.20906611               59.63193027                0.57403352                8.16875756               12.70417022              -33.92727139               -4.83414128               13.59148544               12.60674297
              10.03052876               12.17969245               61.09644814                0.83248127                0.19301449               -0.03570681                0.17253503               -0.05659594               -0.01329762                0.96064986
              11.03245890               11.79569791               60.71285141                0.35590446                0.43963346                0.41649583               -1.46712199               -0.23041998               -0.79376986               -0.82142383
              12.03932143               11.40639764               60.31384302                0.00010000                3.98134915                0.99155151               -4.02359096               -4.50659927               12.43288457               -2.66763144
              13.11208588               10.93393388               60.19970810                0.00010000                7.82505874                0.05541830              -10.17166446               -5.49607724               29.18912079               -3.60394031
              14.19582260               10.43731671               60.13583672                0.00010000                7.13201405                0.26427306               -8.20595409               -4.88871653               33.26626561               -1.61487138
              15.25472617                9.91652939               60.10042401                0.00010000                4.77675880                0.98716791               -8.17346000               -6.39606727               34.82310503               -0.63685637
              16.29135778                9.36873451               60.08037928                0.00010000                2.50699285                2.60179384              -10.14319147               -8.77661843               37.05856178               -0.05230336
              17.30486602                8.80188329               60.09977292                0.00010000                1.73963832                5.23442291              -14.17809942              -11.56822223               44.95982265                1.85551630
              18.32615054                8.22974534               60.24731396                0.05299376                3.91397396                7.61149693              -28.22011106               -8.81367157               45.44696918               14.40805314
              19.38314550                7.76156267               60.27271369                0.13160121                5.44497816                7.30804139              -22.65060145               -3.23356697               23.45229298               13.85749390
              20.43505011                7.31616750               59.95333691                0.56828059                5.19046044                7.56455539              -23.48894727               -4.50472349               11.18003721               10.15653138
              10.41174629               13.17953238               60.98675348                0.91390920                0.28627143               -0.01600636               -0.08193028                0.22916670                0.43101818                0.88194172
              11.41460900               12.80060652               60.59713799                0.74701845                0.63346144                0.49086034               -1.79272478                0.14411909                0.20638773               -0.78180672
              12.42441552               12.41811456               60.20320781                0.52323256                7.25892107                1.17169142               -4.03867013               -5.00153554               13.73728139               -1.59532542
              13.55978743               11.93038762               60.08627259                0.36714305               12.52687181               -0.35462604              -13.33218802               -4.06821701               31.15982392               -0.46505577
              14.67495296               11.44134714               60.04761825                0.36061900                9.36963832                0.40304296               -9.28364815               -2.12845228               37.30693349               -0.80693422
              15.74718019               10.92955786               60.03953194                0.36555908                5.67119224                1.30284763               -9.03054881               -2.76835905               39.13987323               -0.13025392
              16.78837680               10.40107190               60.04737122                0.38179710                2.43468607                3.23373857              -10.93505060               -3.48472686               41.81814843                0.36394700
              17.79587391                9.86582528               60.10462775                0.41035538                0.40885866                6.39419901              -15.47537737               -4.63124609               53.62749679                1.60149241
              18.79655397                9.32643120               60.37392179                0.56902622                1.99572387                9.66858548              -30.24386922               -6.10538434               50.51368360               13.67210104
              19.83578839                8.80291073               60.35519572                0.60890015                3.63556809                4.13480616              -16.30857913               -3.03941004               21.21083077                6.08888755
              20.86926533                8.36035721               60.01752675                0.78356888                3.34769439                4.41897136              -18.04595194               -0.83382876                9.28197289                2.90185542
               6.77747501                3.33084211               63.09165699                1.00000000               -0.59240716               -0.74869292                2.59666194               -0.24359136               -0.56538925                0.65245278
               7.77155094                2.91151086               62.75354311                1.00000000               -0.41343154               -0.35259487                1.32169804               -0.18922519               -0.70547988                0.09921192
               8.76920638                2.49149177               62.41210385                1.00000000               -0.05834347                0.03057970                0.05859679               -0.18820023               -0.67437382               -0.10811024
               9.77038407                2.07001542               62.07436754                0.60451316                0.19694100                0.45770926               -1.23373803               -0.31774308               -0.08145118               -0.57813748
              10.77314520                1.64484427               61.74483469                0.52209589                0.50551464                0.96101618               -2.70753510               -0.33563006                0.61959657               -0.14518511
              11.78049436                1.21683638               61.42113522                0.38095235                0.88861390                1.39313543               -4.17695602               -0.42121147                1.01660108               -0.50010649
              12.79091748                0.78381206               61.10028345                0.01205801              -16.28409235                1.82700414               -5.47103623              -26.30101820               12.11537868               -0.87097305
              13.45481251               -0.17015883               61.00069483                0.00010000              -22.02078733                7.96451089               -2.46198091              -25.29580399               16.89059046                2.48579847
              14.35050173               -1.10549327               60.77253257                0.00010000                2.27941233                3.80879477               -5.48538317              -20.83991589                3.30872614               15.52218308
              15.50040076               -2.02256308               60.34643995                0.74001773                8.92211200                3.19375917               -9.02260940              -21.08548430               -3.27712702                1.08905178
              16.52894397               -2.53809299               59.97917435                1.00000000                2.85432088                3.86109361              -11.10809225                0.33738785               -1.57627183               -0.18790394
               7.19437034                4.32335518               62.98006039                1.00000000               -0.50364875               -0.70233593                2.31816631               -0.04400069               -0.03022714                0.90573741
               8.18933386                3.90798491               62.64181042                1.00000000               -0.31491235               -0.31479363                1.04135728                0.00436994               -0.00233383                0.15543863
               9.18807210                3.49179757               62.30367423                1.00000000                0.05982660                0.06765938               -0.21963470                0.01516813                0.05948407               -0.26364546
              10.19053039                3.07459251               61.96651174                0.48973919                0.41531620                0.48951769               -1.50956172               -0.07332364                0.95072480               -0.68699553
              11.19637842                2.65445443               61.64639208                0.47945616                0.81339828                0.94604625               -3.04240876               -0.09339357                1.69130228               -0.24268739
              12.20679835                2.23076773               61.32433006                0.35250979                1.25132408                1.39410078               -4.53932401               -0.21512334                1.71758742               -0.63635934
              13.22140490                1.80208210               61.00556897                0.00010000               -3.01456074                1.69441163               -5.87817200              -23.26167264               15.89649902               -0.95134451
              14.14650714                0.90948628               60.96855280                0.00010000               -7.65501027                3.26971719               -5.43278746              -33.73551388               26.75457016                5.92733579
              15.06830470               -0.06740532               60.85548174                0.00010000               -7.03306779                5.01008864               -6.81120580              -32.16598233                2.63192525               16.34159414
              16.00584578               -0.99062549               60.27923181                0.09957133               -1.02284674                4.19965604              -13.39119163              -19.27628972               -8.97799705               51.18928595
              17.04784776               -1.49948206               59.91174421                1.00000000                4.20019788                4.18903571              -15.47064395                0.18702101               -0.63093835               48.19003307
               7.60733553                5.31679539               62.87284976                1.00000000               -0.41395795               -0.60144054                2.03108766               -0.05175400                0.16806227                1.08287783
               8.60319595                4.90521499               62.53091961                1.00000000               -0.22166949               -0.23686817                0.75181304               -0.00768117                0.34759094                0.07809523
               9.60290214                4.49284496               62.19223561                0.65583971                0.15323904                0.15717320               -0.51286159                0.00665380                0.68554029               -0.59873550
              10.60626073                4.07980578               61.85698917                0.00010000                0.60999851                0.57543198               -1.72499034               -0.12050006                2.10953379               -0.87270073
              11.61510211                3.66376520               61.54704478                0.00010000                1.11517487               -1.00589248               -3.35648227               -1.07432254                2.80956021                3.21412172
              12.62856423                3.24471840               61.22610731                0.00010000                1.59316869               -2.51171948               -4.81159089               -1.36872310                2.49843821                7.07413782
              13.64696548                2.81770029               60.91082684                0.00010000                1.05127152               -8.35947513               -6.10450269              -24.27187812               23.53122835               14.46788194
              14.64958966                1.89523551               61.01083864                0.00010000               -1.98358163               -1.26333586               -5.95764081              -42.12230151               39.66417042                9.18593195
              15.60729385                0.99470851               60.97659069                0.00010000               -5.13189755                4.95733160               -6.78010950              -40.29409422               49.90408070               15.48373174
              16.54695171                0.06143004               61.24430543                0.43963721               -2.84481617                3.50093126               -1.67143370              -20.33112494               32.96572302               52.99127147
              17.55039753               -0.45431228               60.84763961                0.95727705                0.34458200                3.13342123               -1.98754899               -0.01025774               -0.35557671               50.32127183
               8.01649606                6.31132637               62.76408541                1.00000000               -0.33654002               -0.48700352                1.74153064               -0.05340202                0.28905284                0.91511807
               9.01313066                5.90324755               62.41740697                0.59050354               -0.14408400               -0.16278321                0.45961380                0.01765506                0.62664869               -0.35986813
              10.01361438                5.49494103               62.07727562                0.00010000                0.20347417                0.24721732               -0.83764025                0.05271674                1.38967698               -1.19498618
              11.01720015                5.08610115               61.74594366                0.00010000               -0.18175169               -0.70957890               -1.97976830               -2.41552611                6.99828921                2.44442486
              12.00997935                4.63433658               61.51884700                0.00010000                0.41443240               -2.93051113               -2.86715003               -4.30807194               12.09252556                6.20384258
              13.02548879                4.18053334               61.28508722                0.00010000                3.77354368               -6.97457110               -4.02975128               -7.84972698               15.90008852               12.43270230
              14.08545022                3.63489260               61.12711801                0.00010000                5.07820497              -14.44752650               -4.84269672              -20.69408769               24.46448013               19.45851938
              15.12705289                2.88421956               61.04611266                0.00010000                0.53890299               -2.60586656               -5.70437126              -33.41381603               34.19762188                7.33598881
              16.09622828                2.03174131               61.06579861                0.00010000               -3.94044123                3.41245148               -5.85722682              -40.12267960               44.17708685                4.85070539
              17.04824407                1.07939314               61.15997165                0.23106382               -0.85505195                3.35913278               -9.58981394              -21.25991967               25.81249631               -7.76518711
              18.07912724                0.56318637               60.76168999                0.87891829                3.08831746                1.67185446               -9.88883208                1.12493302                0.42126129               -8.34989712
               8.42242512                7.30705532               62.65271579                0.92845267               -0.24907383               -0.36334285                1.46257424               -0.03056441                0.09383394                0.78825325
               9.41993439                6.90195932               62.29763101                0.34742823               -0.06611290               -0.11356115                0.15114334                0.10343184                0.67903795               -0.68094848
              10.42110287                6.49778930               61.95409111                0.00010000               -0.06898661                0.18338491               -1.13234828               -1.12156656                5.87072689               -1.96999686
              11.41855465                6.06561420               61.70295802                0.00010000                0.67028065               -1.94280634               -1.26599243               -3.57936823               12.30388623                3.42809023
              12.43450848                5.60515497               61.48620947                0.00010000                2.62295088               -3.29941862               -2.96106614               -5.31087874               16.10884479                4.98020019
              13.47101367                5.10522697               61.30479088                0.00010000                4.74445171               -6.75697486               -4.02191489               -9.64147415               20.09717790                7.55507019
              14.52939751                4.52874976               61.15984323                0.00010000                5.67254751               -8.75353067               -5.03786188              -18.87051543               24.70822783                7.12367162
              15.58446462                3.84311818               61.05960666                0.00010000                4.01345837               -4.17071361               -5.92456978              -27.76967361               28.92714418                3.38080608
              16.60966668                3.06295754               60.98941127                0.00010000                0.29218187                1.88525506               -6.69863213              -35.52742334               30.44670414               -5.43850409
              17.59030826                2.12861270               60.91807898                0.12535367               -0.21784791                9.47082953               -7.30209210              -20.44408466               16.18666710              -18.99732627
              18.60530972                1.57912481               60.53714867                0.76801593                1.50014638                5.71796053               -9.28680441               -3.73728113                1.74973720              -13.51517105
               8.82607676                8.30405951               62.54058071                0.89054086               -0.16114489               -0.25307986                1.20039343               -0.02887476                0.03714489                0.84511938
               9.82446531                7.90097632               62.17784411                0.28374834                0.07257069               -0.07149493               -0.12709959                0.09340346                0.50318998               -0.67473556
              10.82752818                7.49860873               61.82435866                0.00010000                0.68908985               -0.02374829               -1.54758113               -2.13494691                8.59435301               -2.54583012
              11.83824711                7.04724503               61.62295531                0.00010000                1.83104111               -1.65598862               -2.33612687               -4.74192909               17.16882512                0.62499966
              12.86414900                6.56834821               61.43874482                0.00010000                3.54087055               -3.31842486               -3.33270096               -7.38321300               19.46792420                2.71657151
              13.90906452                6.04539385               61.27900105                0.00010000                5.29998544               -5.13207202               -4.53774469              -12.13751833               22.24475093                3.67199243
              14.97014871                5.45982199               61.14270423                0.00010000                6.41935629               -5.76982478               -5.73285872              -18.86491969               24.58523094                3.08733849
              16.03745165                4.80080529               61.02092503                0.00010000                6.50182964               -3.70624113               -7.00154438              -25.53783955               25.33511453               -0.06612778
              17.10018530                4.06944642               60.89148191                0.00010000                4.28717272                0.91705975               -8.24131124              -30.71519092               22.77419227               -6.12428854
              18.12319510                3.26880973               60.70969580                0.01779687                0.15860455               13.71083811               -8.49755113              -21.04311761               12.46182047              -19.21980515
              19.10335739                2.67754558               60.35934284                0.65192862               -1.98377106               13.77871856              -11.33573655              -10.96889959                5.50677138              -15.53236581
               9.22801400                9.30199372               62.42942988                0.87980813               -0.07607614               -0.17183994                0.93691954               -0.03912191                0.01294338                0.95994786
              10.22725324                8.90052942               62.05867501                0.27043653                0.20606137               -0.00147476               -0.41095951               -0.04095193                0.24275124               -0.67763776
              11.23213522                8.49731434               61.69253205                0.00010000                1.33616763               -0.12583234               -1.98134655               -3.06569025               10.28041770               -2.95195927
              12.25397659                8.03249443               61.52247730                0.00010000                2.82800871               -1.25298403               -2.93860831               -6.49182828               20.88340753               -1.26527798
              13.28869540                7.53878648               61.36684283                0.00010000                4.14064706               -2.41333587               -4.11461410               -9.22569261               22.63760633                0.39277996
              14.33678953                7.00258553               61.22837606                0.00010000                5.39961401               -3.35764342               -5.35892665              -13.82126646               24.42909140                1.45060300
              15.39668768                6.41335327               61.10242119                0.00010000                6.36469353               -3.56322306               -6.79512976              -19.58861556               25.42174097                1.33087365
              16.46408340                5.76899336               60.97468131                0.00010000                6.53353717               -2.19725782               -8.52842587              -25.01886567               24.45552711               -0.35099436
              17.52735842                5.08129873               60.81736631                0.00010000                4.86316713                1.88487928              -10.54314178              -26.98314497               20.17624837               -4.45036369
              18.56134674                4.40282946               60.58857235                0.00010000                2.05508020               11.13043562              -13.16243040              -18.47126099               10.99680574              -10.32378815
              19.56846003                3.85469918               60.24953066                0.60216158                0.71132838               14.63297040              -15.52473252               -8.37094411                4.88548740              -11.59044694
               9.62822292               10.30062271               62.31875737                0.87554962                0.01027426               -0.10291952                0.66718165               -0.04730364                0.00245013                1.03416355
              10.62832566                9.90094683               61.93941604                0.28292300                0.30132273                0.09219953               -0.70469279               -0.22002635               -0.09822847               -0.75460588
              11.63424937                9.49609208               61.55816175                0.00010000                1.93063737               -0.00618526               -2.45802428               -3.92304390               11.27733525               -3.55801933
              12.66693841                9.02218535               61.40770985                0.00010000                3.76473343               -1.11597082               -4.01982211               -7.63252438               23.72097193               -3.29975240
              13.70954404                8.52008149               61.27583612                0.00010000                4.55669980               -1.14864481               -5.18707955               -9.94502510               25.75880694               -1.45781471
              14.75807240                7.97824098               61.16251150                0.00010000                5.12122663               -1.54226635               -6.46136568              -14.12291729               27.31112358                0.28589783
              15.81196857                7.38855752               61.05723141                0.00010000                5.55282340               -1.33338310               -8.12087024              -19.34600893               27.78927515                0.93572242
              16.86912887                6.75686013               60.94315898                0.00010000                5.73588645                0.02429652              -10.55910588              -23.59095655               26.13036829                0.84885909
              17.92668630                6.10714400               60.78977209                0.00010000                5.56202812                2.98410033              -14.19401170              -23.43916809               20.82964921                0.22033366
              18.98036943                5.49141844               60.55779674                0.00010000                5.27563803                7.84068106              -18.57599961              -15.01561874               11.24526226               -2.38061624
              20.03219906                4.97020499               60.21048626                0.58666649                5.18296294               10.51536754              -21.68010564               -6.04999962                5.76339028               -5.73449569
              10.02641969               11.29993533               62.20831544                0.87863528                0.09636521               -0.04098600                0.39230138               -0.05792695               -0.02007508                1.09832068
              11.02738334               10.90237341               61.81944437                0.34254578                0.30080717                0.21146503               -1.01461753               -0.35523171               -0.71991587               -0.89510731
              12.03243583               10.49719063               61.41678306                0.00010000                2.49766752                0.36841464               -2.88440994               -4.95435744               11.16810284               -3.94322969
              13.07733669               10.01017501               61.26983244                0.00010000                5.06517179               -0.10071692               -5.46561784               -7.42256361               26.09459153               -7.14745214
              14.13373926                9.51581358               61.16586639                0.00010000                5.42592323                0.13766686               -7.29479219               -8.15090367               29.44434198               -2.08545739
              15.18585515                8.97174021               61.08965247                0.00010000                4.87045417                0.04858367               -7.57782685              -12.36579779               31.20466975                0.01454485
              16.23114835                8.38668561               61.01543767                0.00010000                4.39113198                0.89166742               -9.58920473              -16.72432978               31.81916208                0.94074305
              17.27367779                7.76947929               60.93598178                0.00010000                4.64342022                2.76099584              -13.43664841              -20.54828312               31.31105474                2.62141146
              18.32401675                7.14098074               60.83469972                0.00010000                6.21477948                5.22777137              -19.09924565              -19.84595070               25.59924439                5.63789858
              19.39797338                6.55964308               60.62626511                0.00111246                8.29350933                8.32811468              -27.46467364              -12.48299983               14.29336276               11.48721623
              20.48988694                6.06500653               60.27672796                0.58100258                9.19135571               10.90145601              -32.97963582               -4.73904859                7.94831075                7.50614379
              10.42218821               12.29980299               62.09809050                0.82855568                0.17775162                0.00239786                0.13190263               -0.04774835               -0.05077092                1.05918868
              11.42396572               11.90517613               61.69844774                0.45718307                0.25862108                0.35468526               -1.35821790               -0.31308819               -1.17528755               -0.91260096
              12.42736063               11.50346037               61.27679362                0.10019329                3.79492313                0.72979777               -2.93895170               -4.56775875                8.28545620               -2.59062674
              13.49986418               11.02017101               61.07153516                0.00010000                7.88000707                2.28265711              -17.02186346               -5.24212752               25.25456680               -6.31098557
              14.58496077               10.52283483               61.05111215                0.00010000                7.00101180                0.52887537               -8.10110925               -4.97782334               35.41196741               -1.14264915
              15.63988442                9.97921265               61.01782703                0.00010000                4.73910626                1.11465022               -8.73389605               -7.70725866               35.50474490                0.06616481
              16.67974289                9.40639087               60.97541064                0.00010000                3.19918268                2.73968098              -10.96430594              -10.22328101               37.04015450                0.66415542
              17.70386807                8.81208005               60.94773769                0.00010000                2.99303008                5.37406731              -16.22274070              -13.01583736               39.71564304                2.49852202
              18.73960350                8.21169943               60.92455592                0.00010000                5.14077833                9.91252626              -29.97265118              -12.11358487               42.52290607                6.48282415
              19.80668364                7.65798073               60.93034955                0.07597219                9.35438434               11.72047135              -41.56994555               -7.18561378               29.26115952               15.46693781
              20.92669118                7.18823411               60.60594986                0.58009180               12.00075415               12.67720717              -45.74071901               -2.88361361               18.33763791               10.46887475
              10.81471844               13.29998329               61.98588365                0.91057900                0.27457515                0.01802967               -0.13824539                0.20140666                0.47280556                1.00566683
              11.81746419               12.90946712               61.57960247                0.81946643                0.56836684                0.42909901               -1.62647322               -0.05998814                0.14196973               -0.89696401
              12.82608578               12.51178659               61.16680662                0.59947613                6.78277455                0.83262130               -3.04015093               -2.80943360                7.71429033               -1.46165031
              13.95311968               12.05582815               60.91443937                0.36696681               12.45276895                3.56571428              -18.02025572               -3.94422528               24.82546615               -3.50764011
              15.07514115               11.52639109               60.95366453                0.36057445                9.75171283                0.35562569               -9.48701109               -4.07170846               40.39209925               -0.93311350
              16.14815394               10.99403321               60.94742539                0.36539412                5.93370891                1.48205581               -9.73544758               -3.41864140               39.63068897               -0.08336302
              17.19381533               10.44147923               60.93197217                0.38095717                2.99492761                3.50883523              -12.20610579               -4.44638492               42.19017880                0.32408469
              18.20805249                9.87696063               60.94345810                0.40812163                2.10145189                6.48805864              -17.89251050               -4.69395648               46.70247528                1.54971633
              19.23584437                9.33923126               60.97728729                0.51751810                3.48369691               12.75318352              -35.67254833               -4.52131887               53.32759388                4.69578090
              20.27772643                8.79405251               61.09309242                0.57081173                6.79317741               13.60717736              -41.48088812               -3.92975061               36.82203078               14.65128552
              21.37170792                8.31855068               60.74865011                0.79165361                9.39814907               13.03165695              -44.32828867               -3.04850933               21.44887273                8.31755494
               7.11642491                3.45030561               64.11705772                1.00000000               -0.56494440               -0.71233835                2.47636679               -0.23342144               -0.54512726                0.64169232
               8.11077547                3.02561866               63.76648675                1.00000000               -0.39387749               -0.33792559                1.26526247               -0.18225497               -0.67686100                0.09498696
               9.10854736                2.60026419               63.41270923                1.00000000               -0.05493675                0.02431145                0.06640441               -0.18000270               -0.65506997               -0.10180127
              10.10967673                2.17355415               63.06235376                0.60046257                0.19170738                0.42915616               -1.15955372               -0.30115227               -0.16910050               -0.56119786
              11.11238151                1.74335691               62.71843795                0.51009619                0.47870865                0.90394388               -2.55309899               -0.32836825                0.43489803               -0.17351623
              12.11925091                1.31023144               62.38035553                0.35785179                0.79299002                1.32014025               -3.95246083               -0.46513884                0.90589310               -0.53925740
              13.12824131                0.87119825               62.04692276                0.00010000              -15.30230507                1.75511832               -5.17545829              -25.96469451               13.77174362               -0.98568180
              13.81320481               -0.08152767               61.96925378                0.00010000              -20.09978369                7.10715864               -3.75550517              -24.66892955               20.43956053                4.41682441
              14.72624564               -1.01148117               61.72221342                0.00010000                3.14934540                3.10818150               -4.81199689              -19.47749873                3.51837052               17.68271218
              15.87619171               -1.92630745               61.27589925                0.85137994                8.36838957                1.87492144               -5.60094607              -20.06941927               -3.21980701                0.69837085
              16.89361343               -2.45057745               60.89208242                1.00000000                1.74217149                2.28793831               -6.92365046                0.12606490               -1.03948817                0.03624934
               7.53877765                4.44318223               64.00272896                1.00000000               -0.48040168               -0.66507241                2.20906990               -0.04562984               -0.01824175                0.89525607
               8.53397363                4.02223941               63.65200253                1.00000000               -0.29990273               -0.30146748                0.99607024               -0.00053600                0.01948112                0.14756224
               9.53277959                3.60050731               63.30154759                1.00000000                0.05726117                0.05947700               -0.20149347                0.01170474                0.07385168               -0.26767149
              10.53511885                3.17784571               62.95178840                0.50030571                0.39897971                0.46051935               -1.42544571               -0.07033761                0.82905444               -0.64622893
              11.54075919                2.75239635               62.61671982                0.48491486                0.77799982                0.88807636               -2.87458475               -0.09036383                1.45539209               -0.26741753
              12.55067885                2.32343284               62.28001435                0.34867231                1.18573678                1.31489370               -4.29816526               -0.24800849                1.55473424               -0.64185692
              13.56447392                1.88874943               61.94807934                0.00010000               -2.14118150                1.59672653               -5.59228920              -23.30085173               16.58243507               -0.96322967
              14.50785522                0.98954391               61.91376097                0.00010000               -5.53066930                2.31975333               -5.44044733              -33.12173624               28.96413623                8.21332599
              15.45386054                0.01960064               61.79261964                0.00010000               -5.64047799                4.02321765               -5.78101346              -31.30879876                2.35629165               19.80754086
              16.39504566               -0.90755823               61.17825373                0.09751160               -1.73582270                5.70419802               -7.86562062              -18.94597969              -10.61219871               56.98029794
              17.41914408               -1.42769807               60.79429408                1.00000000                2.40984218                5.88598374               -9.18128689                0.70765900               -0.55496084               55.51179483
               7.95739796                5.43700416               63.89270352                1.00000000               -0.39582851               -0.56065932                1.93310932               -0.05332888                0.17502600                1.07196215
               8.95343967                5.01958931               63.53826674                1.00000000               -0.21114025               -0.22774956                0.71740870               -0.01200229                0.36313708                0.06582641
               9.95317515                4.60145373               63.18721316                0.60897850                0.14706345                0.14653554               -0.48596244                0.00536802                0.73360201               -0.63133907
              10.95638094                4.18276454               62.84014845                0.00010000                0.59059786                0.55545974               -1.63440862               -0.13268017                1.97912569               -0.82800034
              11.96498711                3.76111843               62.51435596                0.00010000                1.07783568               -1.15822598               -3.16651827               -0.95038715                2.54462643                3.55346349
              12.97793765                3.33652931               62.17923028                0.00010000                1.55630474               -2.74048540               -4.54415921               -1.08293654                2.37393034                7.57944380
              13.99611320                2.90313278               61.85120938                0.00010000                2.09906066               -8.88017153               -5.79316859              -24.05018475               24.15000355               15.24434496
              15.01991887                1.96486739               61.95229899                0.00010000                0.05293007               -2.13131793               -5.73082401              -41.84923477               40.58687649               11.95532025
              15.99717180                1.06898318               61.91344673                0.00010000               -3.76740191                4.03207600               -5.85465036              -37.17056976               53.11299048               19.94559697
              16.94457083                0.18777651               62.22805317                0.45979210               -2.45627632                5.41295427               -1.68748952              -16.99258445               35.68938803               59.86904761
              17.94804628               -0.33285777               61.83221493                0.95778312                0.34754497                5.30548241               -1.48305620                0.84892182                0.19784417               59.06236732
               8.37254077                6.43196904               63.78110753                1.00000000               -0.32567513               -0.44279552                1.65582847               -0.04875092                0.29732533                0.91338047
               9.36928402                6.01768442               63.42190317                0.56800673               -0.14145203               -0.16357359                0.44032123                0.03078334                0.62454593               -0.37898324
              10.36971173                5.60343802               63.06900698                0.00010000                0.17582648                0.22038202               -0.80781002                0.08939834                1.45772876               -1.23074771
              11.37280055                5.18895491               62.72659620                0.00010000               -0.08625277               -0.86602622               -1.87799180               -2.33455852                7.22921244                2.75929896
              12.36798667                4.72923183               62.49029432                0.00010000                0.71026154               -3.13324661               -2.87094642               -4.18486728               12.31394195                6.85629606
              13.38700578                4.26862313               62.24512754                0.00010000                4.35727369               -7.36834927               -4.00087772               -7.72695755               16.13757217               13.38255708
              14.45513214                3.71114600               62.07895537                0.00010000                5.90071717              -15.12045394               -4.83207887              -20.65809848               24.62349102               21.13840877
              15.50502012                2.94691755               61.98997847                0.00010000                1.62039361               -3.04071491               -5.52668374              -33.34657367               34.64969064               10.02080356
              16.48754002                2.10024216               62.00940942                0.00010000               -2.39925970                2.42452628               -5.34266548              -37.62913267               43.54062011                9.58173480
              17.45703493                1.20070085               62.07532333                0.32277646               -0.50744603                1.61672134               -6.78378553              -19.01346919               23.95505416               -4.25461493
              18.47739110                0.67841158               61.67832910                0.96985038                2.03561709                1.19045925               -6.49438792                0.28261385               -0.24476539               -4.05669553
               8.78499219                7.42814825               63.66700833                0.91930293               -0.24058247               -0.31593111                1.38838872               -0.01830301                0.08629247                0.80420746
               9.78258636                7.01631784               63.29914686                0.33908332               -0.06497812               -0.12915767                0.15518414                0.13432562                0.67943037               -0.69127599
              10.78369263                6.60586137               62.94296436                0.00010000                0.06547978                0.08387837               -1.08781776               -1.15085451                6.26719277               -2.06915551
              11.78389596                6.16544401               62.68691068                0.00010000                0.89644572               -2.07959458               -1.78450774               -3.54243394               12.75315655                3.93160933
              12.80162154                5.69845350               62.45660118                0.00010000                2.87941859               -3.43994979               -3.01935567               -5.32812673               16.12087398                5.41984111
              13.84148433                5.18916233               62.26440090                0.00010000                5.15176356               -7.05546000               -4.10589715               -9.93387609               20.19107221                8.34028293
              14.90465681                4.60072370               62.10963475                0.00010000                6.12034493               -9.05820379               -5.04641180              -19.46061378               24.79453577                8.40453032
              15.96389123                3.90405309               62.00181445                0.00010000                4.30745195               -4.46102432               -5.64902206              -28.33841103               29.10658204                5.63045897
              16.99080585                3.11747371               61.92690245                0.00010000                1.11203981                0.89173498               -5.75175492              -34.27675399               31.02315171               -2.01902363
              17.98613203                2.22011094               61.85222204                0.19116258                0.37356247                3.47710125               -5.10118268              -18.38927254               16.36484765               -9.41336660
              18.99827710                1.69095141               61.46417980                0.83459409                1.21450742                1.78503414               -5.41411284               -0.92339847                0.24934595               -6.80864591
               9.19583553                8.42565042               63.55229790                0.88542271               -0.15781185               -0.20522561                1.13367062               -0.02042098                0.03333256                0.87289445
              10.19425741                8.01510126               63.17669021                0.28862357                0.08664676               -0.09664518               -0.09876311                0.08921732                0.43395020               -0.66851580
              11.19756846                7.60511558               62.80903218                0.00010000                0.75511627               -0.18137651               -1.48787105               -2.09095956                8.75037452               -2.71435482
              12.20935974                7.14736302               62.59944485                0.00010000                2.00686812               -1.68239186               -2.37445217               -4.80968392               17.49773621                0.68534844
              13.23770583                6.66043283               62.40485188                0.00010000                3.83491618               -3.39314455               -3.49025474               -7.62389388               19.59009964                3.14541665
              14.28605806                6.12751393               62.23321284                0.00010000                5.66616374               -5.24435806               -4.67356137              -12.57420106               22.22463523                4.43171475
              15.35102910                5.52998192               62.08551873                0.00010000                6.77219158               -5.95971106               -5.74532254              -19.46484755               24.49223134                4.32800059
              16.42150189                4.85769707               61.95281523                0.00010000                6.74589943               -4.13939939               -6.59520684              -25.87898496               25.17006759                1.79840554
              17.48594709                4.11807686               61.81417906                0.00010000                4.71349402               -0.44583085               -6.99037462              -32.43805312               22.83779286               -3.42987683
              18.51577177                3.27024288               61.63805242                0.06591961                1.56475502                9.06203430               -5.35737930              -21.41778313               11.35095540              -13.45638015
              19.51724219                2.71411226               61.26469050                0.69939080                0.14704189                7.36973797               -6.84473368               -7.35056976                2.77063645               -8.83508536
               9.60568208                9.42404374               63.43854435                0.87787087               -0.07765353               -0.12725616                0.87251937               -0.03117262                0.01158818                0.98829383
              10.60490555                9.01438494               63.05479933                0.29019957                0.19647997               -0.03222223               -0.35509064               -0.07516617                0.10930655               -0.66971235
              11.60961168                8.60223384               62.67305479                0.00010000                1.37397437               -0.24310021               -1.82698392               -3.04141639               10.27475532               -3.03889982
              12.63238503                8.13179618               62.49353921                0.00010000                2.96905340               -1.40201235               -2.95869827               -6.48269301               20.98954927               -1.33268926
              13.66899275                7.63059061               62.32498475                0.00010000                4.40330923               -2.29529234               -4.27494916               -9.42633144               22.59663579                0.74393139
              14.72045122                7.08427516               62.17397824                0.00010000                5.80919881               -3.34274108               -5.58624459              -14.32839555               24.35129063                2.23053442
              15.78517672                6.48152948               62.03422549                0.00010000                6.88826865               -3.77302936               -6.86874074              -20.22861869               25.23407029                2.55723167
              16.85821659                5.82126511               61.89108298                0.00010000                7.21611255               -2.77974223               -8.15403306              -25.92772288               24.13245295                1.24598305
              17.92949898                5.10855709               61.71874133                0.00010000                5.17621850                0.18768063               -9.11248149              -28.37823736               19.41327810               -2.47240681
              18.96174096                4.40135163               61.46704051                0.00795767                1.70139790                9.91503107              -10.09126786              -19.68980231               10.69594282              -11.36969920
              19.96352693                3.83834617               61.10413251                0.63556515                0.17859729               10.30423092              -12.25550809               -9.84995007                5.04059354              -11.54313821
              10.01452968               10.42310530               63.32518595                0.87498089                0.00343054               -0.05819704                0.60152399               -0.03746240                0.00445540                1.06065067
              11.01456399               10.01445682               62.93274512                0.32463235                0.23996081                0.04789064               -0.61278792               -0.23502988               -0.28444646               -0.74530381
              12.01932890                9.60025358               62.53469529                0.00010000                1.83925594               -0.07233854               -2.06746261               -3.94941365               10.70775146               -3.39095442
              13.05134910                9.11932277               62.36479151                0.00010000                3.86856570               -0.46456390               -3.95689380               -7.23375467               23.42094338               -3.51896411
              14.09670021                8.61452698               62.22262304                0.00010000                4.86010890               -0.57570568               -5.68934467              -10.16334036               25.75774651               -1.57992642
              15.14855128                8.06065911               62.09640859                0.00010000                5.63832871               -1.47426453               -6.75576054              -14.97077039               27.25845008                1.11331621
              16.20946678                7.45452134               61.97498469                0.00010000                6.36842687               -1.59289132               -8.35879437              -20.22083024               27.53256585                2.06078809
              17.27591982                6.80210222               61.83763246                0.00010000                6.44145179               -0.61393828              -10.39618991              -24.78496088               25.47136689                1.92396022
              18.33829582                6.12183047               61.65342299                0.00010000                5.81334121                2.18091510              -12.74838389              -25.44246781               19.79431546               -0.34843377
              19.39218664                5.46854350               61.38413063                0.00010000                5.39791417                5.62948954              -16.00505472              -16.63268224               10.17599720               -5.09538914
              20.44625410                4.92019688               61.00718647                0.61579265                5.40674598                6.26896037              -18.71366467               -6.68050919                4.49040142               -8.77891863
              10.42222979               11.42287980               63.21197838                0.87883408                0.08268767                0.01013586                0.32116420               -0.04024591               -0.01927540                1.12818526
              11.42305667               11.01534275               62.80986483                0.42531608                0.17638338                0.14154861               -0.87129033               -0.32033396               -0.83292105               -0.89170381
              12.42575746               10.60078707               62.39183200                0.04437489                2.51899348                0.21539858               -1.97517216               -4.01118093               10.30701433               -3.31814268
              13.47343654               10.12250490               62.21569520                0.00010000                4.93160730                2.18922356               -9.22406940               -9.51004940               24.40988264              -13.26695993
              14.52438960                9.61907650               62.08806204                0.00010000                5.38024617                0.60693004               -7.23856632              -10.33225778               29.43059380               -1.56689622
              15.58104146                9.05478987               62.01220444                0.00010000                5.74637025               -0.02896722               -8.09353161              -13.87167814               31.61128935                0.71534756
              16.63931701                8.44967165               61.91656011                0.00010000                5.70833878                0.54808930              -10.14579218              -17.65100573               31.17361430                1.90423165
              17.69520823                7.80898634               61.80055501                0.00010000                5.74456669                2.11375933              -13.44471421              -21.16912386               29.39100468                2.60371425
              18.75420834                7.15217539               61.63411643                0.00010000                6.77563370                4.74918910              -18.92061204              -21.96719668               22.84624317                2.70440526
              19.83072091                6.51394142               61.36499754                0.01172990                8.62008218                6.77653080              -25.26685161              -14.68309523               11.62030103                1.26917222
              20.92660998                5.96372538               60.97233755                0.61276456                9.58890768                6.67129806              -29.31945248               -4.80419767                5.82638237               -4.15597479
              10.82879886               12.42330801               63.09908619                0.82614121                0.14511767                0.05898092                0.03420940               -0.02527375               -0.09444058                1.07839203
              11.83025004               12.01728779               62.68568706                0.60343122                0.15721350                0.25075095               -1.11839938               -0.26388492               -0.98449824               -0.87260111
              12.83194313               11.60456155               62.25506399                0.24858937                0.63043262                0.40342339               -1.59391691               -1.80367874               -0.19004381               -2.00890864
              13.84285869               11.16310724               61.85927083                0.00010000                6.29134757                2.59607508              -12.75793630               -9.09468291               23.44925548              -11.27904153
              14.95777008               10.62666558               61.97381454                0.00010000                9.88319392               -0.07481984               -8.76541625               -8.88040804               41.35039497               -0.66227106
              16.04052257               10.06007976               61.92574609                0.00010000                7.22400612                0.69520018               -9.50542866               -9.03687975               35.18639685                0.51537576
              17.10225020                9.46548312               61.86109316                0.00010000                5.47555172                2.23794399              -11.98854246              -10.94358472               35.82119880                1.35881747
              18.15003360                8.84437741               61.77531810                0.00010000                4.58733029                4.81962258              -17.05870979              -12.96343953               35.37401036                2.01591402
              19.19399681                8.21681426               61.64786093                0.00010000                6.84705761                8.13543493              -26.15830046              -14.05200516               31.17446522                2.90151223
              20.28697475                7.60407412               61.44131478                0.06095833               12.83027121               12.82546391              -46.52222410               -9.65230693               19.09289311                4.12194181
              21.45060223                7.05362284               61.03852253                0.61481537               16.36274793               13.87912199              -54.16057620               -2.01925607                9.93133838               -2.08254179
              11.23376476               13.42405942               62.98398857                0.90832288                0.27606704                0.07514049               -0.28248431                0.12642510                0.48637753                1.01463000
              12.23652543               13.02035777               62.56460853                0.91508156                0.50498360                0.30699793               -1.28785669               -0.13265473                0.34255493               -0.83450784
              13.24386443               12.60885554               62.14240479                0.69739395                1.64567068                0.42939870               -1.95629274               -1.10443832                0.27860237               -1.10402844
              14.26943884               12.17442640               61.72586747                0.36669880               10.29722433                1.13191599              -10.74807881               -6.90575642               21.98066802               -1.74937237
              15.44980892               11.61758010               61.85787803                0.36072015               14.60237416               -0.90854836              -10.09075037               -6.08274255               44.34273075               -2.02927246
              16.56148633               11.06869388               61.84482299                0.36514751                9.31693758                0.86141120              -10.78018693               -4.06110266               39.24366134               -0.00755675
              17.63614767               10.49443053               61.80324911                0.37997601                6.15609910                2.89474082              -13.71374753               -4.77600766               40.40726551                0.41579446
              18.68460831                9.90537879               61.74677754                0.40582660                3.86619306                6.10013833              -19.68416853               -5.51985136               41.90880037                0.80440948
              19.71347153                9.31488409               61.66047082                0.47435863                5.81289369                9.80698330              -30.54229250               -4.79893266               40.04342754                0.09066474
              20.80086618                8.77045070               61.52557796                0.55313569               13.68279387               16.63765802              -56.55890131               -2.28967084               27.90280315                3.84619422
              21.98712741                8.24130782               61.13096098                0.81053378               18.62612257               18.76849726              -63.75117675                0.73822948               18.35503123               -1.92389715
               7.46771441                3.57233346               65.14118432                1.00000000               -0.53521969               -0.67189690                2.34269996               -0.22104516               -0.52434670                0.62931784
               8.46236221                3.14237904               64.77884836                1.00000000               -0.37382204               -0.32228698                1.20552133               -0.17345809               -0.64772789                0.09048089
               9.46023797                2.71177902               64.41343194                1.00000000               -0.05444367                0.01611833                0.08144508               -0.17031241               -0.63397665               -0.09569626
              10.46127334                2.27992220               64.05117647                0.59764287                0.18017122                0.39510506               -1.06796142               -0.28184896               -0.24472666               -0.54375647
              11.46384139                1.84481021               63.69377271                0.49967828                0.44270386                0.83778578               -2.36604788               -0.31753840                0.26666625               -0.19944451
              12.47012741                1.40673359               63.34208600                0.33608470                0.68063525                1.23222477               -3.68077665               -0.51063721                0.81010711               -0.56956182
              13.47745410                0.96178526               62.99677428                0.00010000              -14.09071727                1.67456275               -4.82906198              -24.69322737               14.65762293               -1.08614944
              14.18831307                0.02916328               62.92558473                0.00010000              -18.16152076                6.15443118               -4.73483494              -23.42818641               21.90976086                4.78469719
              15.11422368               -0.89265146               62.67629264                0.00010000                3.89112730                3.01636502               -4.67061333              -18.45198633                4.46151443               18.64843357
              16.26613561               -1.81330463               62.23442103                0.98610182                8.07820846                1.01311794               -3.28369848              -19.87781837               -2.45996295                0.35470370
              17.27578785               -2.34179132               61.84070134                1.00000000                0.96522350                1.24126607               -4.06676112                0.03932993               -0.55713063                0.02279337
               7.89545838                4.56561449               65.02424179                1.00000000               -0.45535279               -0.62387004                2.08794546               -0.04607156               -0.00681364                0.88194623
               8.89090485                4.13915617               64.66173183                1.00000000               -0.28475585               -0.28740796                0.94910536               -0.00437251                0.04009624                0.13914864
               9.88976326                3.71194020               64.29964436                1.00000000                0.05171991                0.04898828               -0.17528887                0.00857890                0.08792188               -0.27158706
              10.89193925                3.28387325               63.93800283                0.51274765                0.37485227                0.42578829               -1.32298047               -0.06625118                0.71883477               -0.60651218
              11.89726031                2.85318807               63.58890039                0.49204344                0.72971328                0.82248751               -2.67531486               -0.08729966                1.23790585               -0.28500424
              12.90653351                2.41905584               63.23836676                0.34617777                1.10233358                1.22302452               -4.00954509               -0.27975855                1.38986095               -0.63499521
              13.91930698                1.97853089               62.89372319                0.00010000               -1.26419744                1.49629507               -5.24641221              -22.44527493               17.10464383               -0.95427997
              14.88124957                1.09070759               62.85974386                0.00010000               -3.41846034                1.44805690               -5.45318615              -31.51209665               29.96871306                9.05558213
              15.85093777                0.13751219               62.73986147                0.00010000               -4.46611022                3.47410627               -5.16034253              -30.71526211                2.92523404               21.57414715
              16.79192736               -0.80317345               62.12191939                0.11457336               -2.31349669                8.75230102               -4.40711097              -19.55275996              -10.77399380               59.85991434
              17.80466784               -1.32937866               61.72811847                1.00000000                1.27404769                9.23456851               -5.18590995                0.89163134               -0.29251438               59.47514532
               8.31970962                5.55985606               64.91151195                1.00000000               -0.37605733               -0.51626600                1.82307683               -0.05287182                0.18036835                1.05632301
               9.31594905                5.13663088               64.54526778                1.00000000               -0.20085805               -0.21842025                0.68311056               -0.01399983                0.37558005                0.05492000
              10.31569246                4.71275878               64.18251636                0.55553729                0.13756958                0.13173397               -0.44771580                0.00598719                0.77665985               -0.66573576
              11.31870044                4.28843796               63.82430099                0.00010000                0.56101692                0.53258286               -1.52727138               -0.14705065                1.86309540               -0.78188200
              12.32691280                3.86125996               63.48371442                0.00010000                1.02444883               -1.19853917               -2.94908359               -0.83886657                2.30339641                3.77657898
              13.33918942                3.43119408               63.13522412                0.00010000                1.49920226               -2.80209847               -4.23967577               -0.82515588                2.24406400                7.94306374
              14.35689685                2.99171117               62.79496346                0.00010000                2.99502084               -8.96477479               -5.43032692              -22.96537695               24.66835220               15.85517397
              15.39908984                2.05812442               62.89622216                0.00010000                1.84513169               -2.77937081               -5.66365464              -40.32687054               41.36100294               13.82856454
              16.39379948                1.17683067               62.85949769                0.00309395               -2.85592848                3.62040502               -5.23742944              -33.28124885               55.37083712               22.66926041
              17.34197127                0.36174139               63.21055563                0.47292778               -2.38842938                8.66527071               -1.85769803              -13.37162561               37.48187351               63.42305581
              18.34603089               -0.15709995               62.81797849                0.94637427                0.40596267                8.97331240               -1.52511034                1.29349400                0.37434750               63.72864792
               8.74085131                6.55528917               64.79720198                1.00000000               -0.31291744               -0.39534806                1.55744166               -0.04192639                0.30350552                0.90323546
               9.73772213                6.13478776               64.42621340                0.55137689               -0.13876927               -0.16420610                0.42269491                0.04518089                0.61229671               -0.38947948
              10.73807592                5.71457488               64.06111941                0.00010000                0.13874621                0.18111081               -0.75971368                0.13637884                1.51722534               -1.26784230
              11.74049706                5.29452490               63.70838383                0.00010000               -0.01745338               -0.85201148               -1.75683972               -2.20385371                7.35176262                2.83603871
              12.73772685                4.82921729               63.46142808                0.00010000                0.95410682               -3.11328645               -2.90512764               -3.94940471               12.32565393                7.32190035
              13.75957919                4.36301387               63.20506966                0.00010000                4.76711267               -7.36233797               -4.03544145               -7.36848834               16.14684890               14.09425432
              14.83306911                3.79923540               63.03047643                0.00010000                6.50067312              -15.07170796               -4.92825376              -19.84579319               24.56869837               22.51935138
              15.88959266                3.03512017               62.93557899                0.00010000                2.43133583               -3.26169064               -5.46117553              -31.95381854               34.97865298               12.32659857
              16.88169582                2.20992029               62.95894530                0.00010000               -1.55835943                2.04883782               -4.86157238              -33.95327884               43.71336339               13.00803770
              17.85842547                1.37013196               63.02429594                0.44024795               -0.67377124                0.79374452               -3.70194100              -16.07380553               23.41496708               -1.80866918
              18.86822040                0.85008759               62.63180224                1.00000000                0.97949322                0.68452220               -3.27395310                0.01307459               -0.30997874               -1.24572085
               9.15987392                7.55194910               64.68048356                0.91248854               -0.23069543               -0.26538953                1.29986512               -0.00486008                0.07971773                0.80385933
              10.15756696                7.13334676               64.30073469                0.33965544               -0.05955089               -0.14171120                0.16498434                0.15599045                0.65769238               -0.68598250
              11.15868290                6.71638100               63.93233475                0.00010000                0.12070003               -0.01718392               -1.02278216               -1.01219593                6.39267257               -2.14857295
              12.15998096                6.27139773               63.66726786                0.00010000                1.03764206               -2.01007191               -2.01963068               -3.27508471               12.80632812                4.15421432
              13.17943574                5.79899423               63.42582236                0.00010000                3.09102900               -3.31721573               -3.16758098               -5.14971295               15.98581611                5.75044613
              14.22180154                5.28394732               63.22267294                0.00010000                5.42194707               -6.92815351               -4.28345735               -9.77030182               20.02731584                8.97862303
              15.28787468                4.69027701               63.05891499                0.00010000                6.37635142               -8.87220653               -5.16278782              -19.18674392               24.74290704                9.57889181
              16.34932857                3.99289060               62.94662622                0.00010000                4.59237181               -4.38076557               -5.48261094              -27.49347854               29.44293031                7.74130892
              17.37972212                3.21780742               62.87437618                0.00010000                1.54996449               -0.04551469               -4.83816947              -31.26330910               32.37726930                1.40507523
              18.38032786                2.37761628               62.81605533                0.28794005                0.33295091                0.73658481               -2.60405742              -15.99698152               16.86112662               -4.04693617
              19.38638114                1.85659049               62.42886641                0.92867341                0.60532750                0.54017863               -2.49351868               -0.23890097               -0.01888254               -2.79744141
               9.57795879                8.54998138               64.56325412                0.88255151               -0.15487491               -0.15387763                1.04865314               -0.00969029                0.03021040                0.87153049
              10.57641004                8.13195354               64.17586885                0.30485691                0.09111173               -0.11332427               -0.06219792                0.08058899                0.33946115               -0.63965140
              11.57978103                7.71423120               63.79460123                0.00010000                0.79860429               -0.27538853               -1.34905022               -1.87112610                8.73978197               -2.74450351
              12.59238213                7.25432347               63.57546627                0.00010000                2.12009883               -1.54518760               -2.43656514               -4.47507910               17.49819435                0.79960299
              13.62218300                6.76287297               63.36893973                0.00010000                4.02541272               -3.15501420               -3.70305630               -7.45596586               19.35280159                3.46035660
              14.67289038                6.22445080               63.18552982                0.00010000                5.91039737               -4.99734237               -4.90767719              -12.41543187               21.93601541                5.02935145
              15.74039095                5.62179127               63.02779778                0.00010000                6.96511433               -5.76225335               -5.85342693              -19.02781384               24.33030295                5.43416402
              16.81219267                4.94750486               62.88902090                0.00010000                6.56565086               -4.18974103               -6.24151373              -24.99466106               25.37132347                3.60981066
              17.87170397                4.20901000               62.75167442                0.00010000                4.37550487               -1.26003809               -5.52836566              -30.13484332               24.34351450               -0.87351992
              18.89970277                3.38486366               62.60254822                0.15301973                1.68949929                2.58704915               -2.51232402              -16.92861403               11.93756026               -6.98180681
              19.90549395                2.86089116               62.22244817                0.78022784                0.57911865                1.23749799               -2.94592398               -1.96191172                0.54500126               -4.73399008
               9.99573580                9.54887155               64.44688026                0.87813558               -0.08068744               -0.07898472                0.78401680               -0.01738276                0.01265192                0.97445594
              10.99492892                9.13108027               64.05157320                0.32400604                0.15773262               -0.04891436               -0.28516099               -0.06404851               -0.00382745               -0.62467431
              11.99889045                8.71087323               63.65599237                0.00010000                1.34543440               -0.23677089               -1.51294866               -2.70046549               10.04269713               -2.80007420
              13.02183761                8.24049398               63.46330333                0.00010000                3.06493187               -1.23366937               -3.02415313               -5.99659418               20.66184696               -1.09351353
              14.06018909                7.73589395               63.28134385                0.00010000                4.63685003               -1.87336443               -4.50737818               -9.27973047               22.15229329                0.76336833
              15.11457461                7.18400048               63.11665117                0.00010000                6.20376284               -3.10848495               -5.87713487              -14.14363187               23.89947220                2.81415385
              16.18426434                6.57503194               62.96504637                0.00010000                7.38210038               -3.71763018               -7.00464281              -19.69498155               24.89146321                3.54780793
              17.26221662                5.90909578               62.81160065                0.00010000                7.77010566               -3.08187773               -7.75699449              -24.72500227               24.06246572                2.72989400
              18.33966646                5.19260666               62.63511668                0.00010000                6.38288998               -1.21048870               -7.70545245              -28.76840232               19.54475641               -0.17086299
              19.38987442                4.42935726               62.38674699                0.08658440                2.77107213                5.33449837               -5.27687624              -19.04215362               10.08442593              -10.51947756
              20.39508790                3.88134045               62.00442050                0.70666890                0.52134810                3.27652057               -6.21029890               -6.28160785                3.54649712               -9.25136589
              10.41319369               10.54840169               64.33078785                0.87731389               -0.00662972               -0.01363763                0.50588062               -0.01636927                0.01108939                1.03091371
              11.41312739               10.13097525               63.92716028                0.38463248                0.15821588                0.02585670               -0.49554169               -0.14817631               -0.33508414               -0.67130693
              12.41635801                9.70949578               63.51681250                0.01426810                1.71510664               -0.02070729               -1.48147865               -3.37349358               10.31323893               -2.74683757
              13.44742952                9.22965008               63.32857197                0.00010000                3.83619453                0.49312578               -3.98856107               -6.83117030               22.40333738               -6.97047238
              14.49308190                8.72540568               63.16204922                0.00010000                5.17251152               -0.13048941               -6.06487090              -10.08580815               24.89844281               -1.34768005
              15.55087975                8.16228110               63.02739629                0.00010000                6.41570584               -1.36454122               -7.05301630              -15.14793821               26.92169358                1.49628799
              16.62139601                7.54743866               62.89005552                0.00010000                7.46190746               -1.81850843               -8.59615975              -19.72040358               26.87810519                2.83033770
              17.70011790                6.88586731               62.73523518                0.00010000                7.73392148               -1.26139243              -10.06597246              -24.04567451               24.93418242                2.88831150
              18.77607444                6.18480022               62.53480441                0.00010000                6.50039996                0.40121224              -10.95233346              -25.87405280               19.24819417                0.40670022
              19.83012590                5.49155363               62.23769564                0.07016019                4.99104866                4.92425565              -12.08723694              -17.80473949               10.25700740               -8.74869984
              20.87589542                4.92642157               61.83621296                0.68473145                4.57695135                3.46052615              -12.94633401               -6.68087228                2.70668309               -9.90588806
              10.83026128               11.54859879               64.21473873                0.88132572                0.06100168                0.04794780                0.21830406               -0.00493974               -0.01564608                1.06444932
              11.83087130               11.13159740               63.80201856                0.52781378                0.12422335                0.10025810               -0.68265981               -0.14845693               -0.63556106               -0.75105502
              12.83274575               10.71045908               63.37727962                0.14155822                1.92165027                0.16068140               -1.12973383               -2.38114680                5.35685687               -2.34673858
              13.86930430               10.25035650               63.08535105                0.00010000                4.65480745                2.73839109              -11.60970172               -8.72528499               21.54430310              -12.40206809
              14.92584190                9.73328416               63.02109506                0.00010000                6.01392812                0.71838694               -6.64712526              -12.06176669               32.28494720               -2.64243955
              15.98958287                9.15670965               62.92778184                0.00010000                7.02140836               -0.26897424               -8.55290702              -14.45842033               30.88766195                0.89109242
              17.06627007                8.53866177               62.81252183                0.00010000                7.71793501               -0.02802180              -10.55027081              -17.38214354               30.01252175                2.35626785
              18.14394157                7.88386794               62.66708749                0.00010000                7.51145089                1.01542455              -13.14416949              -20.67841314               27.38117169                2.77893978
              19.21649908                7.20063090               62.45628748                0.00010000                7.41083567                2.92875291              -16.10038109              -21.75019404               20.16158636                0.99920588
              20.29215828                6.52784237               62.12092808                0.07964224                8.76177397                4.41427623              -21.70345036              -14.11629632               10.53467953               -9.08118372
              21.39173456                5.95055098               61.69033891                0.68350908                9.95762826                3.07691381              -22.42459970               -4.97878832                1.51159969              -12.03716724
              11.24709767               12.54936064               64.09877469                0.82584950                0.12002920                0.09361697               -0.10130203                0.00921694               -0.09470525                0.94845408
              12.24829796               12.13298041               63.67607975                0.75586290                0.14391528                0.16683093               -0.78760441               -0.08117306               -0.53433502               -0.63292981
              13.24997598               11.71270941               63.24491528                0.40113093                0.09003907                0.22826652               -0.77655381               -0.54546940               -0.83168777               -1.33280244
              14.25009875               11.28441790               62.81637643                0.00010000                4.77587139                1.86454583               -2.51213723               -8.24902437               23.21139270               -7.46796498
              15.34549341               10.73977342               62.87580382                0.00010000               10.31174956               -0.78027497               -8.76790579              -10.51589623               40.96729809               -2.08330226
              16.45633374               10.15690162               62.82771845                0.00010000               10.05507274               -0.04906852              -10.04336104               -9.74109895               35.13281349                0.50986289
              17.54659486                9.54687823               62.73563979                0.00010000                8.41233848                1.34107226              -12.73495697              -10.84948949               33.67111732                1.52460426
              18.62458051                8.90617580               62.60656350                0.00010000                7.52506308                3.31310098              -16.62839408              -12.92188644               31.03726322                1.96186216
              19.69709612                8.24337528               62.40138991                0.00010000                8.66496999                5.75969384              -22.56613001              -14.24616173               20.67125333                0.39442606
              20.79787991                7.57983915               61.99990506                0.10528607               11.69031637                8.73038287              -36.10105862               -9.11406894                8.53794009               -8.83703212
              21.93090245                6.98795985               61.52273834                0.68248319               13.30225434                7.23224330              -36.28803125               -2.37253304               -2.74764136              -11.53454559
              11.66320608               13.55047113               63.98023397                0.90749259                0.26929892                0.11104904               -0.43147829                0.05712987                0.48162490                0.83366160
              12.66589907               13.13493402               63.55384534                1.00000000                0.35963969                0.19536101               -0.89186792               -0.01222546                0.45975896               -0.52449921
              13.67039887               12.71502441               63.12768077                0.78766980                0.56803687                0.23150012               -1.17885921               -0.32204082                0.12866127               -0.71246656
              14.67725981               12.28764741               62.69947779                0.36642011                8.63206909                0.32295127               -1.75031477               -7.15118140               22.96367923               -0.37063580
              15.84304026               11.71767866               62.75184952                0.36070215               15.51981382               -2.20947606               -9.19177995               -6.84127144               42.72795378               -2.05735263
              16.98765608               11.15572828               62.73182165                0.36489014               12.84829194               -0.11733356              -11.57622342               -4.47753753               38.42792012               -0.17992480
              18.10000609               10.56548322               62.65769722                0.37910868               10.06753498                1.86049902              -14.86728979               -4.93879295               37.29775810                0.34109844
              19.18900678                9.95012995               62.54977473                0.40361318                7.89532020                4.39541549              -19.84564411               -6.04029402               35.86583409                0.26007345
              20.25791250                9.31582478               62.36644143                0.44656551                8.81427766                7.24495005              -27.60013434               -6.30235841               25.55468359               -1.34172963
              21.36529234                8.70245003               61.96191439                0.56547324               13.50650051               12.26108822              -49.31450002               -4.29020399                9.46139094              -11.50820683
              22.52804251                8.09519584               61.47362657                0.84320610               16.27501729               10.72359943              -49.96192439               -1.01141313               -2.79823345              -14.35990368
               7.83060990                3.69677704               66.16391172                1.00000000               -0.50366062               -0.62835100                2.19777530               -0.20642991               -0.50257114                0.61423659
               8.82557329                3.26166135               65.79059717                1.00000000               -0.35350877               -0.30583862                1.14309708               -0.16261163               -0.61759425                0.08567049
               9.82353972                2.82592542               65.41433813                1.00000000               -0.05659309                0.00657171                0.10228074               -0.15902197               -0.61065770               -0.08966552
              10.82444143                2.38902630               65.04099453                0.59632277                0.16327884                0.35646438               -0.96223939               -0.26082990               -0.30667289               -0.52457424
              11.82680530                1.94911265               64.67111699                0.49082630                0.40050215                0.76418949               -2.15366404               -0.30257361                0.11804519               -0.22257035
              12.83245148                1.50627868               64.30674000                0.31513188                0.55448692                1.13161301               -3.37373226               -0.55658125                0.72581858               -0.59062941
              13.83789504                1.05557744               63.95034152                0.00010000              -13.02849042                1.58972025               -4.44323583              -23.29206781               14.95170747               -1.19310038
              14.57188167                0.14584801               63.87455709                0.00010000              -16.56277060                5.41701133               -5.29209197              -22.14042821               22.51499199                4.56220564
              15.50663963               -0.76565018               63.62880115                0.00010000                4.53510430                3.35287124               -4.91584518              -17.64790109                6.21599899               18.60859696
              16.66258375               -1.69421011               63.21022528                1.00000000                8.16352823                0.77155575               -2.31157774              -20.09278117               -1.01738948                0.18173999
              17.66991019               -2.22495586               62.81074720                1.00000000                0.73264399                0.94835468               -2.87609616                0.02396955               -0.18593757               -0.04088105
               8.26366129                4.69049353               66.04448787                1.00000000               -0.42883083               -0.58033029                1.95695723               -0.04486885                0.00385883                0.86377197
               9.25937298                4.25860296               65.67098464                1.00000000               -0.26971311               -0.27275999                0.90111927               -0.00644087                0.05897557                0.13022833
              10.25826703                3.82599114               65.29804181                1.00000000                0.04332678                0.03692672               -0.14191084                0.00616961                0.10120027               -0.27388236
              11.26023952                3.39259094               64.92532879                0.52717959                0.34431718                0.38598012               -1.20448864               -0.06166180                0.62042034               -0.56757320
              12.26515337                2.95675455               64.56321352                0.50098294                0.67068750                0.75048359               -2.44981335               -0.08347601                1.04222782               -0.29548694
              13.27365327                2.51759481               64.19982345                0.34462509                1.00181625                1.12044990               -3.68135529               -0.30807458                1.23215283               -0.61956590
              14.28518970                2.07147464               63.84315110                0.00010000               -0.62810373                1.39527848               -4.84633375              -21.34947596               17.34563119               -0.94152618
              15.26109119                1.20001812               63.80469725                0.00010000               -1.75000100                0.98777718               -5.63600497              -29.64365352               30.43378669                9.19162655
              16.25018968                0.26787854               63.68941279                0.00010000               -3.48912062                3.44673684               -5.33214638              -30.14486172                4.08211120               21.91140839
              17.19130878               -0.68649455               63.09011151                0.13788752               -2.46470219               12.40355984               -3.08552504              -20.51035516               -9.82183892               61.11547407
              18.20089563               -1.21547231               62.69057588                1.00000000                0.95868527               13.14936399               -3.64841563                0.64109080                0.02931398               61.39143420
               8.69349366                5.68517043               65.92916506                1.00000000               -0.35467960               -0.47156951                1.70372046               -0.05009072                0.18422656                1.03262845
               9.68994686                5.25620615               65.55192895                1.00000000               -0.19092605               -0.20875224                0.64971548               -0.01334687                0.38464446                0.04517714
              10.68967514                4.82666396               65.17825885                0.49740625                0.12489645                0.11358182               -0.39867001                0.00792634                0.81111276               -0.69624607
              11.69244479                4.39674590               64.80960302                0.00010000                0.52283873                0.50589378               -1.40463863               -0.16270079                1.75764249               -0.73472244
              12.70013191                3.96412233               64.45537429                0.00010000                0.95625492               -1.15963277               -2.70722665               -0.76988387                2.08593461                3.86775847
              13.71156989                3.52868768               64.09443677                0.00010000                1.41751499               -2.72677074               -3.89996920               -0.66990920                2.11473370                8.11767748
              14.72848221                3.08348301               63.74260284                0.00010000                3.55174088               -8.69465716               -5.01831230              -21.61385179               24.88880096               16.19265665
              15.78260471                2.16560355               63.83902590                0.00010000                3.08864308               -2.84863296               -6.00673816              -38.25826685               41.50707847               14.89736234
              16.79025507                1.30328456               63.80869814                0.02547629               -2.34386045                3.88229451               -5.60934078              -29.44209081               57.05443292               24.11075792
              17.73572750                0.55386109               64.19089921                0.44276937               -2.47837744               12.27611647               -2.43367692              -10.20422939               38.88197574               64.52667907
              18.74068752                0.03803142               63.80171272                0.89713067                0.49600263               12.90407749               -2.02060239                1.18119846                0.33775148               65.36032433
               9.12058805                6.68106214               65.81225637                1.00000000               -0.29755297               -0.34985666                1.44988634               -0.03389086                0.30688253                0.87942488
              10.11761252                6.25442791               65.43035706                0.54141032               -0.13511218               -0.16317044                0.40682134                0.05714029                0.59144586               -0.39072511
              11.11788580                5.82826278               65.05381271                0.00010000                0.09573101                0.13720664               -0.69134062                0.18093386                1.56086878               -1.29543823
              12.11952714                5.40270882               64.69145941                0.00010000               -0.00359439               -0.76500200               -1.61183263               -2.03053799                7.33998289                2.78730193
              13.11781391                4.93356189               64.43219177                0.00010000                1.06836312               -2.90857755               -2.91220217               -3.69242734               12.10127225                7.50181438
              14.14089440                4.46305940               64.16441871                0.00010000                4.90914370               -7.02065253               -4.08946362               -6.93061314               15.86680367               14.43922651
              15.21599679                3.89758150               63.98039029                0.00010000                6.76149550              -14.42514134               -5.11100223              -18.64672341               24.23560388               23.41774421
              16.27612431                3.14304546               63.88075496                0.00010000                2.85467709               -3.00830959               -5.67522354              -29.86865657               35.15258219               14.08306135
              17.27309033                2.34552443               63.91217797                0.00010000               -1.18234882                2.47807661               -4.87233713              -30.26753173               44.95632321               15.32252457
              18.25247733                1.55902778               64.00128451                0.55861041               -0.84557000                0.35294275               -1.53220931              -13.48891816               24.21490237               -0.39671411
              19.25617893                1.04260924               63.61285004                1.00000000                0.37015981                0.31626139               -1.20780357               -0.06236571               -0.14203675                0.08488803
               9.54608428                7.67817330               65.69300563                0.90760703               -0.21952582               -0.21889027                1.20174816                0.00805567                0.07525029                0.77876037
              10.54388902                7.25294274               65.30244654                0.34881274               -0.05356854               -0.14790931                0.17787271                0.16609004                0.61817732               -0.66391262
              11.54501291                6.82940809               64.92250872                0.00010000                0.13229457               -0.08474430               -0.92635867               -0.83079971                6.34344728               -2.15413392
              12.54653491                6.38144586               64.64651807                0.00010000                1.04599358               -1.76946045               -2.08281710               -2.89996614               12.63262516                4.13626403
              13.56593278                5.90595077               64.39324956                0.00010000                3.12015513               -2.97217085               -3.31366308               -4.81434180               15.60224148                5.85665051
              14.60893802                5.38827463               64.17873175                0.00010000                5.48144462               -6.44683319               -4.51047282               -9.29723379               19.57707032                9.31482276
              15.67556167                4.79498018               64.00637900                0.00010000                6.41753162               -8.25238410               -5.40952546              -18.23449870               24.51371657               10.42539354
              16.73728865                4.10543736               63.89216223                0.00010000                4.66802256               -3.90633095               -5.56676820              -25.66033405               29.97544278                9.45192054
              17.76892213                3.35284609               63.83013906                0.00010000                1.57878354               -0.28292310               -4.28919535              -27.91588475               34.23309228                4.10063087
              18.76886432                2.56091994               63.80014089                0.39785727                0.16775779                0.04436518               -1.20280068              -13.86087739               17.93852685               -1.79741960
              19.77227728                2.04435665               63.41430942                1.00000000                0.34129612                0.06345712               -1.08578956               -0.04815984               -0.06993178               -1.11409134
               9.97121028                8.67668433               65.57327097                0.88223626               -0.15107578               -0.10870805                0.95186511                0.00178792                0.02873738                0.82872260
              10.96969952                8.25146973               65.17544626                0.32934228                0.07782030               -0.11713556               -0.02312246                0.08557133                0.25509836               -0.58784370
              11.97276669                7.82656789               64.78205117                0.00010000                0.76428046               -0.26934991               -1.12862695               -1.52137686                8.53684544               -2.57049687
              12.98498513                7.36731961               64.55071355                0.00010000                2.09658115               -1.23128280               -2.49894374               -3.93569153               17.09344936                0.84523096
              14.01469831                6.87411848               64.33079076                0.00010000                4.04675910               -2.66011477               -3.90155353               -7.02194395               18.75138238                3.50958587
              15.06592031                6.33412273               64.13505930                0.00010000                5.97228869               -4.47914285               -5.18262368              -11.78922703               21.33280122                5.29646586
              16.13414408                5.73253382               63.96845019                0.00010000                6.95657036               -5.23761452               -6.06717869              -17.83545298               24.04091268                6.13070989
              17.20505172                5.06491885               63.82798495                0.00010000                6.25729875               -3.78943308               -6.10024357              -23.02804509               25.98947162                4.89715319
              18.25929006                4.33986596               63.70361175                0.00010000                3.93487536               -1.54181259               -4.51798883              -26.43390641               26.79609826                1.22194688
              19.28374923                3.55991508               63.58780594                0.26672705                1.45261288               -0.25526431               -1.10405320              -13.53631215               13.51846091               -3.36463071
              20.28834231                3.04387838               63.20577202                0.88755901                0.45930876               -0.24012954               -1.18941103               -0.26204020                0.02171643               -2.61875689
              10.39654924                9.67599914               65.45422468                0.88081954               -0.08323559               -0.04096128                0.68387975               -0.00009473                0.01423590                0.90034484
              11.39571689                9.25060003               65.04909611                0.36399787                0.10931255               -0.04422055               -0.21321610                0.00800445               -0.04531294               -0.54291552
              12.39873549                8.82402109               64.64279582                0.00010000                1.22768063               -0.12691562               -1.14326882               -2.11822633                9.64148325               -2.32790044
              13.42027050                8.35682020               64.43305615                0.00010000                2.99776414               -0.47270040               -2.96139698               -5.10393099               19.83034226               -1.31615273
              14.45869078                7.85274848               64.23483719                0.00010000                4.72338170               -1.31481561               -4.73524524               -8.84909935               21.24621176                0.55429627
              15.51473813                7.29869177               64.05643554                0.00010000                6.46828632               -2.73342683               -6.11562001              -13.47310199               23.08105473                2.98085935
              16.58805650                6.69022789               63.89413263                0.00010000                7.73287347               -3.44405929               -7.17568079              -18.19985804               24.28987800                4.02011713
              17.66939560                6.02964870               63.73594309                0.00010000                7.85956304               -3.02686160               -7.46636232              -22.17075967               23.98366315                3.58376033
              18.74524776                5.32200984               63.56463228                0.00010000                6.23650284               -1.55361432               -6.32306037              -25.61624291               21.40583669                1.07391020
              19.79412566                4.55581465               63.36150298                0.20721454                2.69310544               -0.02633290               -1.53910859              -13.51433849               10.29039293               -5.97287260
              20.79910987                4.03955406               62.97992653                0.81781939                0.49842130               -0.38588359               -1.42121817               -0.87551904                1.20411526               -4.87624503
              10.82200661               10.67586510               65.33530357                0.88156530               -0.01689529                0.00914041                0.40247658                0.01241899                0.01702191                0.92223243
              11.82183765               10.25058532               64.92283429                0.44466435                0.10876877                0.04010754               -0.37880140                0.01260706               -0.25547624               -0.53790345
              12.82418198                9.82402958               64.50506572                0.06803869                1.61707364                0.08642129               -0.99272998               -2.09465537                9.30099281               -2.02455014
              13.85417913                9.35786560               64.28502029                0.00010000                3.58313858                1.49194366               -4.65457611               -6.79853810               20.69054829               -9.52602771
              14.89584475                8.84782216               64.10132562                0.00010000                5.23998662               -0.01376846               -5.75881043              -10.47222100               24.02233345               -1.51518531
              15.95897886                8.27945420               63.95534826                0.00010000                7.16726207               -1.32011088               -7.26161779              -14.57698662               25.97022743                1.47312461
              17.03918999                7.66365263               63.80306150                0.00010000                8.54378614               -1.95075796               -8.72022173              -18.14336486               25.65749712                3.04881042
              18.12985458                7.00438161               63.63631301                0.00010000                9.08046257               -1.82059384               -9.61550663              -21.25942697               23.99848689                3.24520355
              19.22079925                6.30879368               63.43437633                0.00010000                8.30318293               -0.82179185               -9.26505387              -24.33207360               18.52012609                1.53075481
              20.29591824                5.55938842               63.14238589                0.20165652                4.12769396                0.71468337               -5.49696372              -12.96977796                8.97656429               -8.18991922
              21.30335312                5.03616071               62.74825979                0.80449598                0.74348851               -0.15487009               -4.46259353               -1.37724898                1.59619575               -7.14253044
              11.24735720               11.67618194               65.21634446                0.88629158                0.04473556                0.04583764                0.11612969                0.03642435               -0.01837130                0.89629967
              12.24780455               11.25140218               64.79621163                0.61426322                0.11024536                0.11085504               -0.49840678                0.05763359               -0.37009649               -0.51022465
              13.24956210               10.82574952               64.36923732                0.22126047                0.63513003                0.17373873               -0.68253443               -0.69561939                1.34209609               -1.55135966
              14.26050715               10.38665908               63.98350116                0.00010000                3.90478275                2.08778014               -6.44232266               -7.56287682               19.71506350              -10.62704977
              15.32765776                9.85247311               63.95511953                0.00010000                7.34303893                0.32114591               -6.50908853              -12.22201257               33.55105768               -2.98846379
              16.40736793                9.27228955               63.84114630                0.00010000                8.63020151               -0.66084935               -8.56446481              -13.84481835               29.35891830                0.55315232
              17.50026179                8.65121274               63.70555469                0.00010000                9.58490439               -0.64264101              -10.62952444              -16.07076079               27.92299662                2.35208395
              18.59906602                7.99323682               63.53767162                0.00010000               10.16688474               -0.17270980              -12.41155738              -18.52322838               24.98642757                2.77201817
              19.70359948                7.30557400               63.31210881                0.00010000               10.41485244                0.28775717              -13.28465522              -21.49237202               16.22560841                0.82458063
              20.80736307                6.57010832               62.93092853                0.21787989                5.72104159                1.34793685              -10.82972206              -11.43252265                6.84031235               -9.32862167
              21.81802032                6.03645666               62.52384556                0.81202182                1.06572475                0.17417781               -8.32046488               -1.03367967                0.56795431               -7.31991984
              11.67229463               12.67678186               65.09706015                0.82706628                0.11281209                0.08160760               -0.19781966                0.04292173               -0.03989331                0.73142283
              12.67342275               12.25280242               64.66993497                0.85293851                0.13590326                0.14672176               -0.51857749                0.05958760               -0.21022054               -0.33012277
              13.67501269               11.82750435               64.23953291                0.49672040                0.13876249                0.16628525               -0.47377092               -0.09690579               -0.38851062               -0.82074000
              14.67619800               11.39962120               63.80902808                0.00010000                4.53806649                0.70759462               -0.52829561               -6.46113756               20.69052715               -2.98631458
              15.76577402               10.85424508               63.79845642                0.00010000               10.35724337               -1.40657306               -6.92997196               -9.45088094               38.13990337               -2.39163227
              16.88334287               10.26623721               63.72487887                0.00010000               11.55267433               -0.77002849              -10.01566300               -9.33080873               33.21622499                0.11906193
              17.99682751                9.65079981               63.60639402                0.00010000               11.08429396                0.29624512              -12.77565892              -10.07109130               30.39268168                1.43492929
              19.10502874                9.00092742               63.44275022                0.00010000               10.86263989                1.54604866              -15.62819720              -12.10681168               26.20982804                1.74828804
              20.21408031                8.31454882               63.19653833                0.00010000               11.56781940                2.61862260              -18.31634396              -15.28771033               12.63096442               -0.05506186
              21.33638513                7.58634716               62.71929361                0.22657186                6.79512763                2.30797907              -15.77239638               -9.96793811                3.13283831              -10.12411530
              22.34998286                7.03964427               62.31276191                0.80340166                1.35977266                0.79383056              -10.79888694               -0.18438631                0.05347045               -7.00931160
              12.09617451               13.67781410               64.97535901                0.90704348                0.20992974                0.10322390               -0.47478956                0.04023977                0.44670247                0.59373346
              13.09827381               13.25433661               64.54677117                1.00000000                0.23153471                0.15341937               -0.62612842                0.04816230                0.42339766               -0.19843344
              14.10080520               12.82907522               64.11882761                0.83188703                0.31349335                0.15708701               -0.75872574               -0.09703102                0.32093577               -0.41392897
              15.10454367               12.40081097               63.69086118                0.36620000                8.56094644                0.11897667               -0.69093372               -7.40211118               20.65549485               -0.30360422
              16.27202413               11.82434165               63.67404243                0.36067486               15.98266760               -2.99034333               -7.09670222               -6.57108818               39.14761091               -1.40496446
              17.42419703               11.25688898               63.61329852                0.36474319               14.60628118               -0.93482251              -11.43802348               -4.27478450               35.13525016               -0.38591536
              18.56414976               10.65713764               63.50590331                0.37812426               13.44918760                0.63378246              -15.02288066               -4.90433470               32.30334234                0.26490507
              19.69318078               10.02415780               63.34986465                0.40148642               12.41378902                2.32303793              -19.17373677               -6.14435574               28.39443003                0.05685553
              20.81242554                9.35794646               63.10846813                0.43311981                9.48640414                4.33976349              -23.80561262              -10.55997170               10.27028904               -1.27139526
              21.88290886                8.61626790               62.53928796                0.61451427                4.76564188                2.99207447              -24.60961351              -10.62828652               -3.37744374              -14.46425613
              22.90773837                8.05233327               62.13172249                0.89695445                2.48295132                1.26890027              -18.98641210               -0.61791193               -3.29541797              -10.80422969
               8.20429207                3.82346588               67.18513983                1.00000000               -0.47081571               -0.58292939                2.04437354               -0.18983973               -0.48011194                0.59630468
               9.19958391                3.38331752               66.80171030                1.00000000               -0.33323090               -0.28885632                1.07892405               -0.14972631               -0.58708007                0.08061775
              10.19762745                2.94257834               66.41547755                1.00000000               -0.06114493               -0.00365030                0.12748023               -0.14619957               -0.58585256               -0.08385046
              11.19836102                2.50076220               66.03193168                0.59611763                0.14146881                0.31510883               -0.84594434               -0.23913602               -0.35409172               -0.50348461
              12.20045683                2.05616575               65.65069943                0.48345560                0.35291208                0.68552831               -1.92400478               -0.28506765               -0.01089611               -0.24359723
              13.20541926                1.60875411               65.27461135                0.29504279                0.41071636                1.02136464               -3.03953173               -0.61110814                0.64551690               -0.60120080
              14.20867116                1.15230411               64.90790956                0.00010000              -12.26329895                1.51349444               -4.02604636              -22.16388769               14.80134841               -1.30651663
              14.96015328                0.26012706               64.81974289                0.00010000              -15.28978432                4.99442471               -5.47652958              -21.34931161               22.48831686                3.84553260
              15.90287547               -0.64170279               64.57797573                0.00010000                5.18442478                3.75461617               -5.10344377              -17.04944157                8.46582774               17.58109225
              17.06384177               -1.56944230               64.18818947                1.00000000                8.40748878                0.79043984               -2.14736135              -19.97960457                0.68260147                0.10536269
              18.07102525               -2.10226631               63.78317941                1.00000000                0.71834722                0.97508116               -2.70556204                0.04761212               -0.11017117               -0.09025467
               8.64254203                4.81763659               67.06338093                1.00000000               -0.40116083               -0.53628732                1.81878056               -0.04204699                0.01343756                0.84026722
               9.63853042                4.38042896               66.67975421                1.00000000               -0.25494571               -0.25777656                0.85276445               -0.00652559                0.07546781                0.12088644
              10.63744312                3.94254183               66.29680614                1.00000000                0.03227633                0.02423136               -0.10255064                0.00487616                0.11328715               -0.27386450
              11.63917595                3.50391329               65.91391306                0.54390410                0.30835428                0.34253435               -1.07368067               -0.05719840                0.53481142               -0.52971035
              12.64361020                3.06302103               65.53990412                0.51149968                0.60315235                0.67355670               -2.20414644               -0.08023111                0.87057204               -0.30065683
              13.65123900                2.61896775               65.16473965                0.34364237                0.88677991                1.00991343               -3.32311912               -0.33728449                1.08355720               -0.59698748
              14.66134580                2.16743905               64.79679651                0.00010000               -0.37876930                1.30104984               -4.40544591              -20.37419294               17.20237201               -0.92882003
              15.64366361                1.31007131               64.74702376                0.00010000               -0.70900321                0.99434443               -5.78690295              -28.43064254               30.14672344                8.67878908
              16.64716574                0.39584337               64.63321855                0.00010000               -2.46680623                3.89917152               -6.48756060              -29.57349265                4.79825580               20.51471217
              17.59432749               -0.56153790               64.06020889                0.14850765               -2.14201823               15.52721335               -3.07054584              -21.28022194               -8.33637397               61.59390364
              18.60432537               -1.09251549               63.65515016                1.00000000                0.99978863               16.50493419               -3.62791059               -0.09107645                0.11654379               62.44317861
               9.07786638                5.81274013               66.94558636                1.00000000               -0.33182292               -0.42997434                1.57873219               -0.04553752                0.18653912                1.00014364
              10.07454816                5.37816199               66.55826209                1.00000000               -0.18128704               -0.19866483                0.61764989               -0.01064426                0.39006392                0.03600147
              11.07424064                4.94306296               66.17454296                0.43673171                0.10948472                0.09372059               -0.34073233                0.00993679                0.83515042               -0.71778604
              12.07673785                4.50761289               65.79620822                0.00010000                0.47785522                0.47213032               -1.26679089               -0.18421877                1.66035327               -0.67751156
              13.08379775                4.06963688               65.42956989                0.00010000                0.87588489               -1.08213645               -2.44448621               -0.77388603                1.89412587                3.84274101
              14.09425555                3.62895237               65.05722474                0.00010000                1.31429954               -2.57321659               -3.53152190               -0.69170152                1.99292957                8.08704282
              15.11008374                3.17832510               64.69459722                0.00010000                3.44402796               -8.18124654               -4.56853400              -20.44196460               24.56579301               16.19867076
              16.16313611                2.28001395               64.77608740                0.00010000                3.64655455               -2.32131193               -6.21799713              -36.24257262               40.77439239               15.33219095
              17.18301483                1.43628064               64.74731087                0.00010000               -1.82699531                4.95432461               -7.98492950              -26.28924927               56.60092960               24.68507592
              18.12659620                0.74110197               65.16188210                0.32076347               -2.59279649               15.72469471               -5.94898802               -8.03621522               40.74548753               62.65243187
              19.13115890                0.22783238               64.77756644                0.77514116                0.45626998               16.58520687               -4.79590794                0.56920314               -0.00127247               63.95429175
               9.51078756                6.80903710               66.82619971                1.00000000               -0.27928572               -0.31152125                1.33808033               -0.02660804                0.30708035                0.84219247
              10.50799471                6.37645566               66.43434982                0.53636419               -0.12983060               -0.15913399                0.39235487                0.06292067                0.56577028               -0.38465878
              11.50819095                5.94441625               66.04729260                0.00010000                0.04614739                0.09984460               -0.60661196                0.20699569                1.59264401               -1.30251235
              12.50891766                5.51335590               65.67614718                0.00010000               -0.06989769               -0.63720110               -1.40076342               -1.89415861                7.22563232                2.65671710
              13.50679300                5.04137830               65.40318403                0.00010000                0.98995444               -2.60543147               -2.79757208               -3.51916716               11.57248628                7.40444851
              14.52871674                4.56750342               65.12328039                0.00010000                4.73259658               -6.46745930               -4.10597976               -6.58031082               15.27898543               14.35287806
              15.60144493                4.00381412               64.92825639                0.00010000                6.60699382              -13.38000626               -5.34384699              -17.46117750               23.55488225               23.65197587
              16.66085662                3.26364507               64.82207452                0.00010000                2.94239028               -2.26574643               -6.16116269              -27.34714972               35.02793376               15.41857923
              17.66029274                2.49492986               64.86149856                0.00010000               -0.94025888                3.60528113               -6.00353580              -26.86493072               47.29697943               17.08714659
              18.64205144                1.75295599               64.99365175                0.62314315               -0.90220626                0.70222479               -0.51383533              -11.37046948               26.13591073                1.24242717
              19.64224861                1.23918864               64.60764616                1.00000000                0.01971680                0.67771524               -0.33014411               -0.10240759               -0.02494070                1.46028066
               9.94249710                7.80650971               66.70451853                0.90486208               -0.20696734               -0.18501587                1.10165970                0.01672999                0.07162427                0.72981539
              10.94042742                7.37497931               66.30429215                0.36178855               -0.05083874               -0.14542818                0.18907921                0.16436200                0.57212872               -0.62931763
              11.94148032                6.94505986               65.91380758                0.00010000                0.07325987               -0.09410415               -0.80231884               -0.65253790                6.15859892               -2.06077008
              12.94189262                6.49486887               65.62561152                0.00010000                0.88932812               -1.43329477               -2.03273780               -2.54688644               12.17361369                3.91733102
              13.95926688                6.01752825               65.35954910                0.00010000                2.91604463               -2.49506212               -3.35782616               -4.45968893               14.93679797                5.66882957
              15.00021351                5.49960319               65.13246348                0.00010000                5.27258265               -5.74135452               -4.70118617               -8.68165215               18.80139861                9.25201508
              16.06471854                4.91072498               64.95072448                0.00010000                6.24319278               -7.35811444               -5.75714355              -16.90327729               24.01888075               10.79481405
              17.12507737                4.23469902               64.83529086                0.00010000                4.58433792               -3.09890042               -6.03892769              -23.31873952               30.58934921               10.57669906
              18.15640530                3.50838626               64.78859227                0.00010000                1.49253312                0.20129244               -4.37543396              -24.60201749               36.49193691                6.02633387
              19.15492803                2.75514646               64.79199932                0.47342638                0.01200747                0.16264813               -0.70801967              -12.05696579               19.46125199               -0.83565860
              20.15664544                2.24138668               64.40715062                1.00000000                0.17174139                0.18551350               -0.61523630                0.01139716               -0.08471352               -0.37568232
              10.37418296                8.80533678               66.58229143                0.88327541               -0.14511576               -0.08319331                0.85770751                0.01005999                0.02813166                0.74741161
              11.37273180                8.37354710               66.17540640                0.35233897                0.05338396               -0.10726920                0.00960057                0.11107423                0.21104447               -0.52200006
              12.37525064                7.94253416               65.77202870                0.00010000                0.63898645               -0.18795909               -0.89117937               -1.12886718                8.17195933               -2.26784161
              13.38551153                7.48469000               65.52548739                0.00010000                1.88071321               -0.75023424               -2.49468375               -3.32733206               16.34169350                0.75304277
              14.41286490                6.99147706               65.29090866                0.00010000                3.81877230               -2.05416214               -4.00721457               -6.47733153               17.85401156                3.21887878
              15.46188698                6.45267633               65.08187735                0.00010000                5.77093239               -3.81372425               -5.38649545              -10.90692376               20.41759790                5.17067091
              16.52828355                5.85665183               64.90645421                0.00010000                6.74667850               -4.49510006               -6.36619261              -16.25867249               23.53649742                6.31034830
              17.59682055                5.20166706               64.76701603                0.00010000                5.97606990               -3.11280468               -6.30438335              -20.56916272               26.71268032                5.54763753
              18.64780495                4.49895571               64.66131464                0.00010000                3.55455809               -1.25329890               -4.37587197              -22.98200537               29.38375712                2.58462246
              19.66791171                3.75620895               64.58046715                0.36003788                1.10955827                0.00866970               -0.64445108              -11.52984030               15.21854484               -1.70902450
              20.66999611                3.24289891               64.19865995                0.98024506                0.20844055               -0.00294483               -0.57965611               -0.04712073               -0.06219445               -1.22300103
              10.80627766                9.80484584               66.46055786                0.88522581               -0.08261339               -0.03051149                0.59663654                0.01329474                0.01449108                0.77720376
              11.80545153                9.37283393               66.04730888                0.39508846                0.07412064               -0.02227220               -0.15655347                0.09893716               -0.02911091               -0.44513210
              12.80776007                8.94130067               65.63312700                0.01586554                1.04757771                0.00145556               -0.85924718               -1.40142629                9.12470545               -1.86629281
              13.82640308                8.47986418               65.40407539                0.00010000                2.69869267                0.19972531               -2.89202202               -4.26933047               18.63189028               -2.04996781
              14.86173393                7.97644501               65.18663894                0.00010000                4.52485921               -0.83287122               -4.73360057               -8.30998935               19.98862935                0.27768350
              15.91690027                7.42332870               64.99433877                0.00010000                6.44102130               -2.28217457               -6.21455844              -12.44802893               21.94229488                2.71474908
              16.99055435                6.82082298               64.82153276                0.00010000                7.72449836               -2.98295125               -7.32038250              -16.27940603               23.36865910                3.94410813
              18.07139023                6.17244293               64.66227341                0.00010000                7.58344717               -2.63121050               -7.37344287              -19.27752137               24.08645283                3.69566367
              19.14222330                5.48332028               64.50865547                0.00010000                5.44988955               -1.55084614               -5.36493353              -21.22619674               23.90677098                1.44225577
              20.18038802                4.75531986               64.35596482                0.32514337                2.00499076                0.10603692               -0.51749345              -10.70652404               11.74713386               -2.01597284
              21.18232311                4.24132779               63.97599613                0.93275140                0.19350881               -0.16234895               -0.31330768               -0.09543567                0.10343768               -1.78535863
              11.23847268               10.80472655               66.33883738                0.88772135               -0.02169697               -0.00388221                0.32926493                0.03160304                0.01191382                0.75974064
              12.23825571               10.37310166               65.91958425                0.48018455                0.08595865                0.07291514               -0.29596346                0.14808516               -0.15755692               -0.39034243
              13.24019186                9.94256327               65.49695790                0.09708356                1.33624359                0.18320106               -0.74270968               -0.99395385                7.70259369               -1.49049380
              14.26498058                9.48868451               65.23548045                0.00010000                3.15043706                1.69717625               -3.96421855               -5.82116768               18.65502441               -9.23883348
              15.30320060                8.97481964               65.04687302                0.00010000                5.17839227               -0.00304617               -5.19652288              -10.20838415               23.20702286               -2.06689160
              16.36854843                8.40703284               64.88216393                0.00010000                7.51903030               -1.25433064               -7.19369670              -13.42005122               24.33814360                1.13160887
              17.45358120                7.79699281               64.71565109                0.00010000                9.01121903               -1.92260252               -8.63762101              -16.01698298               24.02403881                2.77716648
              18.54877281                7.14904285               64.54292505                0.00010000                9.34114420               -1.97859184               -9.06279822              -18.16641225               22.70133380                3.07067667
              19.64040409                6.46793879               64.34950333                0.00010000                7.35004574               -1.41798874               -7.42546441              -19.25910603               19.76781138                1.25864366
              20.69577373                5.75832969               64.12775637                0.34989146                2.78337264                0.45211851               -0.98377162               -9.57235510                8.86440879               -1.74400680
              21.69607154                5.23965193               63.74696109                0.94749445                0.02978139               -0.08386627               -0.06657522               -0.12095147                0.51428706               -1.51188927
              11.67015952               11.80476820               66.21706132                0.89246225                0.04169938                0.01240026                0.06585510                0.05627804               -0.02585093                0.69647611
              12.67057651               11.37429223               65.79205043                0.64468563                0.10693136                0.13583844               -0.38563988                0.17807895               -0.19645401               -0.29386077
              13.67229814               10.94496470               65.36362893                0.24590085                0.35734284                0.20705273               -0.55247258                0.12181355                0.70223603               -1.03751800
              14.67772337               10.51380771               64.95650460                0.00010000                3.34598864                1.43235412               -1.58941134               -6.42877072               18.51061544               -8.94868428
              15.73921792                9.97638409               64.89091329                0.00010000                7.43013520               -0.09008769               -5.71150070              -11.31627650               31.53146807               -2.99373426
              16.82632607                9.39824209               64.75649254                0.00010000                9.44933816               -0.99511012               -8.21223533              -12.49204756               27.18422405                0.18594815
              17.92820468                8.78237093               64.59993134                0.00010000               10.53949672               -1.08823057              -10.24117532              -14.11875276               25.24825102                2.00604393
              19.03711600                8.13287109               64.41885635                0.00010000               10.97748290               -1.00471643              -11.22167850              -15.87752374               21.98187155                2.57561072
              20.14775434                7.45496051               64.19059437                0.00010000                9.00558862               -1.10120362              -10.02941748              -16.78704652               16.21903436                0.98445538
              21.21722778                6.76436223               63.90433364                0.39594251                3.47526312                0.53338629               -1.56454190               -8.33853375                6.09663956               -1.58990242
              22.21725960                6.23965046               63.52392961                0.98248739                0.00318220                0.01223749                0.06279276               -0.02299036                0.84987813               -0.92901690
              12.10055018               12.80497456               66.09481830                0.82993351                0.10706167                0.04899498               -0.20163609                0.04220116                0.01681815                0.54225045
              13.10162079               12.37581842               65.66570820                0.84819743                0.12812346                0.15003614               -0.41628984                0.10258411               -0.04735416               -0.12537616
              14.10311265               11.94670433               65.23543986                0.49057967                0.16824920                0.15958736               -0.42952335                0.09713010               -0.07230799               -0.49910400
              15.10498578               11.51733159               64.80581052                0.00010000                4.46640192                0.20507147               -0.26440380               -5.81274646               18.03636200               -1.66662508
              16.19244069               10.97301788               64.73720438                0.00010000               10.38674298               -1.89883630               -5.53698996               -8.29318694               33.72604140               -1.98147690
              17.31272064               10.38713064               64.62740519                0.00010000               12.20682294               -1.35357061               -9.28956803               -8.28077777               29.72530201               -0.14117744
              18.43657714                9.77522819               64.48012661                0.00010000               12.29560569               -0.53040972              -12.07293888               -8.84399915               26.35384691                1.15929085
              19.55863275                9.12894852               64.29399955                0.00010000               11.82974389                0.20835521              -13.78310244              -10.60494612               21.23312901                1.58935238
              20.67317202                8.44591472               64.03506304                0.00010000                9.28401735                0.57883815              -12.95008171              -11.69052340               12.29634430                0.63806257
              21.74431310                7.76899742               63.68445714                0.41002646                3.59316200                0.44069906               -1.97285414               -7.43783516                2.81686387               -1.84257152
              22.74503526                7.23989668               63.30676060                0.98053805                0.07221632                0.07698099               -0.29540093                0.09020112                0.79162533               -0.59934355
              12.52931581               13.80574810               65.97073818                0.90735841                0.15826157                0.07735405               -0.41977717                0.03104830                0.39103369                0.42193017
              13.53089842               13.37729295               65.54132277                1.00000000                0.17058859                0.14745293               -0.55169841                0.04817986                0.38921804               -0.01727488
              14.53272758               12.94815644               65.11250625                0.80875498                0.21282313                0.14521144               -0.62042237               -0.00769774                0.48337017               -0.22338779
              15.53515488               12.51790914               64.68565912                0.36596010                8.54137778                0.05775471               -0.44550474               -7.47054360               18.02623267               -0.18420068
              16.70355513               11.93840736               64.60991548                0.36075084               16.16726588               -3.46105211               -5.84603183               -6.22547832               33.77783319               -1.00915487
              17.85850020               11.37117068               64.50306118                0.36442507               15.29758370               -1.59599578              -10.43352624               -3.75427510               30.11122403               -0.41793444
              19.00950681               10.77176273               64.35723961                0.37718633               14.79151792               -0.34654627              -14.09457927               -4.41365780               26.29088582                0.23162300
              20.15433056               10.13703820               64.16629999                0.39931122               13.21940839                0.80896725              -16.85810403               -5.69149219               20.20573959                0.30827127
              21.27389497                9.46653727               63.89032918                0.42796346                6.00792736                2.06225556              -17.37507967               -8.12080425                7.40198420               -0.56265718
              22.27448911                8.77317621               63.46972212                0.69698255                0.16850575                0.41787889               -3.88743790               -8.24975882               -1.56172003               -3.01518295
              23.27726509                8.24119008               63.09389833                0.97727264                0.27759828                0.12933964               -2.11738424                0.02437008               -0.53002532               -1.01367333
               8.58786671                3.95222092               68.20479919                1.00000000               -0.43727450               -0.53685798                1.88551097               -0.17182761               -0.45795061                0.57660564
               9.58349397                3.50718588               67.81217565                1.00000000               -0.31327071               -0.27169780                1.01408537               -0.13516780               -0.55755778                0.07555134
              10.58160130                3.06159124               67.41688773                1.00000000               -0.06781209               -0.01427934                0.15604452               -0.13233808               -0.56125732               -0.07859042
              11.58213773                2.61499385               67.02407565                0.59747603                0.11532026                0.27263398               -0.72175171               -0.21799174               -0.38950555               -0.48197142
              12.58390770                2.16583132               66.63263690                0.47736320                0.30069751                0.60396333               -1.68306596               -0.26673762               -0.11803258               -0.26101868
              13.58815168                1.71399807               66.24594936                0.27577590                0.24413851                0.90436096               -2.68634211               -0.67987079                0.57443827               -0.60450988
              14.58879047                1.25167321               65.86982059                0.00010000              -11.82849201                1.45373771               -3.57312527              -21.47380143               14.38549662               -1.42099760
              15.35158184                0.36819692               65.76502649                0.00010000              -14.06404362                4.90524746               -5.32341222              -21.20717913               22.30545177                3.15608256
              16.30750960               -0.52451396               65.52673227                0.00010000                5.97251325                3.33516008               -4.86565597              -17.67092574               11.11421403               15.14491010
              17.47103210               -1.43614171               65.16727805                1.00000000                8.51086411                0.78325985               -2.00535466              -19.14766592                2.50734203                0.07426847
              18.47772688               -1.97070245               64.75663596                1.00000000                0.66947826                0.97066831               -2.56888087                0.10563489               -0.10785918               -0.09069818
               9.03118348                4.94685234               68.08086348                1.00000000               -0.37263494               -0.49331964                1.67615097               -0.03803121                0.02156813                0.81320550
              10.02745713                4.50446890               67.68803992                1.00000000               -0.24047742               -0.24276558                0.80456510               -0.00531630                0.08910120                0.11157698
              11.02637393                4.06144844               67.29599080                1.00000000                0.01903190                0.01152697               -0.05843276                0.00410028                0.12337488               -0.27194813
              12.02783777                3.61772019               66.90385517                0.56297137                0.26821431                0.29838493               -0.93421856               -0.05451448                0.46178739               -0.49413679
              13.03173822                3.17187095               66.51913059                0.52341860                0.52971267                0.59329579               -1.94456654               -0.07941507                0.72536650               -0.30091251
              14.03843202                2.72304168               66.13336107                0.34277419                0.76074075                0.89448645               -2.94649710               -0.37054465                0.95003623               -0.57204401
              15.04695303                2.26621059               65.75504218                0.00010000               -0.54141959                1.21616706               -3.93402737              -19.68236715               16.77008682               -0.92220692
              16.02760363                1.41724940               65.68895919                0.00010000               -0.69916871                1.44998460               -5.67426894              -28.17879399               29.08519806                8.26196246
              17.03296966                0.50883764               65.55966157                0.00010000               -1.24769718                4.66100122               -8.23647491              -30.82945716                5.45245725               17.19801109
              18.00264969               -0.42830911               65.02870059                0.13042801               -0.98128416               15.48042839               -3.24981481              -21.02419154               -5.97512013               59.15986596
              19.01334397               -0.96099577               64.61801767                1.00000000                1.06942889               16.76618511               -3.81334730               -1.69034066                0.11382788               61.22545132
               9.47187297                5.94235453               67.96073971                1.00000000               -0.30814346               -0.39392622                1.45156352               -0.04009913                0.18738746                0.96211588
              10.46879154                5.50233056               67.56428195                1.00000000               -0.17204789               -0.18821085                0.58732506               -0.00774260                0.39243611                0.02700043
              11.46843201                5.06182178               67.17144420                0.37546837                0.09166963                0.07497341               -0.27726201                0.00991915                0.85025402               -0.72957532
              12.47062493                4.62096155               66.78426721                0.00010000                0.42829495                0.43598363               -1.11675395               -0.19069795                1.57311621               -0.57343903
              13.47699791                4.17769723               66.40648457                0.00010000                0.78881086               -1.00996498               -2.16794553               -0.93407708                1.72850016                3.78211084
              14.48640115                3.73188780               66.02380633                0.00010000                1.19687497               -2.40817340               -3.14655060               -0.93654749                1.88046727                7.86682204
              15.50093541                3.27599655               65.65123216                0.00010000                2.94888782               -7.58584156               -4.09365085              -19.66719535               24.05224594               15.82107557
              16.54537890                2.39719661               65.71466595                0.00010000                1.77717757               -1.25179042               -6.69914420              -34.57266527               38.35772100               14.91416813
              17.53647896                1.56870606               65.64899955                0.00010000               -1.24986130                6.85741584               -8.06524270              -25.46233654               54.38995807               25.92338483
              18.52038168                0.87346686               66.07191945                0.07101422               -1.35927883               19.10341029              -31.90032131               -8.88432782               41.83010590               53.52666710
              19.50929339                0.36462125               65.70579456                0.55621167               -1.10882903               20.16132173              -29.44573930               -0.16719480                6.88693450               49.00702450
               9.91042942                6.93897382               67.83901797                1.00000000               -0.25943938               -0.28383202                1.22654864               -0.02208578                0.30444008                0.79727277
              10.90783503                6.50070468               67.43820416                0.53116354               -0.12440451               -0.15153800                0.37972193                0.06125537                0.53948814               -0.37543779
              11.90794133                6.06294791               67.04168047                0.00010000                0.01566626                0.08174097               -0.51346161                0.20843428                1.65464225               -1.28278914
              12.90814835                5.62643986               66.66344414                0.00010000               -0.29054529               -0.52546439               -0.81141818               -1.88177604                6.57029069                2.59550331
              13.90213043                5.15167165               66.37624033                0.00010000                0.66267004               -2.30472455               -2.61937312               -3.53713937               10.71388362                7.03049929
              14.92140175                4.67487821               66.08229911                0.00010000                4.30849416               -5.85849111               -4.02991907               -6.48942176               14.38191176               13.87972768
              15.98830031                4.11449376               65.87351335                0.00010000                6.10195291              -12.16589532               -5.54259604              -16.52440569               22.53528292               23.12603392
              17.04344081                3.39221359               65.75753171                0.00010000                2.95761859               -1.25833907               -6.93832300              -25.13394281               34.14985281               15.67294532
              18.04745268                2.64598596               65.79210725                0.00010000               -0.71964353                5.24253103               -8.67010634              -21.64405254               50.97024234               19.24273921
              19.02904794                1.95375910               65.99100781                0.57433249               -0.98806923                4.19622530               -0.34331859               -9.23029797               29.27684934                6.15669553
              20.02769130                1.44223067               65.60624716                1.00000000               -0.13566454                4.06039831               -0.19556433                0.39650769                0.16188505                5.51869961
              10.34796952                7.93667789               67.71503883                0.90402370               -0.19269771               -0.16902921                1.00606502                0.01786870                0.06750400                0.66942898
              11.34604255                7.49929980               67.30622813                0.36858833               -0.05520023               -0.13458425                0.19426260                0.15634120                0.53472265               -0.59131319
              12.34686552                7.06345660               66.90646234                0.00010000               -0.08884385               -0.05281355               -0.66863620               -0.53319980                5.91797012               -1.90563583
              13.34426567                6.61045226               66.60586331                0.00010000                0.54756284               -1.12616353               -1.81777004               -2.35315826               11.61495011                3.39593533
              14.35781678                6.13160274               66.32609304                0.00010000                2.47624684               -2.01327216               -3.24774571               -4.12380601               14.04918118                5.13167120
              15.39379061                5.61471798               66.08470803                0.00010000                4.76475719               -4.96086709               -4.74410017               -8.07995652               17.73058644                8.81707256
              16.45311192                5.03267865               65.89123613                0.00010000                5.87086196               -6.32806245               -6.12287021              -15.56265498               23.07506978               10.64714030
              17.51120785                4.37202983               65.77138367                0.00010000                4.44702417               -2.16622727               -7.00981071              -20.90589413               30.96453841               10.92746724
              18.54205240                3.67355669               65.74263038                0.00010000                1.41615806                1.27546277               -5.30817063              -21.42885378               39.00329876                7.72452787
              19.53953101                2.95739137               65.78598050                0.45942538               -0.08860020                0.40049923               -0.57644560              -10.30002936               21.34893144               -0.33081776
              20.54028040                2.44582922               65.40200470                1.00000000                0.07493925                0.41710911               -0.47242522               -0.00513764               -0.06926348                0.09994973
              10.78554296                8.93559323               67.59042512                0.88613775               -0.13598175               -0.08403144                0.77858990                0.01035146                0.02564767                0.65424383
              11.78418314                8.49801300               67.17563827                0.36211132                0.02909607               -0.08901347                0.02880249                0.14106977                0.20515799               -0.45929801
              12.78612488                8.06189164               66.76422759                0.00010000                0.43779501               -0.08452809               -0.71090391               -0.82494164                7.72085633               -1.97894625
              13.79293904                7.60391659               66.50081988                0.00010000                1.46318546               -0.23122344               -2.38900481               -2.76773707               15.38126439                0.38408573
              14.81538859                7.11140621               66.25064647                0.00010000                3.28938395               -1.46324771               -3.93119647               -5.89362552               16.79661180                2.66485857
              15.85872672                6.57566087               66.02732939                0.00010000                5.21733810               -3.10089040               -5.40165300               -9.92870464               19.25665369                4.69705169
              16.91973535                5.98793251               65.84112634                0.00010000                6.28590847               -3.63827344               -6.64829459              -14.61943495               22.66593314                6.03129857
              17.98444489                5.34888904               65.70189729                0.00010000                5.68893595               -2.21884423               -6.99931250              -18.18215954               27.05895785                5.72229962
              19.03351407                4.67149521               65.61609431                0.00010000                3.31649649               -0.54452088               -5.17276268              -19.97402972               31.95076510                3.15971967
              20.05077482                3.96176908               65.57491692                0.36780624                0.85993845                0.54073086               -0.60714275               -9.93628476               17.08306528               -1.00526309
              21.05071284                3.45057285               65.19417890                0.99077365               -0.00619804                0.48582617               -0.44955082               -0.07784279               -0.05398961               -0.46647293
              11.22333702                9.93499726               67.46615741                0.89082590               -0.07714913               -0.05183895                0.54198227                0.01263676                0.00948419                0.65133400
              12.22256553                9.49751954               67.04596504                0.40222662                0.05630347                0.00119617               -0.12780689                0.15758156                0.00883466               -0.36208708
              13.22446309                9.06176604               66.62561087                0.00010000                0.84154152                0.09130631               -0.70715698               -0.77394849                8.46636315               -1.54682048
              14.23939636                8.60582779               66.37521571                0.00010000                2.18684479                0.83715648               -2.79700996               -3.75013957               17.30355021               -2.36700060
              15.26819999                8.10233779               66.14016518                0.00010000                3.96469265               -0.45981149               -4.44287132               -7.76072417               18.74413084               -0.20144790
              16.31869021                7.55270017               65.93214437                0.00010000                5.96475292               -1.78641354               -6.08239156              -11.20938361               20.56277252                2.15861399
              17.38749505                6.95991318               65.74772498                0.00010000                7.26558674               -2.35675641               -7.35083588              -14.29364589               22.18298215                3.49990792
              18.46400195                6.32765295               65.58847423                0.00010000                7.10983618               -1.98384174               -7.64802481              -16.58313935               24.09101156                3.43745600
              19.52969177                5.66266627               65.45733361                0.00010000                4.88628623               -0.97337840               -5.60640280              -18.08184388               26.45203582                1.69870699
              20.56172767                4.96820599               65.35115312                0.35969912                1.57121188                0.71851943               -0.61618304               -9.10733442               13.75072536               -1.16492701
              21.56111601                4.45554574               64.97366038                0.97273278               -0.06116668                0.37082973               -0.30059006               -0.04019531               -0.00842571               -0.76845033
              11.66075114               10.93455645               67.34188886                0.89466743               -0.01851433               -0.04333546                0.30954961                0.02429405               -0.00065043                0.61531332
              12.66056599               10.49803692               66.91691502                0.47692074                0.07932582                0.09407364               -0.26697834                0.19518246               -0.08163171               -0.28146461
              13.66233765               10.06371777               66.49021152                0.08690534                0.83992505                0.23755821               -0.67028197               -0.13438188                6.93716053               -1.17033148
              14.67736450                9.62065972               66.20573592                0.00010000                2.54820371                1.57637641               -2.09958922               -4.87345249               17.28391007               -8.44108439
              15.71330173                9.10220998               65.99739517                0.00010000                4.97995819               -0.00353651               -4.62603637               -9.53139662               21.64376451               -2.33244617
              16.77696366                8.53993260               65.81147433                0.00010000                7.28039616               -1.09664564               -6.79198037              -11.90342238               22.44760290                0.56424620
              17.85890965                7.94079738               65.63030907                0.00010000                8.65326760               -1.65275456               -8.31326022              -13.76762130               22.24288732                2.25487998
              18.95002901                7.30921221               65.45505705                0.00010000                8.62072520               -1.69892061               -8.66493465              -15.23656325               22.02449012                2.66817857
              20.03132416                6.65202765               65.28586704                0.00010000                6.28598219               -1.14814302               -6.32876936              -16.01308124               21.85071018                1.55965278
              21.07574866                5.97613947               65.12271046                0.41677448                2.19526302                0.67017590               -0.50688240               -7.99026251               10.75392910               -0.70094091
              22.07522942                5.45798945               64.74692828                1.00000000               -0.05192390                0.12655343               -0.04228263               -0.07950649                0.09845747               -0.49993662
              12.09686197               11.93413055               67.21766157                0.89964286                0.04458958               -0.03032195                0.08923610                0.03204793               -0.02834048                0.55189606
              13.09730786               11.49940101               66.78849884                0.61057635                0.11453425                0.14928157               -0.37706092                0.18373796               -0.08203313               -0.16474600
              14.09915265               11.06651720               66.35818787                0.20530925                0.30636184                0.24635924               -0.60028770                0.45404353                1.06830060               -0.73305302
              15.10343510               10.63735532               65.95171294                0.00010000                2.95732621                0.82372310                0.45697208               -5.32269609               16.77908433               -7.73859509
              16.15829918               10.10226706               65.84088952                0.00010000                6.92996326               -0.32983091               -4.47479055              -10.05948074               28.25364546               -3.01990421
              17.24203437                9.53076725               65.67690159                0.00010000                9.22819158               -1.15437881               -7.53647055              -10.87229793               24.49277795               -0.23491447
              18.34286301                8.92685809               65.50073119                0.00010000               10.30030263               -1.20600096               -9.46598063              -11.93461396               22.63504605                1.56044262
              19.44804042                8.29367454               65.31323805                0.00010000                9.98199364               -1.19706956               -9.94457546              -13.12143927               20.52210644                2.32797113
              20.54250288                7.63970341               65.11152046                0.00010000                7.39601024               -1.22261913               -7.22398403              -13.69197907               17.99913361                1.73130775
              21.59596062                6.98160950               64.89963770                0.50282183                2.66615237                0.39838844               -0.37228055               -6.81752019                8.26075969               -0.31773847
              22.59582593                6.45807681               64.52510141                1.00000000               -0.01346943               -0.01503867                0.08589709               -0.05431785                0.13705818               -0.10149864
              12.53085118               12.93395001               67.09302743                0.83339464                0.10029263                0.01411962               -0.12484057                0.00545496                0.06764642                0.42521758
              13.53185410               12.50102255               66.66160917                0.74542671                0.13065186                0.16804842               -0.47693981                0.08385835                0.09894414               -0.02253483
              14.53346421               12.06864495               66.23094244                0.38617611                0.16533057                0.19787402               -0.54248942                0.15476200                0.31574323               -0.30012737
              15.53516071               11.63713418               65.80374001                0.00010000                4.26179821                0.00372222               -0.05167392               -5.44037943               15.82872513               -1.44995242
              16.61870018               11.09561336               65.68771662                0.00010000                9.98829795               -2.17653482               -4.34228991               -7.42048029               29.35225368               -2.07663293
              17.73492667               10.51684502               65.53908751                0.00010000               11.93049564               -1.67744679               -8.29827505               -7.09364961               25.85228505               -0.36717146
              18.85731009                9.91667736               65.36493524                0.00010000               11.99141154               -0.96569899              -10.78104931               -7.38542745               22.59291334                0.90233600
              19.97475490                9.28527082               65.16708817                0.00010000               10.61197584               -0.39760982              -11.56066587               -8.64682589               18.89160899                1.54966465
              21.06954961                8.62757526               64.93753670                0.00010000                7.31349714               -0.17711952               -8.46518444               -9.33116841               14.34727432                1.56920990
              22.12102485                7.98410724               64.67983652                0.55244336                2.58294170                0.19123841               -0.32484679               -5.88709515                5.90893846               -0.21930680
              23.12120844                7.45768867               64.30685389                1.00000000                0.01835947               -0.01462395                0.01493814                0.00611912                0.11940460                0.06083935
              12.96282599               13.93441294               66.96696346                0.90792990                0.14640994                0.04629280               -0.31572798                0.03238501                0.36648481                0.32137560
              13.96429009               13.50276198               66.53573720                0.94440612                0.16551351                0.17394259               -0.65029318                0.04668566                0.45682722                0.07556097
              14.96613626               13.07047468               66.10641916                0.72658024                0.16845067                0.18297266               -0.68785964                0.00059406                0.80446485               -0.09145178
              15.96765910               12.63742976               65.68195108                0.36572559                8.20212353                0.02955813               -0.21844903               -7.33707692               15.79123667               -0.14132900
              17.13017873               12.05873636               65.55712179                0.36074105               15.57191348               -3.68769985               -4.70692279               -5.86271688               28.65806170               -1.22566808
              18.27909737               11.49721832               65.40462800                0.36433819               14.82749660               -1.96267027               -9.15980460               -3.14254282               24.87527229               -0.36231917
              19.42672866               10.90754411               65.22401173                0.37631392               14.25543122               -0.91332545              -12.28991281               -3.63294168               20.92319824                0.30004778
              20.56420600               10.28572234               65.01270257                0.39731954               11.51572134                0.04515224              -13.67541778               -4.62404509               16.18663159                0.62503622
              21.65704309                9.63616102               64.76096654                0.42588903                4.19496563                0.85857542              -10.77808800               -6.26505517                9.88910797                0.62305633
              22.64810531                8.98543427               64.46153920                0.76831958               -0.41288215                0.13270311               -0.53428566               -6.21078786                3.67472746               -0.30890366
              23.64878545                8.45778433               64.08937480                1.00000000                0.06801369                0.00956608               -0.27959217               -0.00729329               -0.08038949                0.02624175
               8.98038013                4.08286940               69.22285005                1.00000000               -0.40359118               -0.49092216                1.72385855               -0.15290025               -0.43732099                0.55694700
               9.97634421                3.63310001               68.82199201                1.00000000               -0.29389049               -0.25458014                0.94941781               -0.11935867               -0.53047831                0.07082394
              10.97450232                3.18280039               68.41859844                1.00000000               -0.07612363               -0.02539902                0.18710002               -0.11750940               -0.53803104               -0.07384132
              11.97482174                2.73156372               68.01749664                0.60023484                0.08600725                0.22752757               -0.59239121               -0.19710387               -0.41348902               -0.46141103
              12.97622246                2.27795798               67.61703811                0.47284121                0.24512922                0.51971256               -1.43399442               -0.24724304               -0.20438108               -0.27527103
              13.97972433                1.82184050               67.22088451                0.25715245                0.05407486                0.78294003               -2.32118541               -0.76546897                0.52298502               -0.60115832
              14.97730396                1.35344099               66.83644706                0.00010000              -11.51868471                1.41423614               -3.09322245              -20.93831374               13.84423781               -1.54746314
              15.74935063                0.47538332               66.71327464                0.00010000              -12.71978808                5.02877785               -4.88920036              -20.76545416               22.70328905                3.18102226
              16.72290820               -0.40466318               66.48066261                0.00010000                6.73671485                2.21995058               -4.41217112              -18.95273874               13.46604884               11.45998160
              17.88408493               -1.29080202               66.14808238                1.00000000                8.36220208                0.78200394               -1.83040350              -17.87061960                4.14638841                0.05327105
              18.89015224               -1.82684369               65.73180180                1.00000000                0.60673094                0.96786234               -2.38946521                0.17738662               -0.09749073               -0.08900538
               9.42862051                5.07796018               69.09690395                1.00000000               -0.34353825               -0.45207197                1.53124687               -0.03312059                0.02797143                0.78566435
              10.42518513                4.63055421               68.69584552                1.00000000               -0.22625737               -0.22811235                0.75680212               -0.00328040                0.09972930                0.10341812
              11.42409537                4.18254640               68.29563749                1.00000000                0.00433878               -0.00093031               -0.01106122                0.00214685                0.13106417               -0.26858516
              12.42527191                3.73383900               67.89522868                0.58463153                0.22581369                0.24957111               -0.78726060               -0.05266129                0.40111254               -0.46148659
              13.42861164                3.28315511               67.50101279                0.53709477                0.45281142                0.51056890               -1.67534614               -0.07814651                0.60515163               -0.29880231
              14.43432813                2.82966990               67.10580971                0.34178043                0.62688858                0.77551324               -2.55830435               -0.40893930                0.83277607               -0.54590407
              15.44114941                2.36758335               66.71811596                0.00010000               -0.67899798                1.14172273               -3.44594243              -19.05168636               16.19190966               -0.92440033
              16.42074818                1.52567110               66.63353838                0.00010000               -1.23379660                1.71707383               -5.48074649              -28.34372605               27.32376294                7.27025900
              17.41647348                0.61753632               66.46848905                0.00010000               -0.21395951                6.34829209               -9.46082014              -30.90003886                8.13369391               17.28314958
              18.41646898               -0.28298198               65.99521260                0.08609048                0.57471470                7.00650576               -3.45360652              -20.61915052               -2.81476652               34.13110922
              19.42796777               -0.81716507               65.57888322                1.00000000                1.14987885                2.32935358               -4.01120089                2.13144775                0.10118748               38.04244209
               9.87452965                6.07382796               68.97461763                1.00000000               -0.28372719               -0.36383719                1.32410877               -0.03484587                0.18752086                0.92386368
              10.87169238                5.62853776               68.57000859                1.00000000               -0.16345949               -0.17767423                0.55829489               -0.00546656                0.39264960                0.01978183
              11.87126046                5.18278179               68.16899772                0.00010000                0.07337129                0.05979603               -0.21109281               -0.00170828                0.86125415               -0.73275395
              12.87315981                4.73655514               67.77387314                0.00010000                0.37840804                0.49154312               -0.96294748               -0.70603590                1.50124821               -0.09997955
              13.87882862                4.28816936               67.38621097                0.00010000                0.69787471               -1.03876472               -1.88096384               -1.28001588                1.58659845                3.65024303
              14.88711730                3.83735077               66.99429373                0.00010000                1.07202048               -2.27368132               -2.75059721               -1.35700503                1.77832926                7.51023683
              15.90026903                3.37627544               66.61272420                0.00010000                2.27029175               -7.06262593               -3.60890192              -19.59286940               22.70574529               15.11263912
              16.93252314                2.50972480               66.64210451                0.00010000                0.66457324               -0.26424200               -7.02523842              -32.47305922               37.82023253               13.80498902
              17.91356050                1.72230266               66.58600602                0.00010000               -1.30599157                8.43087487               -9.71799893              -31.53243487               33.57781366               23.74121554
              18.90640331                0.84932809               66.52387567                0.00010000                4.37934321               22.25054143              -45.92754594              -25.27898676               20.82675649               62.06804001
              20.00114736                0.21974338               66.18865165                0.27630302                9.47440579               23.52587829              -46.21294414              -13.60647945                8.98746676               61.81372310
              10.31850399                7.07068344               68.85073068                1.00000000               -0.23820179               -0.26684070                1.11722740               -0.02132527                0.30154451                0.75440829
              11.31612197                6.62700072               68.44194426                0.51989275               -0.12300862               -0.14094101                0.36776925                0.05324337                0.51787303               -0.36800446
              12.31604382                6.18374232               68.03702337                0.00010000               -0.51791808                0.08091183               -0.41628554                0.28066064                2.09275436               -1.25024360
              13.30576361                5.74366986               67.65991881                0.00010000               -0.69140607               -0.55716526                0.26462457               -1.99806959                6.20795515                1.53145337
              14.30221570                5.26237982               67.35079657                0.00010000                0.66591715               -2.12069132               -2.49322336               -3.84482093                9.66936109                6.70820639
              15.31908196                4.78419628               67.04268201                0.00010000                3.73511476               -5.32182034               -3.77453813               -6.67420676               13.42743497               13.13017557
              16.37691799                4.22633083               66.81740447                0.00010000                5.30889095              -11.01103219               -5.52615764              -16.22673822               21.10731809               21.96000892
              17.42525977                3.52038626               66.68330806                0.00010000                3.46517454               -0.04210038               -7.94848626              -23.98631303               31.66565849               14.97650746
              18.44622148                2.78615382               66.68809643                0.00010000               -0.59056247                5.82935550              -12.43689849              -17.50217343               53.61630283               18.35842570
              19.41344853                2.16202885               66.98678538                0.40859614               -1.56069371               15.76464514               -1.37805076               -5.83361425               34.10071808               33.04350193
              20.41500761                1.65335250               66.60373488                1.00000000                0.15590851               21.78552767               -0.86156063               -4.76441370                0.47853396               31.15506742
              10.76146857                8.06849115               68.72463983                0.90467323               -0.17702088               -0.16901820                0.91769908                0.01106041                0.06104251                0.61677413
              11.75969836                7.62571894               68.30817740                0.36357184               -0.06320143               -0.11882479                0.19268881                0.14096956                0.51306378               -0.56137733
              12.76020454                7.18440002               67.90043485                0.00010000               -0.25687191                0.00321899               -0.54895921               -0.59323853                5.74427492               -1.76216599
              13.75456092                6.72541184               67.58925612                0.00010000                0.06006240               -1.03252694               -1.67447573               -1.88450818               11.02965960                2.37896937
              14.76140579                6.24575554               67.29459418                0.00010000                1.75606150               -1.58388627               -2.96211814               -3.72127763               13.06342471                4.49053574
              15.78968215                5.73091436               67.03758148                0.00010000                3.90692489               -4.25076289               -4.55977667               -7.61212579               16.54705867                8.17588057
              16.83954429                5.15605480               66.82826708                0.00010000                5.16458669               -5.27709398               -6.24227199              -14.59576240               21.59177459               10.01851407
              17.89297389                4.50888279               66.69509464                0.00010000                4.11650776               -1.06818820               -8.29184073              -18.96965353               30.26620756               10.65388488
              18.92187444                3.83888977               66.68242886                0.00010000                1.47792264                3.06465282               -7.84700616              -18.83413286               41.72856632                9.52685408
              19.92253234                3.16462100               66.78047040                0.34217470                0.06686716                0.44511157               -0.72416747               -8.26979692               23.91045545               -0.33533745
              20.92321179                2.65545393               66.39770212                0.98020373                0.06794459                0.42806376               -0.46282582               -0.14746909               -0.10818650                0.16948124
              11.20426961                9.06730307               68.59786322                0.89086385               -0.12371195               -0.10411867                0.71624921                0.00129185                0.02060027                0.58423219
              12.20303249                8.62462423               68.17598245                0.35425257                0.01082723               -0.07017540                0.03363291                0.14900150                0.21902810               -0.41554835
              13.20448615                8.18380670               67.75781062                0.00010000                0.18427234               -0.00098487               -0.60230086               -0.69863904                7.26297668               -1.78527737
              14.20671794                7.72301932               67.47770730                0.00010000                0.89007351                0.10981443               -2.16058391               -2.48728779               14.43422137               -0.18229021
              15.22228762                7.23070209               67.21228473                0.00010000                2.49111213               -1.00440910               -3.63073033               -5.27781066               15.79765192                2.00468526
              16.25654018                6.69918102               66.97384429                0.00010000                4.23733465               -2.42791573               -5.14523113               -8.94996894               18.03374454                4.01612314
              17.30703432                6.12078895               66.77348831                0.00010000                5.32457776               -2.72081993               -6.70173121              -13.09093378               21.33204913                5.50087961
              18.36303173                5.49902250               66.62702978                0.00010000                5.33831514               -1.04252516               -7.94923802              -16.13570625               26.52550566                5.53157632
              19.41380062                4.84744687               66.55785939                0.00010000                3.42283424                0.43159635               -7.50273481              -17.06903636               34.04475238                3.15795569
              20.43148842                4.17093108               66.56832430                0.26856312                0.82958668                0.98033879               -1.06554167               -8.44948392               19.41622641               -0.89917669
              21.43039235                3.66191377               66.18966893                0.88855652               -0.10960659                0.88777310               -0.58738161               -0.20531596                0.01752546               -0.25864465
              11.64685209               10.06640877               68.47139750                0.89757427               -0.06773331               -0.08872030                0.51676695               -0.00244604                0.00178498                0.57561721
              12.64617476                9.62431544               68.04475274                0.38459288                0.04922879                0.01571684               -0.12611340                0.16197401                0.05565257               -0.31634122
              13.64783667                9.18438033               67.61898386                0.00010000                0.58725103                0.13864711               -0.65300185               -0.55396502                7.82536475               -1.37539961
              14.65791978                8.72760813               67.34813519                0.00010000                1.59256051                1.01731363               -2.41106925               -3.09778815               16.11840212               -2.25027273
              15.67968788                8.22566735               67.09778151                0.00010000                3.13380677               -0.16278587               -3.95899931               -6.86011120               17.67820841               -0.76940995
              16.72059592                7.68235605               66.87269094                0.00010000                4.90981283               -1.28102380               -5.64324464               -9.79912783               19.18856050                1.45156732
              17.77788414                7.10163840               66.67451604                0.00010000                6.15029606               -1.58523756               -7.15277411              -12.32509251               20.73585903                2.87295432
              18.84360184                6.48803229               66.50931291                0.00010000                6.53504982               -1.06899423               -8.08957407              -14.17218939               23.44997059                3.09092865
              19.90858513                5.84752169               66.39652741                0.00010000                4.77369625               -0.12509402               -7.66088261              -15.39201264               28.17877146                1.79595972
              20.93907576                5.18422777               66.34364116                0.27208622                1.42774717                1.24476081               -1.35798566               -7.80048278               15.97941283               -0.94357719
              21.93714008                4.67320940               65.96998433                0.88717804               -0.19356866                0.81491956               -0.59476054               -0.14120321                0.09322398               -0.44514229
              12.08840737               11.06552867               68.34502837                0.90310378               -0.01069481               -0.08706111                0.32880829               -0.00570637               -0.00986274                0.55284979
              13.08830042               10.62493857               67.91424468                0.43819434                0.08533976                0.09938615               -0.28523152                0.16428808                0.00280782               -0.23577029
              14.09011416               10.18657965               67.48355226                0.00010000                0.75873637                0.25961944               -0.70109595                0.05202079                7.04283940               -1.01988616
              15.10347515                9.74336559               67.19348867                0.00010000                2.01116599                1.67117971               -1.31969330               -4.32248225               16.50826377               -7.48831084
              16.13033748                9.22744637               66.95435229                0.00010000                4.05557164               -0.00014043               -3.77951852               -8.51953806               19.84778717               -2.65664209
              17.18458658                8.67356054               66.74632432                0.00010000                6.22593728               -0.82127141               -6.09499440              -10.13090655               20.66594925               -0.11503405
              18.25485623                8.08908420               66.54938588                0.00010000                7.45590363               -1.13423927               -7.73435480              -11.46164619               20.52211740                1.59378042
              19.33370465                7.47764261               66.36962636                0.00010000                7.74543268               -1.03164460               -8.52443117              -12.54860888               21.31542100                2.44313196
              20.40976488                6.84494499               66.22292794                0.00010000                5.80432050               -0.48023453               -7.44678440              -13.45320426               24.05663715                1.94409976
              21.44979106                6.19582629               66.11761872                0.33395373                1.99200805                0.83268095               -0.80817323               -6.84732872               13.22236474               -0.40938476
              22.44960504                5.67821217               65.74611544                0.94661011               -0.01860196                0.22427441               -0.19995609               -0.16475036                0.08828724               -0.27032968
              12.52791816               12.06466755               68.21884604                0.90792793                0.04913761               -0.06758260                0.15432667               -0.01982620               -0.01762936                0.51269590
              13.52840954               11.62630316               67.78450921                0.53227512                0.12659456                0.15953998               -0.44733168                0.11447050                0.05953031               -0.12750638
              14.53045006               11.18957271               67.35162318                0.00010000                0.10969332                0.29454240               -0.75745866                0.59555381                2.49436671               -0.58266232
              15.53060341               10.76103172               66.96564404                0.00010000                2.43260561                0.73644005                3.43537218               -5.12986050               16.89972319               -8.61247791
              16.57910217               10.22566455               66.80141748                0.00010000                6.28682761               -0.60967110               -3.63227860               -9.06501637               24.95360485               -3.15221280
              17.65633996                9.66593062               66.60576313                0.00010000                8.27334879               -1.07498695               -6.50026639               -8.93748953               22.02981802               -0.79981143
              18.74456914                9.07895361               66.41061173                0.00010000                9.02144517               -0.95449107               -8.43357306               -9.64763498               20.51518377                1.06287143
              19.83676886                8.46739939               66.21996484                0.00010000                8.83841091               -0.85826591               -9.12043761              -10.54388930               19.80436154                2.27150864
              20.92133736                7.83791700               66.04611469                0.00010000                6.60465766               -0.85460810               -7.09199685              -11.44568636               20.99748346                2.24744025
              21.96886202                7.20088139               65.89688802                0.43337849                2.38679822                0.34417409               -0.36427054               -5.84192496               11.05223337               -0.04189887
              22.96907333                6.67769488               65.52564755                1.00000000                0.02113104               -0.06860424                0.02409533               -0.12947124                0.01894631               -0.01478914
              12.96473963               13.06417701               68.09232148                0.83705432                0.09450356               -0.01820011               -0.01222181               -0.04577169                0.10876182                0.40314222
              13.96568466               12.62812937               67.65616941                0.59209454                0.12785224                0.21224787               -0.64858744                0.02316039                0.33896547               -0.00948331
              14.96729667               12.19247049               67.22459007                0.00010000               -0.04492803                0.29006313               -0.81112966                0.10589813                1.16857122               -0.18914845
              15.96478610               11.75809439               66.80477704                0.00010000                3.84207916               -0.11856573                3.40953817               -5.37719815               17.00841160               -3.99968482
              17.04413826               11.21525295               66.65035858                0.00010000                9.38808079               -2.52904416               -3.41787538               -6.55481515               26.66434636               -2.57071190
              18.15254772               10.65206080               66.46143969                0.00010000               10.81482467               -1.65436463               -6.97243994               -5.62414113               22.49956887               -0.60589157
              19.26043475               10.06999438               66.26450563                0.00010000               10.56578771               -0.96714475               -9.21822752               -5.81282310               19.86331765                0.63852175
              20.36386347                9.46047729               66.06278623                0.00010000                9.34672024               -0.45446387               -9.90964675               -6.89010156               18.05585240                1.63120529
              21.44736916                8.82785283               65.86575935                0.00010000                6.46556029               -0.28891447               -7.21455513               -7.81321853               18.00464302                1.90527269
              22.49317468                8.20270978               65.67796020                0.51453853                2.30097374                0.13556950               -0.20931133               -5.01496870                9.13973525                0.03044860
              23.49338863                7.67684008               65.30705936                1.00000000                0.02139502               -0.05109016                0.02078336               -0.04133120               -0.00035554                0.05901353
              13.39909803               14.06430355               67.96442362                0.90876229                0.14812412                0.01265363               -0.17855602                0.06029639                0.37620512                0.30338065
              14.40057927               13.63054812               67.52831691                0.83577985                0.17524809                0.24187504               -0.88738070                0.04298175                0.70825720                0.08266200
              15.40260299               13.19537398               67.09874906                0.61805043               -0.01511409                0.29034838               -0.94668472               -0.06375391                1.66475795               -0.00206185
              16.40027699               12.75866041               66.68129014                0.36551874                7.57182336                0.05660123                3.43146903               -7.46542749               19.29844645               -4.28508236
              17.55403946               12.17508366               66.51577702                0.36077795               14.44193622               -4.01692886               -3.78943792               -5.30073418               25.38340299               -0.95574755
              18.68911571               11.63284333               66.31986509                0.36418635               13.29283686               -1.92174784               -7.51550411               -2.11684811               20.69548059               -0.31110388
              19.81989619               11.05961072               66.11144135                0.37552934               12.59963325               -1.03836589              -10.11321996               -2.78051615               17.27756319                0.39091957
              20.94110838               10.45831012               65.89279164                0.39524055               10.14721568               -0.21671754              -11.05410592               -3.64911001               14.81389530                0.93946589
              22.02284051                9.83213871               65.67476742                0.42361913                3.92335089                0.42858817               -8.29336361               -5.18873160               14.49993723                1.23453176
              23.01957539                9.20359278               65.45903641                0.75990176               -0.14272063                0.08830050               -0.25711675               -5.13321025                7.74809944                0.02509289
              24.01998609                8.67667308               65.08830649                1.00000000                0.04107005               -0.01669991               -0.09001886               -0.03222360               -0.00482468                0.04233571
               9.38083637                4.21525205               70.23927636                1.00000000               -0.37003626               -0.44540044                1.56162343               -0.13332957               -0.41953986                0.53884605
              10.37713600                3.76089534               69.83116401                1.00000000               -0.27501618               -0.23746648                0.88538553               -0.10256861               -0.50717977                0.06662063
              11.37533604                3.30603633               69.42062973                1.00000000               -0.08538613               -0.03588601                0.21938809               -0.10208950               -0.51750087               -0.06981091
              12.37542828                2.85030155               69.01222782                0.60400974                0.05480849                0.18124101               -0.46093545               -0.17734645               -0.42732292               -0.43910702
              13.37643221                2.39237653               68.60395701                0.46942945                0.18870712                0.43455065               -1.18415443               -0.22605106               -0.26884476               -0.28657326
              14.37920242                1.93212451               68.19952565                0.23911088               -0.15735582                0.65898778               -1.95263036               -0.87132546                0.49482076               -0.59292730
              15.37328510                1.45738613               67.80795614                0.00010000              -10.88851813                1.40593036               -2.60128058              -20.06398445               13.31883214               -1.67930307
              16.16143206                0.59128990               67.66724249                0.00010000              -11.56311261                4.25348118               -4.19354378              -20.19029217               23.13637287                3.14135358
              17.14202284               -0.27096720               67.43848885                0.00010000                7.06943116                2.01244271               -3.91756207              -16.83668399               15.82219288                7.33588942
              18.30282069               -1.12933673               67.13066998                1.00000000                8.31576931                0.78565106               -1.65905434              -16.46995975                5.67764507                0.02809514
              19.30833823               -1.66664540               66.70884666                1.00000000                0.55175459                0.96486145               -2.20261619                0.23795882               -0.09366375               -0.09237061
               9.83385978                5.21079805               70.11148842                1.00000000               -0.31415984               -0.41234894                1.38571912               -0.02748225                0.03211859                0.76015117
              10.83071818                4.75852068               69.70317597                1.00000000               -0.21238666               -0.21339437                0.70956539                0.00039255                0.10684840                0.09640702
              11.82961205                4.30567747               69.29576958                1.00000000               -0.01167330               -0.01277552                0.03793513                0.00248907                0.13819580               -0.26491958
              12.83048472                3.85211396               68.88810996                0.60859385                0.18240887                0.19851409               -0.63666294               -0.04735363                0.35392749               -0.43326068
              13.83326022                3.39672204               68.48562367                0.55216629                0.37498264                0.42708921               -1.40290463               -0.07612442                0.50801102               -0.29167596
              14.83798437                2.93871438               68.08219498                0.34050863                0.49011663                0.65478650               -2.16629565               -0.45122595                0.73106349               -0.51969415
              15.84306256                2.47144544               67.68612333                0.00010000               -0.71392811                1.07873499               -2.95372194              -18.54676198               15.39100487               -0.93874826
              16.82370581                1.63382471               67.57934426                0.00010000               -0.45466195                1.61184104               -5.23910900              -27.76092652               25.06377962                6.56308851
              17.83396932                0.74915723               67.37044517                0.00010000                0.61271905                4.74450941               -9.23153721              -28.55318465               10.36654487               13.90267420
              18.83596019               -0.12148022               66.95962846                0.07498524                0.70285858               12.62958019               -3.65927130              -18.73517641                0.57710588               18.28410246
              19.84802649               -0.65699678               66.53779365                1.00000000                1.20663019               12.13447245               -4.19833565               -0.99403041                0.09732943               20.65887010
              10.28484146                6.20700507               69.98722188                1.00000000               -0.25770223               -0.33791320                1.19721231               -0.02909321                0.18631064                0.89024331
              11.28226444                5.75662745               69.57544784                1.00000000               -0.15244566               -0.16724467                0.52936243               -0.00213195                0.38955462                0.01316751
              12.28179255                5.30578081               69.16722234                0.00010000                0.05861007                0.04142207               -0.14279860               -0.00729019                0.86267860               -0.72890181
              13.28343664                4.85427183               68.76500826                0.00010000                0.32583766               -0.52140015               -0.80328969               -0.84064801                1.43852243                0.90570836
              14.28830930                4.40091831               68.36886529                0.00010000                0.60089333               -0.96347324               -1.58903319               -1.47786836                1.46925507                3.41852859
              15.29545450                3.94522024               67.96879439                0.00010000                0.94651161               -2.22602086               -2.34939108               -1.82996458                1.67678391                7.13065893
              16.30723953                3.47896083               67.57905412                0.00010000                1.65236174               -6.66471882               -3.12068195              -19.74677246               21.30327088               14.23066417
              17.32850174                2.62352672               67.57416119                0.00010000                0.95122733                0.24644495               -7.03454078              -33.63408170               33.91028914               12.10111410
              18.32626408                1.82392299               67.45463957                0.00010000                0.28847143                8.37872009              -12.22035723              -25.89698748               20.35477817               20.13091599
              19.33427117                1.12325488               67.15336853                0.00010000                1.66133382               23.97573093              -39.92956592              -14.42076340                9.70736646               62.68480887
              20.35949075                0.57604405               66.78153568                0.06877977                2.52195861               25.66391673              -46.78993199               -6.95425766                3.15586119               68.86508071
              10.73403315                7.20403978               69.86136252                1.00000000               -0.21333496               -0.25621227                1.01026276               -0.02271136                0.29801347                0.72277898
              11.73189980                6.75517578               69.44555955                0.50187088               -0.11056399               -0.12966935                0.35409594                0.03552415                0.50203026               -0.36557404
              12.73182187                6.30650591               69.03335476                0.00010000               -0.66827716                0.08226073               -0.31415870               -0.73050380                3.05444711               -1.21620885
              13.71853426                5.84168595               68.66873663                0.00010000               -0.95337094               -0.70143343                0.17948422               -2.08952201                6.35017319                1.33962237
              14.71275445                5.37745257               68.32637586                0.00010000                0.24041508               -2.04965063               -2.12921055               -3.25206902                8.42955601                6.35608047
              15.72334256                4.89419397               68.00680835                0.00010000                2.85330870               -4.90734623               -3.34498919               -7.18485647               12.73596993               12.31549581
              16.76982062                4.33815106               67.76299020                0.00010000                4.13597289              -10.09978776               -5.17995502              -16.76228182               19.44059438               20.49948767
              17.80606201                3.63875361               67.59856198                0.00010000                2.32403929                0.89295464               -8.24989855              -24.37754763               27.46964701               13.22376146
              18.81630141                2.91673163               67.54336928                0.00010000               -0.53190792                8.52039094              -15.91668647              -15.78676590               54.11466657               18.40740496
              19.79542386                2.35803440               67.96344679                0.20698976               -0.64692127               12.29454124              -12.27430714               -4.61271964               39.42784277               44.14717621
              20.80336298                1.85628155               67.58901595                0.79677853                0.79391275               14.36203691               -7.32638232               -2.96716061                2.47202206               46.33350505
              11.18211523                8.20188083               69.73339281                0.90706554               -0.16064322               -0.17597914                0.83377699               -0.00050792                0.05185359                0.58742207
              12.18050879                7.75403407               69.31008190                0.34610705               -0.07214636               -0.10245478                0.18708739                0.11308569                0.50388737               -0.54581156
              13.18067230                7.30742603               68.89548316                0.00010000               -0.49046311                0.05655929               -0.45209061               -0.79766044                5.48248077               -1.66644403
              14.17069953                6.84024316               68.57237380                0.00010000               -0.49561967               -0.01471205               -1.52294262               -1.94428114               10.57707937                1.16453535
              15.17075991                6.35992530               68.26685068                0.00010000                1.01796769               -1.45699944               -2.60451441               -3.53598292               12.50441031                4.07259635
              16.19105889                5.84707331               67.99351250                0.00010000                2.83371727               -3.66600447               -4.13592643               -7.40523789               15.63158097                7.45001694
              17.22743425                5.27696508               67.76639069                0.00010000                3.56556651               -4.32249622               -5.98900051              -14.11586394               19.92976507                9.16187359
              18.26237022                4.64138581               67.60554686                0.00010000                3.19068571                0.32743455               -8.76589782              -17.90561783               28.27598844               10.08670108
              19.29124797                3.99433081               67.58569025                0.00010000                2.00483186                5.19120700              -12.75228799              -15.77134630               43.55215159               10.82739851
              20.30246685                3.36914570               67.77149715                0.17229541                0.62026377                1.12901949               -4.37232870               -5.95900345               26.96459266               -1.99297855
              21.30365324                2.86328479               67.39274818                0.79473086                0.11863878                0.84180962               -1.81179377               -0.33553607               -0.39467017               -1.55030625
              11.62971651                9.20052020               69.60475010                0.89607028               -0.11001970               -0.12681856                0.66242915               -0.01200014                0.01462836                0.55912290
              12.62861631                8.75312669               69.17631092                0.33173926               -0.00284694               -0.05517940                0.02979166                0.13501636                0.24381534               -0.39856706
              13.62965957                8.30763709               68.75218157                0.00010000               -0.07334745                0.05451863               -0.54074916               -0.74096695                6.90033589               -1.69536569
              14.62714936                7.84139171               68.45760820                0.00010000                0.27725366                0.23989043               -1.83459885               -2.35286478               13.68999911               -0.41954478
              15.63520464                7.34831258               68.17803186                0.00010000                1.55243312               -0.75216372               -3.16527998               -4.70346661               15.04885001                1.43519593
              16.65819802                6.82087388               67.92442477                0.00010000                2.89931017               -1.89109178               -4.65107109               -8.09717173               17.10021285                3.34679321
              17.69319084                6.25170114               67.70709171                0.00010000                3.61929525               -1.77451913               -6.40696084              -11.87077886               20.02562367                4.77606997
              18.73058393                5.64530230               67.54291253                0.00010000                3.99618744                0.27445643               -8.47591449              -14.12627966               24.99296867                5.32243371
              19.77311459                5.02055577               67.46603961                0.00010000                3.83529391                1.95930493              -10.78420355              -14.84982625               35.54666502                2.71046168
              20.80728981                4.38061479               67.55360608                0.11437751                1.76297456                1.54471603               -7.64592622               -7.10229339               21.98152717               -0.75637009
              21.80837408                3.87311775               67.18243127                0.72290142                0.10842785                1.34557998               -3.53698711               -0.41765942                1.48713783               -0.98595779
              12.07666225               10.19934445               69.47649275                0.90649937               -0.05700165               -0.11776464                0.49886022               -0.02115994               -0.00505831                0.56992596
              13.07609223                9.75293048               69.04344277                0.35155113                0.04628455                0.02191785               -0.13767603                0.13269507                0.11327376               -0.31344625
              14.07758794                9.30851640               68.61255084                0.00010000                0.34372588                0.15218159               -0.65070836               -0.67993092                7.47169039               -1.33164135
              15.08296675                8.84504097               68.32699432                0.00010000                0.98102372                0.59964702               -1.91165251               -2.70269966               15.26888406               -2.18606116
              16.09720841                8.34488203               68.06098519                0.00010000                2.13800759               -0.14357072               -3.35162469               -5.67861599               16.74414882               -0.98707410
              17.12572690                7.80925148               67.81927948                0.00010000                3.41909204               -0.81570780               -4.98542111               -8.31781513               18.09445422                0.78561505
              18.16559025                7.24147470               67.60466950                0.00010000                4.26315452               -0.75619182               -6.67028569              -10.47587057               19.52725540                2.14487945
              19.21098999                6.64687494               67.42668275                0.00010000                4.66743485                0.10603118               -8.29662501              -11.78731730               21.92937172                2.59539260
              20.25893895                6.03351691               67.30411596                0.00010000                4.84345117                1.03832945               -9.78743852              -12.77424865               29.39664013                1.72061332
              21.30785901                5.40004002               67.32399340                0.11596979                2.56775994                1.70450604              -10.32627797               -6.68009334               18.23158353                0.00444272
              22.31029415                4.89019639               66.96176517                0.72234272                0.24351355                1.19009428               -6.33091964               -0.40298133                3.58710462               -0.29758952
              12.52212126               11.19816491               69.34846503                0.91191622               -0.00229937               -0.11265511                0.34680088               -0.03394578               -0.01214786                0.58001933
              13.52209826               10.75356505               68.91121039                0.38469543                0.09146014                0.09978390               -0.31976515                0.10724631                0.10722907               -0.25450196
              14.52395046               10.31068072               68.47618961                0.00010000                0.73157389                0.26548699               -0.78986727               -0.49315865                7.12840289               -1.01786270
              15.53672974                9.85338465               68.17934206                0.00010000                1.67356772                0.43882076               -1.19117344               -2.82855210               15.82918083               -4.25006137
              16.55742181                9.34544117               67.92180479                0.00010000                2.92596550               -0.08327601               -2.96658707               -6.43905801               18.43354543               -2.87260685
              17.59524905                8.80455972               67.68957444                0.00010000                4.43140767               -0.47979090               -5.18386007               -8.05771431               19.07842627               -0.69450643
              18.64604997                8.23657730               67.47562198                0.00010000                5.37731591               -0.42394638               -6.95250418               -9.18810336               19.11858890                0.86814476
              19.70279537                7.64742292               67.28456843                0.00010000                5.92072848               -0.04650539               -8.33279046               -9.88101219               20.02834239                1.81623096
              20.76446454                7.04132236               67.13693135                0.00010000                5.71065432                0.41519512               -9.42852842              -10.30637981               25.61180685                2.63517851
              21.81700846                6.41470491               67.10654700                0.15569502                2.77685921                1.01950106               -6.60895320               -5.73946549               15.26658492                0.38132880
              22.82000172                5.89691963               66.74292916                0.76314707                0.29932654                0.33203579               -3.13613165               -0.35894562                1.68931480               -0.09467159
              12.96518305               12.19709135               69.22074810                0.91736850                0.05382862               -0.08648101                0.20396879               -0.05605388               -0.00445376                0.57594109
              13.96572134               11.75492616               68.77955220                0.44432010                0.13610521                0.17300703               -0.53033695                0.05006765                0.23401308               -0.19123905
              14.96790515               11.31382614               68.34303870                0.00010000                1.29569613                0.35276887               -0.97821673               -0.84156161                6.17109155               -0.60232784
              15.99163526               10.85381738               68.02042038                0.00010000                2.46735140               -0.59451316                3.01294841               -2.88894714               16.45822454               -5.12709872
              17.01725218               10.34321651               67.76824395                0.00010000                4.09006104               -0.78007923               -2.55280019               -5.81295426               20.36788328               -3.34559633
              18.07343648                9.79965566               67.54689626                0.00010000                6.08563991               -0.69672442               -5.31228222               -6.73493916               20.08970699               -1.21332926
              19.13896498                9.23299577               67.33205973                0.00010000                6.75941020               -0.39795652               -7.27792619               -7.32654443               18.73835660                0.44947050
              20.20862468                8.64594483               67.13082930                0.00010000                7.32821906               -0.11774003               -8.53094531               -7.96760466               18.88739306                1.81454254
              21.28552936                8.04182081               66.96968052                0.00010000                6.44238734               -0.21471867               -9.07589740               -8.77554120               22.96359569                3.21091277
              22.33747243                7.42043004               66.89235228                0.22794236                2.65782186                0.39314571               -2.39971840               -4.97363111               13.46886138                0.47069279
              23.33868580                6.89683711               66.52558332                0.83710959                0.12133684               -0.03548127               -0.53729045               -0.20922931               -0.00957814                0.00115535
              13.40533057               13.19643529               69.09278300                0.84233596                0.10342582               -0.04075303                0.06884006               -0.07198707                0.10288838                0.48690451
              14.40636483               12.75702519               68.64863742                0.44480650                0.14487162                0.25970283               -0.80901405               -0.01453658                0.62297847               -0.12497566
              15.40822800               12.31773610               68.21471985                0.00010000                2.15978026                0.41446604               -1.15234210               -1.84888800                5.69360694               -0.21777400
              16.44956043               11.84149439               67.87193077                0.00010000                4.35482270               -2.75577272                4.11107352               -2.14658521               16.86552492               -3.45583435
              17.49532446               11.32983958               67.61935911                0.00010000                6.06052872               -1.72159849               -2.21140310               -3.44247513               21.32670320               -2.50168701
              18.57077101               10.79062523               67.39963871                0.00010000                7.89527241               -1.27551051               -5.44892955               -3.86576211               20.01449654               -0.83661805
              19.65322990               10.22861817               67.18057069                0.00010000                8.19236137               -0.57523613               -7.61602467               -4.25843541               17.71076784                0.26137081
              20.73461823                9.64506812               66.96889524                0.00010000                8.06192988               -0.07219899               -8.80936555               -5.15285158               17.33223749                1.43566245
              21.81446850                9.03702799               66.79324560                0.00010000                6.39506516                0.05073446               -8.72317456               -6.36162976               20.37621534                2.66135789
              22.86251954                8.42256783               66.67565030                0.30221872                2.42672541                0.16768340               -0.79761371               -4.43810897               12.04400525                0.43824716
              23.86300301                7.89621001               66.30726955                0.90660528                0.04834723               -0.03501578               -0.05122232               -0.06263249               -0.25142282                0.02366652
              13.84256351               14.19627629               68.96339234                0.90990885                0.15662811               -0.01589941               -0.06738454                0.10768622                0.35786347                0.40021147
              14.84412979               13.76012021               68.51798959                0.73789076                0.19473410                0.30950282               -1.10048276                0.06845478                1.11068190               -0.07598975
              15.84645819               13.32211546               68.08748546                0.51931912                4.62351411                0.43793609               -1.28130430               -4.24789532                6.47771484               -0.01385802
              16.93660007               12.79870193               67.75058047                0.36528015                7.64068236               -4.27924607                3.62988887               -1.96258226               18.63963685               -3.22826476
              17.99927184               12.30878454               67.48133303                0.36082826                8.03712901               -2.10550466               -2.32185167               -0.83308588               19.71215802               -0.79715350
              19.09734265               11.77414545               67.25431791                0.36398319               10.00407720               -1.64797853               -5.64836926               -1.70751004               17.98051256               -0.23564423
              20.19935338               11.22149105               67.02174733                0.37457226                9.99075916               -0.71271238               -7.85959558               -1.86988189               14.70337532                0.34749845
              21.29715784               10.64450085               66.79162046                0.39315733                9.07218402               -0.05672705               -9.11913145               -2.67881719               13.68201435                1.09484148
              22.38079706               10.04283550               66.59509927                0.42043756                4.61851987                0.58075128               -9.19923463               -4.40300093               17.17587120                2.18135139
              23.38952823                9.42378371               66.45639687                0.66194800                0.46758656                0.12158843               -0.76921370               -4.63406588               11.36393887                0.54703920
              24.39014879                8.89613679               66.08757443                0.96019569                0.06205608               -0.00732145               -0.20858411               -0.05011369                0.02533203                0.03701827
               9.78821402                4.34922220               71.25408252                1.00000000               -0.33667804               -0.40045155                1.40069426               -0.11399145               -0.40573889                0.52356710
              10.78484724                3.89040851               70.83969972                1.00000000               -0.25627684               -0.22099937                0.82231885               -0.08551526               -0.48910633                0.06305535
              11.78308849                3.43112449               70.42298620                1.00000000               -0.09496180               -0.04690896                0.25163479               -0.08588038               -0.50104570               -0.06697852
              12.78294801                2.97101730               70.00827793                0.60857705                0.02296224                0.13760471               -0.33016170               -0.15672894               -0.43446677               -0.41813141
              13.78354773                2.50889320               69.59335502                0.46684345                0.13367982                0.35201102               -0.94068205               -0.20478869               -0.31537291               -0.29464398
              14.78562160                2.04464331               69.18183190                0.22184239               -0.37919820                0.53639783               -1.59285727               -0.98581816                0.49294315               -0.58315568
              15.77596377                1.56352056               68.78442145                0.00010000              -10.20381122                1.41898515               -2.10402060              -18.94617751               12.94308555               -1.81397705
              16.58154538                0.71400684               68.62940377                0.00010000              -10.00196031                3.60073265               -3.34782490              -18.65327487               23.51631303                2.93461253
              17.57592456               -0.12185803               68.40231137                0.00010000                7.28673228                0.12971215               -3.30964861              -16.34863518               17.93382578                4.07283980
              18.72728003               -0.94815709               68.11490129                1.00000000                7.80005223                0.81586053               -1.50427055              -14.89809378                6.93294166                0.04334697
              19.73192561               -1.48658510               67.68774947                1.00000000                0.46455810                0.99084106               -1.99801939                0.32303647               -0.05135751               -0.05501254
              10.24588780                5.34521768               71.12461833                1.00000000               -0.28468502               -0.37317346                1.24105190               -0.02242042                0.03396163                0.73864997
              11.24304094                4.88819852               70.71003682                1.00000000               -0.19812535               -0.19954887                0.66280413                0.00367430                0.11033178                0.09036653
              12.24192529                4.43065540               70.29639619                1.00000000               -0.02722904               -0.02529616                0.08757700                0.00299842                0.14369271               -0.26144566
              13.24249636                3.97239335               69.88249542                0.63478880                0.13807772                0.15126689               -0.48715436               -0.04513941                0.31886651               -0.40657447
              14.24468684                3.51241331               69.47295470                0.56855443                0.29766901                0.34472719               -1.13399216               -0.07531001                0.43248796               -0.28207013
              15.24844974                3.05000729               69.06248380                0.33894821                0.35666918                0.53536326               -1.78146231               -0.49301776                0.64356343               -0.49512629
              16.25182023                2.57771041               68.65904153                0.00010000               -0.53739093                1.02506493               -2.46724927              -17.74946164               14.48898458               -0.95998144
              17.23770193                1.75001417               68.52875620                0.00010000               -0.41500254                0.92612569               -4.78739599              -27.23366140               23.00299178                5.79723379
              18.24352018                0.87943909               68.28385830                0.00010000                1.14803471                3.69274481               -7.20188820              -26.22442460               11.65394258               11.40762696
              19.26066262                0.06000152               67.92202717                0.23221157                1.50319028                2.36815147               -3.80590936              -15.48706371                3.33010705               -0.22623336
              20.27358398               -0.47667669               67.49491650                1.00000000                1.29213612                1.62038998               -4.33232900                0.13241367                0.05125688               -2.61293884
              10.70180394                6.34175873               70.99856187                1.00000000               -0.23209318               -0.31247960                1.07154653               -0.02499842                0.18321214                0.86448078
              11.69948301                5.88641753               70.58059584                1.00000000               -0.14251595               -0.15716677                0.50030884               -0.00053817                0.38394859                0.00615591
              12.69895362                5.43061857               70.16614175                0.00010000                0.04021501                0.02509677               -0.07439153               -0.01722519                0.86034244               -0.71674567
              13.70028731                4.97404264               69.75780735                0.00010000                0.27369855               -0.46482915               -0.63582792               -0.87906058                1.38383767                1.11713173
              14.70442759                4.51578774               69.35443031                0.00010000                0.50884198               -1.04486350               -1.30072628               -1.53219046                1.37059663                3.34623730
              15.71046415                4.05535057               68.94730590                0.00010000                0.82700292               -2.21096013               -1.95133100               -2.15143080                1.58020644                6.78171740
              16.72096765                3.58402185               68.55031056                0.00010000                1.23396598               -6.43631965               -2.63768921              -20.03325973               19.37273199               13.36023804
              17.73514347                2.73252936               68.50141370                0.00010000                1.02405341                0.17308227               -6.57547006              -33.77266431               31.05745006               11.09212373
              18.74144872                1.95199686               68.34159887                0.00010000                1.92555279                7.19060717              -12.90157627              -35.66067912                4.30898929               16.67822885
              19.77365453                1.09920594               67.72528435                0.00010000                3.32407835               18.34211140              -26.15419120              -25.52390306               -9.45892304               47.86405085
              20.80793029                0.54582270               67.25285301                0.12673889                3.42757623               22.27433913              -29.42457424               -8.35203577               -3.45860418               55.49104936
              11.15607021                7.33896809               70.87093594                1.00000000               -0.18998712               -0.24533576                0.90446354               -0.02511546                0.29217603                0.70578014
              12.15417034                6.88505518               70.44902618                0.47687582               -0.10572679               -0.11831001                0.34027599                0.01959979                0.49566321               -0.36838171
              13.15395568                6.43115734               70.03074020                0.00010000               -0.72121829                0.08128836               -0.21944535               -0.66748866                3.21823695               -1.19068770
              14.13974598                5.96309677               69.66350850                0.00010000               -1.06102889               -0.71058314               -0.63154997               -2.25968087                6.30002547                2.16391982
              15.13273510                5.49151604               69.30821236                0.00010000               -0.12794802               -2.01181402               -1.69507847               -3.56904900                7.95714347                5.94590019
              16.13718702                5.00578808               68.97578223                0.00010000                2.06205744               -4.65261467               -2.87070691               -7.51112067               12.25745036               11.60850807
              17.17397625                4.44898401               68.71380537                0.00010000                2.85433069               -9.44155505               -4.64576662              -17.35873488               18.49476549               19.08068494
              18.19427363                3.75347582               68.51831008                0.00010000               -0.51731206                1.68684552               -7.91961649              -26.08410812               23.42737448               12.42702590
              19.16363001                3.02325123               68.36976270                0.00010000               -1.89574555                9.03852733              -14.90283888              -22.05568045               49.02356268               15.52696723
              20.15635872                2.42684375               68.74129924                0.05981702                2.48398685               21.76980959              -47.80014635               -8.66646975               44.82105773               52.44395220
              21.21330974                1.96881010               68.45720723                0.65106449                5.69510256               24.26048917              -50.05112241               -2.55906302               22.67387973               56.67531511
              11.60912745                8.33685201               70.74131537                0.91112064               -0.14416868               -0.17912523                0.74980096               -0.01155220                0.04170287                0.58466696
              12.60768576                7.88405133               70.31191915                0.32235913               -0.07825906               -0.08815806                0.18046153                0.08496533                0.50155606               -0.54458817
              13.60756227                7.43224433               69.89139304                0.00010000               -0.64753850                0.08371863               -0.37043037               -0.84902180                5.31863740               -1.63462950
              14.59473499                6.95983098               69.55879727                0.00010000               -0.86034845               -0.15444341               -1.21281475               -2.08856107               10.32439648                0.89620095
              15.59035530                6.47555146               69.24250389                0.00010000                0.40193858               -1.31222736               -2.27003469               -3.69098710               12.26151642                3.65640927
              16.60277376                5.96229828               68.95486295                0.00010000                1.78749641               -3.27190935               -3.65636104               -7.40315706               15.20428419                6.76670190
              17.62610522                5.39519075               68.70848707                0.00010000                1.82101640               -3.54762381               -5.54282354              -14.04746146               19.28264041                8.28880712
              18.63919409                4.76626627               68.51977668                0.00010000                0.04309781                1.54297301               -8.62697245              -17.63768809               25.60357800                9.25920555
              19.62696718                4.13276741               68.42738310                0.00010000                0.77860884                7.99895869              -15.49911627              -14.06268886               46.07182938               11.16214531
              20.65476627                3.53460213               68.69302383                0.01830577                2.29245730                8.82318401              -29.36390243               -5.16831689               36.22140237               -0.85471896
              21.67281633                3.03103249               68.36146624                0.62436970                1.80500605                5.21837676              -26.17210445               -0.89821499               13.90995230               -1.49833431
              12.06144053                9.33538558               70.61111181                0.90360711               -0.09631989               -0.13798246                0.60404400               -0.02318430                0.00776869                0.57478695
              13.06047733                8.88329202               70.17657829                0.30392292               -0.01224642               -0.04521431                0.02603647                0.10712566                0.26850118               -0.40569847
              14.06119560                8.43283171               69.74699563                0.00010000               -0.29048501                0.07475643               -0.50007708               -0.85637315                6.66854932               -1.70107497
              15.05466763                7.96000790               69.44101532                0.00010000               -0.23737714                0.11610344               -1.51111834               -2.37160508               13.22537991               -0.52644354
              16.05644805                7.46527149               69.14897913                0.00010000                0.74084784               -0.66992619               -2.69409230               -4.38638001               14.63072396                1.10674822
              17.06948458                6.94034990               68.88082286                0.00010000                1.63054891               -1.46898026               -4.13748769               -7.56065099               16.69574006                2.75701268
              18.08905903                6.37803154               68.64534910                0.00010000                1.72293138               -0.95925158               -5.97761793              -11.05469380               19.57731560                4.02146333
              19.10394321                5.78433528               68.45751149                0.00010000                1.24906653                1.60089851               -8.68904490              -12.56262040               24.07823148                4.51402991
              20.11404036                5.18323041               68.34217532                0.00010000                2.53920467                3.91374056              -12.92021349              -10.43938724               35.03449697                3.80178868
              21.15472730                4.60330743               68.41540578                0.00010000                4.42221884                4.83867903              -24.45278340               -5.93804092               26.86291549               -7.83952908
              22.20248474                4.07317763               68.11892919                0.57542975                4.77574356                3.78636130              -22.15756567                0.01313621               14.82702115               -5.72309716
              12.51285089               10.33409236               70.48137471                0.91552035               -0.04687383               -0.12559402                0.46559668               -0.03287314               -0.00940198                0.61253020
              13.51238215                9.88314705               70.04199922                0.31676712                0.04340185                0.02235365               -0.14431561                0.09450982                0.16723920               -0.34354501
              14.51371892                9.43373946               69.60596969                0.00010000                0.12404777                0.14514105               -0.66410471               -0.88195241                7.31674330               -1.39957418
              15.51486310                8.96215305               69.30990214                0.00010000                0.42833864                0.24652053               -1.56069750               -2.59052890               14.78101980               -1.79032053
              16.52228570                8.46215294               69.03074902                0.00010000                1.19687953               -0.12680042               -2.80962291               -4.84532096               16.11432464               -0.97390705
              17.53880070                7.93291868               68.77298251                0.00010000                1.93701367               -0.41481340               -4.36707788               -7.16469403               17.49964668                0.30545556
              18.56102597                7.37600572               68.54111033                0.00010000                2.19710590                0.05126633               -6.15520117               -9.07297263               19.10654386                1.35209567
              19.58274281                6.79828424               68.34338041                0.00010000                1.90906570                1.27427053               -8.32692357               -9.79722915               21.78703400                1.76340658
              20.59920728                6.21104222               68.20077864                0.00010000                3.16577042                2.44267962              -11.50452718               -9.04632186               26.76861663                1.40265184
              21.64605822                5.63137572               68.13711560                0.00010000                6.70656776                1.58932809              -22.01532565               -5.49424333               19.52293512               -0.19249921
              22.73333864                5.10675971               67.84336594                0.57212811                8.72804180                1.96614738              -20.42727759               -2.05448702               13.01109035               -0.33665870
              12.96267369               11.33287370               70.35196439                0.92222668                0.00467300               -0.11119775                0.33307847               -0.04496127               -0.01068358                0.65441133
              13.96272042               10.88373909               69.90784938                0.33663133                0.09384282                0.09521476               -0.33545307                0.06389395                0.19598088               -0.31891220
              14.96455055               10.43573453               69.46775491                0.00010000                0.58615746                0.26282249               -0.87941969               -0.97579992                7.49214419               -1.15610131
              15.97444357                9.96493831               69.16966520                0.00010000                1.21127281                0.18739924               -1.10238041               -2.66497498               15.41318244               -2.72273723
              16.98877601                9.46273548               68.89502055                0.00010000                1.89471734               -0.04773193               -2.53957126               -4.75932141               17.10200987               -2.25608820
              18.01233792                8.93205363               68.64264712                0.00010000                2.67290058               -0.06594575               -4.38541760               -6.40804977               18.00023756               -1.08426569
              19.04223402                8.37905686               68.41033580                0.00010000                3.03121046                0.34942947               -6.21928197               -7.39278350               18.50894138                0.04688013
              20.07296213                7.80982069               68.20297055                0.00010000                2.88942155                1.05395988               -8.12213214               -7.64098753               19.59080486                0.86600123
              21.10002245                7.23208400               68.03435738                0.00010000                3.80814091                1.73893952              -10.67883349               -7.74238473               25.23622468                1.16037260
              22.14912495                6.63509399               67.98543965                0.00010000                5.53022777                0.49081148              -18.96710156               -4.16525975               18.73007064                7.54549709
              23.21062700                6.11250058               67.68339281                0.58977383                6.15020575                0.33089434              -17.27894024               -3.80528822               11.30463808                5.84250201
              13.41022088               12.33186841               70.22292542                0.92773301                0.05783207               -0.08014213                0.20194478               -0.06096393               -0.00076059                0.67917836
              14.41079920               11.88505134               69.77390247                0.37059075                0.13914142                0.17266880               -0.56021309                0.03072298                0.36025341               -0.31713989
              15.41300371               11.43899591               69.33205884                0.00010000                1.18817239                0.39668592               -1.17794119               -1.29126993                7.50552928               -0.77855104
              16.43456265               10.96590103               69.02590301                0.00010000                2.34901189               -0.30603437               -0.18793584               -2.73919224               15.46079553               -2.57387969
              17.45998395               10.46119830               68.75036148                0.00010000                2.98778339               -0.53026790               -1.90798661               -4.00564477               17.85297632               -2.50158600
              18.49431832                9.93159976               68.49951749                0.00010000                3.77096479               -0.20734178               -4.31281513               -4.94579167               18.20068010               -1.46776859
              19.53540324                9.38299431               68.26505320                0.00010000                4.12888052                0.32386640               -6.25471871               -5.45383799               17.82953184               -0.32805297
              20.57689593                8.81936344               68.04934593                0.00010000                4.18415216                0.92893478               -8.04096488               -5.61510545               17.89919786                0.84592378
              21.61908629                8.24582101               67.86459674                0.00010000                5.27202582                1.17886219              -10.21627787               -6.50277696               24.93348077                2.18803187
              22.68233645                7.64119194               67.84889366                0.02876105                4.16667027                0.61680747              -15.87661678               -3.07687659               17.65974020                7.14470088
              23.70241969                7.11337760               67.51490174                0.62560561                2.00832474                0.14108622              -13.80281707               -2.05670159                7.37797802                4.90958837
              13.85508854               13.33127086               70.09369829                0.84820755                0.11188338               -0.03896603                0.07348446               -0.06584279                0.07057318                0.61411429
              14.85620738               12.88719247               69.63998913                0.33068867                0.13934589                0.26363253               -0.83855752                0.01489831                0.83609053               -0.31399708
              15.85787546               12.44366825               69.20154323                0.00010000                2.06249808                0.52848388               -1.42973553               -2.09060764                7.79410726               -0.37707824
              16.89745734               11.95881762               68.88699851                0.00010000                4.25444595               -1.45526530                0.30130239               -2.34393079               15.20641720               -1.48814082
              17.94296438               11.45213013               68.60613052                0.00010000                4.70843671               -1.30027710               -1.52821470               -2.31748038               17.72098309               -1.61437808
              18.99162607               10.92790679               68.35246110                0.00010000                5.12146008               -0.64138612               -4.18537594               -2.63012922               17.64077568               -1.04808250
              20.04539358               10.38553419               68.11218513                0.00010000                5.31036222                0.06065517               -6.21216262               -2.91247496               16.50642603               -0.26665338
              21.09783332                9.82839938               67.88659892                0.00010000                5.13724086                0.76965364               -7.91727047               -3.26860794               16.08950873                0.68934769
              22.14813840                9.25566124               67.69129586                0.00010000                6.10987541                1.31186918               -9.87444675               -4.92370054               23.05916115                2.36774888
              23.22003083                8.64743014               67.66200793                0.07050379                3.84916309                0.59242427              -13.15020566               -3.41481850               15.24735607                4.93680667
              24.22512166                8.11532230               67.30603491                0.66608469                0.50908351                0.17130510              -10.39191445               -0.42488735                3.95661979                4.11423056
              14.29706081               14.33108909               69.96307593                0.91164018                0.16389738               -0.01817743               -0.05153361                0.12071711                0.33177126                0.55330514
              15.29869978               13.89032399               69.50630725                0.66509329                0.12527983                0.31315235               -1.11378081                0.17306561                1.51143776               -0.32448130
              16.29956641               13.44956559               69.07312297                0.44511722                4.02611870                0.58973423               -1.57540299               -3.50731905                8.29777135               -0.17651782
              17.37922216               12.93679573               68.75388791                0.36498061                7.24893813               -2.20218966               -0.32787602               -2.54215988               14.58407963                0.16902232
              18.44454517               12.43519276               68.46933999                0.36082025                6.45447549               -1.69373677               -1.45236235               -0.74310563               16.78359262               -0.63558584
              19.50831167               11.91877204               68.20689771                0.36369514                6.60579945               -0.91347560               -4.00854754               -0.88070787               15.70523880               -0.30081534
              20.57666116               11.38420741               67.95424944                0.37377828                6.65425268               -0.13267781               -5.83887318               -1.07401904               13.55731018                0.09922375
              21.64139672               10.83475651               67.71040901                0.39114271                6.24601813                0.63571265               -7.35640641               -1.25111077               12.00124632                0.84226542
              22.70158152               10.27205840               67.49078273                0.41688365                5.64911465                1.63971531               -9.23793993               -3.74149191               18.73261167                2.04352540
              23.75437901                9.65304043               67.44365214                0.54510582                2.82780467                0.56102919              -12.63969841               -4.32791603               13.73047437                6.40262650
              24.75813761                9.11680370               67.08413481                0.84135589                0.37586001                0.14813973              -10.09510276               -0.32207769                2.53141795                6.41217018
              10.20148718                4.48465176               72.26729024                1.00000000               -0.30369919               -0.35600687                1.24247428               -0.09546613               -0.39631375                0.51209647
              11.19845019                4.02148224               71.84761039                1.00000000               -0.23751325               -0.20503550                0.76033877               -0.06907113               -0.47700476                0.06022667
              12.19673692                3.55787679               71.42566243                1.00000000               -0.10400271               -0.05837774                0.28319730               -0.06987689               -0.49009082               -0.06477352
              13.19637013                3.09350394               71.00562459                0.61434816               -0.00830652                0.09491156               -0.20213822               -0.13628450               -0.43883018               -0.39930628
              14.19657079                2.62728429               70.58514337                0.46530029                0.08123623                0.27210496               -0.70549587               -0.18223391               -0.34949062               -0.29889681
              15.19799486                2.15915761               70.16766851                0.20524896               -0.59979206                0.41802514               -1.24675833               -1.09349796                0.52219136               -0.57231535
              16.18457494                1.67186643               69.76587573                0.00010000               -9.20632306                1.44902589               -1.61820711              -17.19452580               12.75838238               -1.95938676
              17.01386840                0.85127729               69.60028599                0.00010000               -8.46865527                2.64821707               -2.68679767              -16.71548824               23.96292227                2.67885697
              18.01520184                0.04739573               69.37229588                0.00010000                7.10865098               -0.93734657               -2.86852331              -13.84240616               19.33209882                3.12864430
              19.15604142               -0.74272155               69.10058457                1.00000000                7.32064395                0.63336061               -1.71721396              -12.92750105                7.90168056               -0.27717806
              20.16161472               -1.28207971               68.66888627                1.00000000                0.55733004                0.77206082               -2.12108973                0.23000896                0.04049352               -0.42266098
              10.66370203                5.48109169               72.13630946                1.00000000               -0.25550710               -0.33373352                1.09833540               -0.01845062                0.03408472                0.72255439
              11.66114696                5.01943189               71.71643205                1.00000000               -0.18373667               -0.18605131                0.61633525                0.00573344                0.11130031                0.08606758
              12.66002730                4.55729301               71.29752112                1.00000000               -0.04217122               -0.03874461                0.13663189                0.00360682                0.14748316               -0.25853825
              13.66030354                4.09445305               70.87836687                0.66281594                0.09471559                0.10487278               -0.34014697               -0.04164876                0.29315822               -0.38235421
              14.66192161                3.63000534               70.46294382                0.58587783                0.22326354                0.26505539               -0.87281536               -0.07316512                0.37584635               -0.27196719
              15.66476881                3.16333786               70.04656573                0.33711727                0.23241173                0.41992743               -1.41017773               -0.52325628                0.56926699               -0.47247169
              16.66656985                2.68635669               69.63677834                0.00010000               -0.29099717                0.97676611               -1.99836999              -16.47834827               13.58389384               -0.99961881
              17.65894886                1.87775946               69.48359634                0.00010000                0.36036752                0.22690104               -4.19259648              -25.19201943               21.93377387                5.59503085
              18.67377720                1.03802227               69.22640741                0.00010000                1.62776317                1.20937166               -4.87734711              -22.03880166               13.29151108                8.26798006
              19.69150413                0.26361206               68.88351028                0.74763117                1.47478845                0.19926884               -3.24664091              -11.72921108                4.66991434               -2.11959200
              20.70327296               -0.27435910               68.45114707                1.00000000                1.17688369                0.28270097               -3.69250119               -0.11878413               -0.17930509               -2.52012178
              11.12443777                6.47797708               72.00865281                1.00000000               -0.20742329               -0.28448974                0.94728823               -0.02187963                0.17981548                0.84696020
              12.12236353                6.01776122               71.58545402                1.00000000               -0.13249406               -0.14735221                0.47060449               -0.00066745                0.37819326                0.00160151
              13.12178789                5.55710189               71.16573451                0.00010000                0.02306467                0.00739245               -0.00873948               -0.02414150                0.86186707               -0.70561809
              14.12282483                5.09560139               70.75229170                0.00010000                0.22173953               -0.52393091               -0.46940733               -0.88787157                1.34627528                1.12233395
              15.12622268                4.63258540               70.34285076                0.00010000                0.41767768               -1.08541741               -1.02034374               -1.51716290                1.29048111                3.24169186
              16.13117838                4.16755616               69.92976777                0.00010000                0.71818508               -2.22653899               -1.56384005               -2.15269467                1.48303593                6.45395343
              17.14058638                3.69140176               69.52630034                0.00010000                1.35920254               -6.23842177               -2.17291065              -19.05613093               17.85125198               12.51614129
              18.15836243                2.85581531               69.44265179                0.00010000                2.39934147               -0.44141599               -5.78598537              -33.00576426               26.87427588               10.89368559
              19.18857321                2.07158317               69.19660804                0.00010000                3.77380660                5.17322409              -12.80864204              -34.72725852                4.25936567               15.20473477
              20.23383856                1.26126383               68.63028470                0.07061944                2.33040692                8.77809564               -4.62789911              -21.75562512               -5.29019781               25.90410036
              21.23518135                0.72357431               68.19304419                0.64707535                0.13427820                7.77668633               -2.89357134                2.31862997               -0.58983337               27.27483406
              11.58369618                7.47540189               71.87945179                1.00000000               -0.16873757               -0.22893952                0.79863314               -0.02650718                0.28838084                0.70097031
              12.58200880                7.01648484               71.45236507                0.45133170               -0.09959430               -0.10855079                0.32614759                0.00688364                0.49363538               -0.37472049
              13.58170429                6.55744086               71.02896585                0.00010000               -0.74731006                0.06880533               -0.13974386               -0.70656823                3.19660368               -1.18144570
              14.56706260                6.08397443               70.65610563                0.00010000               -1.10403512               -0.74705193               -0.70584500               -2.29460424                6.19679808                1.97206514
              15.55962359                5.60829699               70.29247429                0.00010000               -0.20820218               -2.01493393               -1.49531318               -3.57327426                7.73076751                5.68982298
              16.56289856                5.11880708               69.94939421                0.00010000                1.87822420               -4.50947224               -2.53594313               -7.43628594               12.01174651               10.94020273
              17.59718807                4.56158826               69.67007487                0.00010000                2.78768045               -9.01021333               -4.30584473              -17.11444953               17.84427706               17.85739632
              18.61865217                3.86893114               69.44016965                0.00010000               -1.17022834                1.57766069               -7.82627990              -26.14590962               22.88971974               11.57408342
              19.57378351                3.14148675               69.24531251                0.00010000               -0.71258425                8.67889662              -12.85359529              -28.94464849               25.52462368               17.14378180
              20.60440048                2.43917397               69.00744386                0.00010000               12.56205436               20.83404805              -65.97979150              -20.06694665               19.81633378               31.10511206
              21.82502459                1.88117463               68.58799350                0.58243249               22.06241125               22.40109182              -73.70630181               -5.31062834                7.86308189               33.17245010
              12.04174172                8.47339829               71.74838883                0.91710903               -0.12794809               -0.17226469                0.66240467               -0.01867229                0.03075500                0.59879092
              13.04046224                8.01559020               71.31369113                0.29995807               -0.07873957               -0.07760979                0.17557456                0.05867044                0.50060781               -0.55412435
              14.04016693                7.55847800               70.88807455                0.00010000               -0.71928158                0.07990438               -0.29342547               -0.90203103                5.22588287               -1.65362410
              15.02607661                7.08066035               70.54811750                0.00010000               -1.01211914               -0.21082338               -1.01695230               -2.17902084               10.13197060                0.69543413
              16.01992455                6.59228672               70.22144998                0.00010000                0.15423946               -1.30472850               -2.02277107               -3.74528277               12.04613179                3.31353174
              17.02916140                6.07736671               69.92038527                0.00010000                1.41243902               -3.04562546               -3.37280391               -7.41224685               15.08426621                6.15631739
              18.04817333                5.51119749               69.65553422                0.00010000                1.31921737               -3.10405566               -5.36996806              -13.95688641               19.06921752                7.50191866
              19.05554575                4.88736852               69.43300741                0.00010000               -0.43679600                2.15240169               -8.73453946              -18.46831097               25.01792422                8.45946448
              20.03943741                4.24516110               69.27570793                0.00010000                1.86330045                9.08546246              -17.38164975              -13.36484998               33.83811957                9.05778153
              21.09281176                3.67794479               69.18421910                0.00010000               10.27650275               17.02792355              -43.79315696               -5.50855949               26.38192171               12.29199616
              22.24496746                3.17159615               68.86930609                0.51222358               15.21557079               19.77907402              -46.67141027               -6.99270978               17.22853835               16.37294441
              12.49893892                9.47195660               71.61683098                0.91257521               -0.08364169               -0.13279087                0.53341836               -0.02822222                0.00253364                0.60963858
              13.49810250                9.01493265               71.17683165                0.28020323               -0.01727019               -0.04008577                0.02887140                0.07310688                0.28194220               -0.42662363
              14.49859352                8.55903895               70.74218003                0.00010000               -0.42145195                0.06438192               -0.45714875               -0.96608647                6.52364558               -1.77538854
              15.48967347                8.07975797               70.42738583                0.00010000               -0.52909700               -0.00378358               -1.28153760               -2.45526607               12.94926401               -0.58573550
              16.48801158                7.58220242               70.12415001                0.00010000                0.30346932               -0.64621270               -2.39081106               -4.26867072               14.38362285                0.88786912
              17.49574285                7.05789457               69.84167501                0.00010000                1.00184783               -1.19151917               -3.85281877               -7.32490760               16.59239815                2.29078205
              18.50804853                6.49950714               69.58753936                0.00010000                0.97897419               -0.38337898               -5.86750734              -10.83827467               19.58543187                3.28488350
              19.51532234                5.91197917               69.36913163                0.00010000                0.39308538                2.46577439               -9.15978055              -12.23972684               24.32651667                3.66383870
              20.51591024                5.32319600               69.20763534                0.00010000                2.62359543                6.21133939              -15.19767809               -8.55540252               28.70397651                2.64367050
              21.56779424                4.77973244               69.06455042                0.00010000                9.09787184                7.41056861              -32.21497941               -4.17606149               20.84267127               -1.39327977
              22.69786768                4.27675611               68.73927995                0.48763984               13.00734342                7.37017268              -35.50062045               -4.64524231               12.60939152               -0.68189791
              12.95522518               10.47074248               71.48580469                0.92683084               -0.03831486               -0.11270890                0.40886925               -0.03546529               -0.01180660                0.66800577
              13.95484203               10.01478848               71.04055646                0.28952511                0.03973510                0.01754524               -0.13438724                0.05740069                0.19392956               -0.38819111
              14.95601988                9.55976564               70.59926874                0.00010000               -0.05171096                0.12152992               -0.65671517               -1.04098965                7.26561466               -1.54567399
              15.95380781                9.08058468               70.29578037                0.00010000                0.01973246                0.15855370               -1.37116207               -2.61744416               14.51678861               -1.57535207
              16.95641453                8.57936247               70.00479274                0.00010000                0.57753570               -0.07477379               -2.51508719               -4.42899233               15.71363064               -0.91812937
              17.96535853                8.05353633               69.73193792                0.00010000                1.04543506               -0.07775682               -4.03673159               -6.58184289               17.26566673               -0.04024852
              18.97732323                7.50352991               69.48156547                0.00010000                1.08519137                0.70324407               -6.00170131               -8.44977407               19.28594271                0.63707771
              19.98706235                6.93668401               69.26014428                0.00010000                1.16264293                2.33991288               -8.75611578               -8.94372339               22.08110184                0.87426974
              21.00057609                6.36938789               69.07402541                0.00010000                3.43340326                3.87578549              -13.83446367               -6.98590842               23.98229229                0.32235837
              22.05573042                5.82615616               68.88368689                0.00010000                7.87195959                3.70521808              -24.31611004               -3.78040463               16.80211585               -0.26186831
              23.15801528                5.31899960               68.55321961                0.48486162               10.22848638                3.27388797              -28.00033623               -3.09963074                9.02325540                0.84723450
              13.41013760               11.46970242               71.35512660                0.93467642                0.00897553               -0.09007273                0.28344736               -0.04245882               -0.00959700                0.72501178
              14.41022736               11.01528355               70.90450133                0.30253025                0.09199630                0.08275653               -0.31471857                0.03590382                0.22970672               -0.39373458
              15.41197753               10.56146954               70.45860121                0.00010000                0.37502000                0.23505835               -0.90897525               -1.11795956                7.68341977               -1.39545334
              16.41772776               10.08292904               70.15729445                0.00010000                0.72512797                0.22108957               -1.29695604               -2.60109374               15.27598969               -2.05727970
              17.42648009                9.58070695               69.87101337                0.00010000                1.11053976                0.13561734               -2.39079724               -4.11534536               16.41317000               -1.90915079
              18.43993855                9.05633943               69.60186609                0.00010000                1.47126421                0.34749893               -3.99063702               -5.48675453               17.45715723               -1.30091244
              19.45590537                8.51357202               69.35123634                0.00010000                1.53256690                1.05277319               -5.90167927               -6.45790290               18.53001162               -0.68157099
              20.47058989                7.95877743               69.12212578                0.00010000                1.54072766                2.12754616               -8.34627625               -6.64287833               20.25461846               -0.30729044
              21.48671992                7.40071171               68.92335468                0.00010000                3.59922748                2.96275404              -12.43421216               -6.04327339               21.76152245                0.43588943
              22.54257444                6.85383680               68.72720496                0.00010000                8.17341286                3.02998153              -24.02180522               -3.69230121               15.22421583                3.84173069
              23.65018818                6.34223387               68.39735036                0.49045564               10.76137421                2.66935820              -27.19858524               -1.34959823                9.05365415                5.22383378
              13.86321374               12.46894102               71.22478700                0.93928784                0.05792437               -0.05676763                0.15354059               -0.04860313               -0.00178746                0.75935397
              14.86379298               12.01644361               70.76834794                0.32264842                0.14007312                0.15284552               -0.51811737                0.02700619                0.37475978               -0.43438362
              15.86601520               11.56446681               70.31947988                0.00010000                0.93777759                0.38304306               -1.25266724               -1.31569550                8.05168960               -1.07621582
              16.88254853               11.08500647               70.01666166                0.00010000                1.73410149                0.04088142               -1.13887752               -2.55091337               15.61980691               -1.95872468
              17.90069723               10.58207481               69.73008421                0.00010000                2.01049111               -0.10667163               -2.12138937               -3.33593625               16.61888350               -2.02084591
              18.92275836               10.06048631               69.46063996                0.00010000                2.25149728                0.29719661               -3.78467801               -3.99480418               17.25779595               -1.61941045
              19.94572718                9.52458537               69.20696535                0.00010000                2.21533724                1.02584198               -5.69985817               -4.39680695               17.56636032               -1.07031944
              20.96706510                8.97923493               68.97001000                0.00010000                1.94620372                1.95072847               -7.95493707               -4.46173024               18.69951145               -0.43188490
              21.98465125                8.42864297               68.76535496                0.00010000                3.66485678                2.87426349              -11.44949467               -3.94781729               20.16253238                0.85614920
              23.04036224                7.88675579               68.57481995                0.00010000                8.47889677                3.63543405              -24.74010771               -2.30515216               13.45218165                5.68019522
              24.15422919                7.37238677               68.24952698                0.50273186               11.38669495                3.35138432              -26.06115111               -1.24224010                9.17335319                7.83972653
              14.31416035               13.46856707               71.09425268                0.85493595                0.10813430               -0.01769529                0.02105939               -0.04653353                0.05191959                0.70637707
              15.31524170               13.01834046               70.63186627                0.25899917                0.14702028                0.22753597               -0.74371489                0.05409258                0.87690866               -0.46543569
              16.31710076               12.56913041               70.18612514                0.00010000                1.69298932                0.54794035               -1.54059612               -1.78880190                8.62284926               -0.67484060
              17.34910148               12.08374667               69.87795682                0.00010000                3.35903852               -0.83514493               -1.13817624               -2.05203871               15.62314965               -1.21918179
              18.38428153               11.57857351               69.58879482                0.00010000                3.42152127               -0.62104613               -1.87945166               -2.01133176               16.35439099               -1.29934399
              19.41753191               11.06228336               69.31593119                0.00010000                3.24695377               -0.06151859               -3.49706560               -2.03525162               16.50358512               -1.14434516
              20.44922060               10.53408886               69.05632744                0.00010000                2.98828905                0.73807665               -5.33324695               -2.16151289               16.15755878               -0.81787405
              21.47729769                9.99779200               68.81054983                0.00010000                2.55110582                1.72455293               -7.42213129               -2.11537558               16.67034076               -0.30501909
              22.50024272                9.45819698               68.59575666                0.00010000                3.77149552                2.80446446              -10.68437082               -1.68457999               18.50769168                0.92144392
              23.55272760                8.92654548               68.41264618                0.00010000                7.69193540                5.08960170              -23.39419365               -0.92560101               12.29765327                5.12367249
              24.65408143                8.40926155               68.09943126                0.51827667               10.13538296                4.78968224              -23.30150691               -1.44926181                8.81188208                7.30806173
              14.76273628               14.46858712               70.96236167                0.91367383                0.15752176                0.00200494               -0.10777304                0.09831431                0.33492100                0.66073459
              15.76431150               14.02099433               70.49571397                0.62073401                0.10483389                0.26538723               -0.95865023                0.24890483                1.66887521               -0.50179682
              16.76483296               13.57542561               70.05597740                0.39845244                3.38765778                0.62952081               -1.78816684               -2.86131821                9.50210063               -0.57941446
              17.83206465               13.06830357               69.74402294                0.36481966                5.85504717               -1.54430940               -1.11407014               -1.99226925               15.41784876               -0.33444054
              18.88193390               12.56965389               69.45228578                0.36088726                4.72366610               -0.89196238               -1.72535017               -0.68714500               15.67382836               -0.38969489
              19.92653797               12.05925593               69.17414696                0.36355382                4.25271924               -0.30274310               -3.04299524               -0.61474263               15.10936804               -0.41739910
              20.96698828               11.53934691               68.90496986                0.37294560                3.70557505                0.52580416               -4.53127557               -0.49972914               13.79775711               -0.24661833
              22.00064947               11.01372599               68.64449233                0.38922332                2.76089419                1.59339922               -6.11788000               -0.39555382               13.21825052                0.08799107
              23.02220617               10.48473226               68.41034047                0.41323823                3.50680844                2.65352785               -8.67480319                0.93743637               13.89880453                1.01638427
              24.07078564                9.98854782               68.20360290                0.47090803                6.88028203                6.20023421              -20.87133893                0.97821200                8.95627528                4.90951053
              25.15981181                9.46818041               67.88567237                0.76367055                8.90261657                5.89188571              -20.69855196               -1.46370342                5.85125501                7.07588406
              10.61964746                4.62142569               73.27893200                1.00000000               -0.27124980               -0.31194931                1.08780925               -0.07791250               -0.39084907                0.50429254
              11.61693496                4.15396972               72.85490650                1.00000000               -0.21874952               -0.18934841                0.69929163               -0.05366936               -0.47026575                0.05818825
              12.61527247                3.68611165               72.42865015                1.00000000               -0.11222487               -0.06990952                0.31357573               -0.05439026               -0.48436293               -0.06280680
              13.61469047                3.21754661               72.00423517                0.62067655               -0.03792366                0.05325508               -0.07807663               -0.11522966               -0.44188154               -0.38194228
              14.61451400                2.74731435               71.57924510                0.46467973                0.03212999                0.19522211               -0.47993227               -0.15811122               -0.37519790               -0.30132986
              15.61533307                2.27540256               71.15689674                0.18983005               -0.80000310                0.30560395               -0.91590187               -1.17258749                0.57380439               -0.56413912
              16.59851394                1.78252760               70.75205730                0.00010000               -8.04746947                1.47658299               -1.15732407              -14.92660820               12.56222631               -2.11616470
              17.45438368                1.00096328               70.57566782                0.00010000               -6.81229882                1.85857132               -2.41650282              -14.26532360               23.86649260                2.14715425
              18.46226796                0.23249180               70.34494090                0.00010000                6.71697856               -1.20052737               -2.71889108              -11.30891678               20.05121439                2.81219587
              19.58872325               -0.51955206               70.08055701                1.00000000                6.69320575                0.74616065               -2.29694990              -10.54278721                8.46806507               -0.26113079
              20.59613207               -1.05955993               69.64532768                1.00000000                0.74088265                0.83228804               -2.59209498               -0.14156529                0.05768486               -0.38650976
              11.08632431                5.61830620               73.14658504                1.00000000               -0.22690150               -0.29350484                0.95824707               -0.01547774                0.03310271                0.71155495
              12.08405530                5.15207624               72.72236353                1.00000000               -0.16920915               -0.17265872                0.56993349                0.00682791                0.11068411                0.08318960
              13.08294013                4.68541255               72.29912883                1.00000000               -0.05592378               -0.05250889                0.18346837                0.00418674                0.15076338               -0.25616653
              14.08293682                4.21807916               71.87569249                0.69172382                0.05323918                0.06019781               -0.19780535               -0.03699414                0.27576909               -0.35920216
              15.08400491                3.74926657               71.45549839                0.60394622                0.15318731                0.18883837               -0.62332976               -0.06867061                0.33315943               -0.26247476
              16.08600057                3.27845860               71.03428024                0.33563327                0.12312914                0.30993035               -1.05622699               -0.53154537                0.50069445               -0.45434752
              17.08646749                2.79729343               70.61907413                0.00010000                0.03738869                0.92602797               -1.55340188              -14.61574332               12.73171579               -1.06402289
              18.08674834                2.01954899               70.44490427                0.00010000                1.14844845               -0.35667601               -3.49772718              -21.44346489               21.28808072                5.04685750
              19.10943646                1.22048653               70.18631136                0.00010000                2.12864500                0.23473292               -3.66034857              -17.74521459               14.11947355                5.57007117
              20.12932124                0.48790954               69.85709435                1.00000000                1.26439103                0.64532124               -2.06668688               -9.45162002                5.51613383               -0.32469807
              21.13472428               -0.05123704               69.42106648                1.00000000                0.54030438                0.70164431               -2.33866115               -0.19053033               -0.20059470               -0.53960682
              11.55179784                6.61555560               73.01750764                1.00000000               -0.18326619               -0.25273605                0.82417261               -0.01955640                0.17628945                0.83619276
              12.54996517                6.15051655               72.59000793                1.00000000               -0.12222739               -0.13762901                0.43949461               -0.00102178                0.37301834               -0.00136798
              13.54935329                5.68506147               72.16596696                0.00010000                0.00656964               -0.01120816                0.05333150               -0.02794634                0.86732098               -0.69710101
              14.55009657                5.21875056               71.74841920                0.00010000                0.17039295               -0.56834451               -0.30904064               -0.83668364                1.32034946                1.07052411
              15.55276115                4.75109111               71.33402344                0.00010000                0.32893661               -1.12766437               -0.75321285               -1.35462199                1.22560700                3.06619749
              16.55667530                4.28160116               70.91602910                0.00010000                0.61737641               -2.22419817               -1.19268761               -1.81110756                1.38486310                6.02393854
              17.56510867                3.80104816               70.50685235                0.00010000                2.28229907               -6.01976843               -1.72509483              -16.70762755               16.12846602               11.49871195
              18.60232128                2.99382976               70.38569399                0.00010000                3.69472206               -1.24735659               -5.50839062              -28.68898263               23.32653146                9.99947221
              19.63900312                2.23718646               70.08542603                0.00010000                3.45465703                3.32702280               -8.77399608              -25.15317948                7.28699377               13.69757730
              20.67141442                1.49335436               69.63272637                1.00000000                1.58057636                0.35510226                0.04246184              -10.10151676               -0.79476869                0.51189704
              21.67061464                0.95447296               69.19498159                1.00000000               -0.07997772                0.36171227               -0.00878051               -0.15074828               -0.06114554                0.29687430
              12.01601128                7.61325148               72.88690860                1.00000000               -0.14822937               -0.20534769                0.69214525               -0.02577765                0.28507377                0.70244426
              13.01452899                7.14932366               72.45554913                0.43036223               -0.09320488               -0.10071442                0.30992362               -0.00080364                0.49273093               -0.38136642
              14.01414719                6.68518839               72.02794532                0.00010000               -0.71777447                0.04481049               -0.06694799               -0.71555610                3.12559649               -1.18126788
              15.00017350                6.20671227               71.64939160                0.00010000               -1.00426582               -0.81455508               -0.63248507               -2.22863525                6.06445349                1.85607799
              15.99406187                5.72671328               71.27830610                0.00010000               -0.01760648               -2.04723707               -1.36857044               -3.32443106                7.51999673                5.33375827
              16.99982137                5.23397463               70.92506336                0.00010000                2.30122395               -4.42286686               -2.39586600               -6.80578337               11.54227734               10.19171433
              18.04008635                4.67689806               70.62768847                0.00010000                3.85045069               -8.66417601               -4.30800417              -15.48070043               16.57501183               16.40704074
              19.07683038                3.99460186               70.36178449                0.00010000                3.33809605                0.63319124               -7.62635155              -23.64067466               20.56461682               11.00582309
              20.10684827                3.28702698               70.11269080                0.00010000                6.65870093                5.72068733              -14.49799684              -29.30377543                4.71218664               14.53946751
              21.21000440                2.49501159               69.42170341                0.00010000                5.13119241               11.49905731              -29.21630887              -20.68188330               -4.26590659               22.57899424
              22.20947212                1.95599720               68.98308120                0.53375448               -0.05322855               12.63659782              -30.17352470               -5.07151492               -2.71648413               25.94892960
              12.47913793                8.61144864               72.75456346                0.92547396               -0.11257350               -0.15444919                0.57049344               -0.02071023                0.02064475                0.61698084
              13.47801219                8.14850226               72.31543064                0.28261780               -0.07421861               -0.07147164                0.17367638                0.03735831                0.49702758               -0.56663282
              14.47765356                7.68595768               71.88552453                0.00010000               -0.70066131                0.04706778               -0.21623918               -0.95378269                5.09887215               -1.70024597
              15.46399897                7.20245946               71.53845822                0.00010000               -0.93216990               -0.30409744               -0.94211747               -2.21509431                9.88516016                0.55509543
              16.45901016                6.71014637               71.20204847                0.00010000                0.31879420               -1.35135795               -1.92667032               -3.67730873               11.71819926                3.00717134
              17.47037485                6.19314383               70.88740687                0.00010000                1.79286402               -2.96808710               -3.33952196               -7.21299499               14.57306913                5.59446436
              18.49486744                5.62776464               70.60108770                0.00010000                2.45020052               -2.96000548               -5.52990663              -13.67127680               18.21158810                6.80101126
              19.51937886                5.00649358               70.34508590                0.00010000                2.88252196                1.79366596               -9.28354374              -19.13086281               21.06933732                7.74674899
              20.55251788                4.35160021               70.07975010                0.00010000                3.47138375                7.53796743              -17.62257694              -19.86526189               23.82546340                8.05890343
              21.58880654                3.72333551               69.81716069                0.00010000                4.73476202               19.04812290              -31.75167574              -15.72317885               16.40151891               25.01419908
              22.64721312                3.20720492               69.42803804                0.46001878                5.84065816               20.98144753              -37.06339120               -6.82599030                2.85461439               27.98244028
              12.94148985                9.61016250               72.62178017                0.92366412               -0.07227264               -0.11458929                0.45189584               -0.02816325               -0.00125015                0.64264340
              13.94076712                9.14789422               72.17715571                0.26595388               -0.01877590               -0.03943528                0.03969708                0.03758675                0.27568707               -0.44994669
              14.94111433                8.68612974               71.73785266                0.00010000               -0.45421018                0.02235604               -0.39711980               -1.05550802                6.37285195               -1.88273065
              15.93168292                8.20063032               71.41538457                0.00010000               -0.56415011               -0.08610354               -1.18135015               -2.53838522               12.65151210               -0.64340780
              16.92983133                7.69968612               71.10116291                0.00010000                0.31301436               -0.66096881               -2.29853380               -4.23134127               14.00346328                0.72700060
              17.93794321                7.17461289               70.80376649                0.00010000                1.17398637               -1.06105969               -3.84993557               -7.25108664               16.13634645                1.94627893
              18.95331106                6.61769795               70.52799895                0.00010000                1.62171765               -0.13571729               -6.12557149              -11.02333425               18.83886315                2.80511147
              19.97037756                6.03047518               70.27431587                0.00010000                1.96950251                2.81409476               -9.81024600              -13.36927836               21.91394090                3.07096572
              20.99270111                5.43778633               70.03822176                0.00010000                3.47792780                7.50849218              -16.72906616              -12.58542443               22.82051579                3.68376286
              22.03993612                4.87597405               69.77110619                0.00010000                5.62561924               12.00741466              -26.11794963               -7.40301909               15.51913278                1.71152971
              23.10521349                4.37562615               69.40891678                0.45218219                6.52773760               12.92145416              -29.75811600               -3.65853051                6.07711407                2.60789958
              13.40311121               10.60915686               72.48955209                0.93993847               -0.03145257               -0.08854335                0.33446362               -0.03220797               -0.01268461                0.70960155
              14.40279668               10.14771355               72.03931148                0.27519044                0.03480475                0.00893476               -0.10719189                0.01603813                0.18175796               -0.42870171
              15.40380730                9.68640480               71.59283539                0.00010000               -0.15608992                0.07422936               -0.60081115               -1.13323360                7.15665930               -1.71523199
              16.39967488                9.20073739               71.28247890                0.00010000               -0.17032719                0.11405541               -1.32095165               -2.68047563               14.25863976               -1.50279471
              17.40040076                8.69692700               70.98044728                0.00010000                0.38332029               -0.02125663               -2.44998308               -4.30891597               15.30095545               -0.90315012
              18.40734129                8.17192263               70.69224788                0.00010000                0.90688531                0.13602256               -4.03125207               -6.42809085               16.83779994               -0.24555705
              19.41853847                7.62505029               70.42107630                0.00010000                1.22818112                1.11638086               -6.22889547               -8.49418284               18.77839320                0.23443045
              20.43190491                7.06277548               70.16825810                0.00010000                1.83860280                3.16669910               -9.56676321               -9.38608213               20.67945896                0.42211720
              21.45531052                6.50177005               69.92408937                0.00010000                3.55007119                5.58429515              -15.00711486               -8.09095329               20.34037193                0.04111820
              22.50290634                5.96348380               69.65079340                0.00010000                5.97138879                7.24107486              -21.91792889               -4.82292898               13.28372148               -0.44764761
              23.57473830                5.46563400               69.28335921                0.45132853                7.18319615                7.25218701              -25.20852726               -2.47518949                5.86083199               -0.09537159
              13.86373230               11.60839163               72.35763334                0.94796906                0.01076456               -0.06137284                0.21257505               -0.03426941               -0.00720000                0.76734391
              14.86383995               11.14807292               71.90155501                0.28637435                0.08467618                0.06425859               -0.26351603                0.00137678                0.19868096               -0.45162914
              15.86542582               10.68761433               71.44957541                0.00010000                0.18556316                0.17714343               -0.84301399               -1.16225085                7.68638364               -1.65342503
              16.86755121               10.20291143               71.14372608                0.00010000                0.35209716                0.26633885               -1.37236502               -2.58368876               15.15477673               -1.91086056
              17.87246777                9.69926099               70.84720460                0.00010000                0.68534428                0.30364675               -2.42213736               -3.87977622               15.96339532               -1.76404974
              18.88125809                9.17733334               70.56283438                0.00010000                1.00533938                0.66119072               -3.96381471               -5.19918064               16.99999771               -1.42932705
              19.89257455                8.64002557               70.29230221                0.00010000                1.23390321                1.57232662               -6.04186503               -6.23511166               18.23234814               -1.12429450
              20.90593616                8.09380916               70.03604502                0.00010000                1.87995818                2.97631085               -8.99347000               -6.49808492               19.37841426               -0.90124366
              21.93017372                7.54947224               69.78567313                0.00010000                3.68387136                4.43859821              -13.88599270               -5.53985773               18.66319609               -0.48081493
              22.97961359                7.02079554               69.50500355                0.00010000                6.06177916                5.29354139              -20.56532394               -3.22503081               12.07175798                0.29891070
              24.05140930                6.52066989               69.13942110                0.45312471                7.17957157                5.12286108              -23.86555576               -1.92584518                5.09271505                1.48541723
              14.32306324               12.60792940               72.22599623                0.95245149                0.05382781               -0.02839507                0.08517248               -0.03469445               -0.00215743                0.79816919
              15.32360152               12.14899873               71.76354012                0.30255844                0.13302704                0.12224043               -0.43012842                0.00257080                0.28885192               -0.50976137
              16.32572378               11.68994767               71.30700550                0.00010000                0.63764659                0.30297879               -1.15006656               -1.20592414                8.19359823               -1.38319247
              17.33635445               11.20606417               71.00312546                0.00010000                1.13297689                0.20806394               -1.38472588               -2.36241450               15.72414039               -1.85311462
              18.34838332               10.70299993               70.70793369                0.00010000                1.31193244                0.23403432               -2.28349706               -3.06538290               16.20581310               -1.88414927
              19.36259310               10.18514645               70.42382393                0.00010000                1.44885476                0.70897746               -3.73310757               -3.67980214               16.76475968               -1.73431467
              20.37736041                9.65649682               70.15105604                0.00010000                1.49517235                1.55733171               -5.67543273               -4.07465907               17.42831125               -1.54663410
              21.39249655                9.12230169               69.89024719                0.00010000                2.00832852                2.70037556               -8.33345036               -4.00400281               18.11703001               -1.28130005
              22.41752698                8.59054201               69.63560685                0.00010000                3.73557591                3.98161896              -13.06448015               -3.34624539               17.49632109               -0.49251432
              23.46720806                8.06935463               69.35409150                0.00010000                5.94728565                5.01625480              -20.10605393               -1.98775445               11.38706692                0.84737149
              24.53647270                7.56809122               68.99367872                0.45716415                6.92646335                5.23341273              -23.57589179               -1.30734846                4.44552725                2.42807681
              14.78089976               13.60782373               72.09411947                0.86332421                0.09733324                0.00782040               -0.04710005               -0.03103052                0.04692538                0.74504498
              15.78187310               13.15051773               71.62511483                0.23276474                0.16710679                0.17969682               -0.59862420                0.03551053                0.76632580               -0.54636595
              16.78424190               12.69367391               71.17073131                0.00010000                1.26887791                0.41625527               -1.41562202               -1.39346814                8.92895128               -1.04073542
              17.80725065               12.20707270               70.86423499                0.00010000                2.39179645               -0.40447508               -1.39484075               -1.74079639               16.01500174               -1.27527544
              18.83207783               11.70394168               70.56854149                0.00010000                2.34572523               -0.12914999               -2.09146993               -1.80227069               16.12856912               -1.24207197
              19.85416516               11.19151289               70.28251979                0.00010000                2.09241483                0.44230355               -3.37504481               -1.87738120               16.19101413               -1.23080176
              20.87392612               10.67117220               70.00552020                0.00010000                1.88228764                1.27466873               -5.11224088               -1.93928494               16.30094028               -1.17094176
              21.89181091               10.14781667               69.73815630                0.00010000                2.11348756                2.31648175               -7.48455194               -1.70865047               16.57992645               -0.99815581
              22.91619588                9.62910461               69.47760844                0.00010000                3.52491884                3.63382237              -11.87256212               -1.18879885               15.86076218               -0.45408909
              23.96230929                9.12112064               69.19412405                0.00010000                5.57966337                4.99812934              -19.38210951               -0.64009571               10.40287496                0.53372706
              25.02778914                8.62533815               68.84000478                0.46232441                6.54798552                5.88739740              -23.43819599               -0.85069585                4.33374872                2.10087981
              15.23705463               14.60808581               71.96092046                0.91669541                0.14069218                0.02620813               -0.17473776                0.06617187                0.33929491                0.70085935
              16.23846155               14.15259266               71.48713425                0.60429703                0.21224064                0.20749332               -0.75827167                0.16819375                1.52194988               -0.57945404
              17.24129944               13.69827277               71.03735964                0.37866966                2.64046006                0.45988666               -1.73700571               -2.02514547               10.11382108               -1.09161732
              18.29127075               13.19797466               70.73160651                0.36450472                4.32991378               -0.90980394               -1.26915359               -1.49078211               16.14615229               -0.41851630
              19.32789772               12.70041693               70.43483298                0.36096312                3.32720980               -0.35247437               -1.80902167               -0.61711832               15.82905036               -0.48641679
              20.35781495               12.19399252               70.14603780                0.36338626                2.71866083                0.24796266               -2.84718474               -0.55635759               15.39492430               -0.51536149
              21.38227094               11.68199020               69.86362393                0.37209436                2.12880873                1.08179973               -4.19204338               -0.43357837               14.90970970               -0.53423029
              22.40039112               11.16863133               69.58805141                0.38732478                1.90880526                2.08146579               -5.96967941               -0.08056562               14.59359423               -0.50414327
              23.42044704               10.66321846               69.31728667                0.40968879                2.88907475                3.41138473               -9.51609075                0.45941070               13.72727832               -0.17869446
              24.45817262               10.16931722               69.02622536                0.44061032                4.52883634                4.81965758              -15.87737410                0.71736846                8.53261969               -0.73996223
              25.51102377                9.68583917               68.67016377                0.73303316                5.28511485                6.05010243              -19.70104125               -0.02434210                2.97686487                0.95435881
              11.04172121                4.75943152               74.28904643                1.00000000               -0.23944868               -0.26843761                0.93730533               -0.06136808               -0.38835727                0.49914282
              12.03932672                4.28773194               73.86159622                1.00000000               -0.20001139               -0.17376969                0.63897571               -0.03939774               -0.46754912                0.05674180
              13.03772098                3.81566330               73.43193394                1.00000000               -0.11945846               -0.08104272                0.34193568               -0.03981134               -0.48261800               -0.06084500
              14.03693755                3.34295046               73.00406306                0.62771988               -0.06578618                0.01345173                0.04046150               -0.09442912               -0.44474836               -0.36517362
              15.03640526                2.86875111               72.57554472                0.46462896               -0.01394059                0.12263954               -0.26607285               -0.13295374               -0.39551233               -0.30234383
              16.03665874                2.39310782               72.14935047                0.17551399               -0.96784331                0.20107274               -0.60315039               -1.20725910                0.64398643               -0.55949799
              17.01704839                1.89550949               71.74272925                0.00010000               -6.91720469                1.47716936               -0.72421570              -12.51484347               12.16688472               -2.30583558
              17.89831465                1.15574746               71.55195593                0.00010000               -5.28557313                1.29229709               -2.29251126              -11.81467819               23.20277297                1.58244984
              18.91133693                0.42089874               71.31791806                0.00010000                6.33506486               -1.19601732               -2.69779380               -9.57435047               20.00925008                2.11273913
              20.02501595               -0.30101885               71.05464557                1.00000000                6.09450761                0.59675874               -2.56874872               -8.90373829                8.70522117               -0.05478908
              21.03322708               -0.84128751               70.61704437                1.00000000                0.82111363                0.64823605               -2.75157316               -0.21789169                0.00902932               -0.08576932
              11.51280711                5.75674715               74.15547440                1.00000000               -0.19902546               -0.25270704                0.82147053               -0.01320239                0.03138635                0.70389975
              12.51081686                5.28599424               73.72783072                1.00000000               -0.15467519               -0.15918441                0.52348218                0.00717910                0.10900043                0.08122780
              13.50971361                4.81485287               73.30119048                1.00000000               -0.06837515               -0.06599581                0.22696157                0.00463923                0.15372108               -0.25386501
              14.50944936                4.34308498               72.87441077                0.72065600                0.01417167                0.01811526               -0.06258674               -0.03187890                0.26401708               -0.33615635
              15.50999704                3.86997751               72.45047723                0.62180919                0.08788026                0.11752648               -0.38906872               -0.06233877                0.30085285               -0.25371147
              16.51120696                3.39511854               72.02544119                0.33499412                0.02915454                0.20719952               -0.72333038               -0.51541666                0.43545547               -0.44066499
              17.51058013                2.91028119               71.60571031                0.00010000                0.31331417                0.86260775               -1.12873596              -12.50028442               11.98483228               -1.16326227
              18.51747324                2.16867043               71.41364180                0.00010000                1.66982244               -0.84114640               -2.79465984              -17.66689446               20.50491995                3.89892726
              19.54397658                1.40893857               71.15320043                0.00010000                2.47992210               -0.08717313               -2.98432707              -14.38889630               14.94156510                3.71683496
              20.56707169                0.70494874               70.84217654                1.00000000                1.36701189                0.39557811               -1.43605562               -8.01860125                6.36598643               -0.07808258
              21.57131682                0.16519485               70.40437385                1.00000000                0.42451342                0.43922935               -1.57882582               -0.16434229               -0.01955993               -0.15077281
              11.98296297                6.75437738               74.02513626                1.00000000               -0.15983899               -0.21760964                0.70253733               -0.01743952                0.17260747                0.82888699
              12.98136458                6.28454825               73.59424391                1.00000000               -0.11199689               -0.12797186                0.40723102               -0.00120791                0.36809367               -0.00304620
              13.98072303                5.81434338               73.16680114                0.00010000               -0.00946215               -0.02974726                0.11128247               -0.02876691                0.87550423               -0.69089613
              14.98117534                5.34331276               72.74611088                0.00010000                0.12009413               -0.60139995               -0.15769011               -0.73501003                1.30270935                0.97121920
              15.98312492                4.87110164               72.32778651                0.00010000                0.24356955               -1.15151941               -0.50388857               -1.08531216                1.17407198                2.79808687
              16.98604673                4.39725181               71.90591402                0.00010000                0.51829480               -2.19274748               -0.84271932               -1.25926123                1.28805391                5.43582202
              17.99349081                3.91276165               71.49179844                0.00010000                3.01363256               -5.73937361               -1.28964265              -13.84701088               14.30937730               10.16978451
              19.04631938                3.13892454               71.33248397                0.00010000                4.68949449               -1.95073704               -4.76598722              -23.30687198               20.56196494                8.24037573
              20.08728070                2.41915528               71.02112812                0.00010000                3.10341262                1.45067313               -5.11831948              -18.39500456                9.23940159                8.07873810
              21.10838763                1.70689271               70.63113394                1.00000000                1.10836490                0.06853977               -0.25619592               -8.50189658                2.35650169               -0.01074138
              22.10944800                1.16749708               70.19286858                1.00000000                0.10603668                0.09509573               -0.31597213               -0.10843704                0.05767456               -0.09106610
              12.45211659                7.75239496               73.89329470                1.00000000               -0.12898843               -0.17555235                0.58523426               -0.02315058                0.28181528                0.70472786
              13.45082670                7.28343481               73.45856354                0.41685645               -0.08714134               -0.09486446                0.29243763               -0.00299454                0.49024868               -0.38591797
              14.45037376                6.81425793               73.02762689                0.00010000               -0.64179034                0.01111793                0.00092421               -0.69920349                3.01147416               -1.18631617
              15.43799089                6.33105698               72.64345593                0.00010000               -0.80110004               -0.87717378               -0.56108944               -2.06151364                5.81989570                1.66741937
              16.43435176                5.84694712               72.26510288                0.00010000                0.31854175               -2.07641530               -1.27681484               -2.87892116                7.10096674                4.86349621
              17.44436173                5.35126359               71.90147689                0.00010000                2.88077143               -4.33494669               -2.31537032               -5.79582925               10.53242293                9.20787549
              18.49196719                4.79549372               71.58391478                0.00010000                5.02902238               -8.29272081               -4.22711158              -13.01863217               14.44897622               14.67701999
              19.54494218                4.12965569               71.28764262                0.00010000                5.80705648               -0.45762109               -7.10819246              -20.27954861               14.73590431                9.44333835
              20.60810832                3.43795203               70.95535257                0.00010000                5.18748872                3.08264657              -11.61953733              -23.33724922                3.86139209               10.92420444
              21.64869195                2.70631953               70.42311769                0.00010000                1.99155120                6.09666406                0.28560902              -15.33443484               -4.64783575               16.74737969
              22.64793934                2.16709677               69.98452300                0.47816345               -0.07526111                6.89561440                0.26620380               -5.37942336               -0.01146191               17.57828602
              12.92042026                8.75086634               73.75979869                0.93606730               -0.09785386               -0.12870607                0.47596068               -0.01922469                0.01202219                0.62997030
              13.91944172                8.28265096               73.31716466                0.27461785               -0.06517328               -0.06909647                0.17386500                0.02082321                0.48754141               -0.57651301
              14.91911679                7.81456574               72.88374976                0.00010000               -0.60929241               -0.00922233               -0.13889250               -0.97168660                4.90702239               -1.76252825
              15.90725587                7.32576929               72.52927515                0.00010000               -0.68884577               -0.40939235               -0.90557688               -2.17949184                9.46376002                0.42587725
              16.90533988                6.82957334               72.18291658                0.00010000                0.71638387               -1.43017447               -1.91527283               -3.49346249               11.04615646                2.68726604
              17.92158355                6.31055287               71.85359483                0.00010000                2.46930957               -2.96422267               -3.38202673               -6.76970485               13.39506174                5.01497356
              18.95472607                5.74690723               71.54493608                0.00010000                3.83432732               -2.99364692               -5.59710851              -12.92357669               15.70143084                6.13608658
              19.99827010                5.12977211               71.24733654                0.00010000                4.45729056                1.02852966               -9.17504784              -18.38314269               16.13220410                7.03207239
              21.04387188                4.48080821               70.92325639                0.00010000                3.71420510                5.72899802              -13.59027461              -21.67620967               12.95988575                9.63443538
              22.07255420                3.82882599               70.54918559                0.00010000                1.82165893               13.70053961              -20.11137895              -15.83044576                7.25279828               20.02558056
              23.08030506                3.30540937               70.12803827                0.44490871                0.77508612               15.32480767              -22.02654798               -7.54919070                1.56537550               21.95894424
              13.38816284                9.74982083               73.62586890                0.93720397               -0.06190784               -0.08924951                0.36450269               -0.02517263               -0.00322441                0.66178795
              14.38754376                9.28205288               73.17762560                0.26190336               -0.01705691               -0.04179041                0.05618474                0.00024110                0.24960897               -0.46733608
              15.38782170                8.81407348               72.73423763                0.00010000               -0.40751494               -0.04137452               -0.31578225               -1.11574481                6.13566706               -1.99560593
              16.37939346                8.32286913               72.40375883                0.00010000               -0.40613880               -0.17910038               -1.15750617               -2.58085021               12.15794066               -0.68941294
              17.37969893                7.81834363               72.07817934                0.00010000                0.61201369               -0.71577851               -2.32150497               -4.17826055               13.26165971                0.59603403
              18.39163374                7.29197914               71.76467630                0.00010000                1.72887432               -1.04977901               -3.94833030               -7.14104512               14.95626114                1.71208811
              19.41427641                6.73562078               71.46502793                0.00010000                2.58723061               -0.14959887               -6.30458840              -10.97990199               16.66573300                2.54212306
              20.44337835                6.15022629               71.17292671                0.00010000                3.06269168                2.68125458               -9.83094530              -14.18602101               17.53586996                3.31169776
              21.47553025                5.55253199               70.87305402                0.00010000                3.20517642                7.09753338              -15.00555586              -14.44598102               16.10378978                4.80557538
              22.50748188                4.98033032               70.54219142                0.00010000                3.41292642               12.72399263              -20.27466140               -9.46791313               10.02940546                6.66365659
              23.54378877                4.47359292               70.14411763                0.44362906                3.63068968               14.05892404              -23.03937612               -4.18397826                4.36331603                7.61893296
              13.85545272               10.74908135               73.49249396                0.95501996               -0.02588239               -0.06078378                0.25305634               -0.02724844               -0.01228012                0.72915228
              14.85519390               10.28181515               73.03841262                0.27770945                0.02664615               -0.00152776               -0.06955931               -0.03139766                0.13902106               -0.45532968
              15.85598564                9.81373825               72.58725252                0.00010000               -0.19125900                0.00787258               -0.48672809               -1.19577208                6.92276768               -1.84229067
              16.85136872                9.32218728               72.26936134                0.00010000               -0.16604931                0.05980698               -1.31073717               -2.73399247               13.79591683               -1.47342540
              17.85266466                8.81525777               71.95579307                0.00010000                0.50583921               -0.02020472               -2.50340166               -4.28446135               14.58666704               -0.88083327
              18.86148550                8.28955729               71.65131288                0.00010000                1.21081128                0.20988531               -4.15471817               -6.40676757               15.79209663               -0.29533375
              19.87688088                7.74391526               71.35698757                0.00010000                1.80764814                1.27428080               -6.46614808               -8.65474021               17.03015600                0.18369909
              20.89763846                7.18339721               71.06880902                0.00010000                2.39836702                3.42685885               -9.79999064               -9.98737364               17.57597051                0.58012849
              21.92484822                6.62275888               70.77388311                0.00010000                3.22482697                6.35229692              -14.26583178               -9.22981439               15.76084406                0.84998070
              22.96213500                6.08330584               70.44532831                0.00010000                4.26260370                8.80932952              -18.81783029               -5.66956367                9.77372226                0.88040237
              24.01010030                5.58658785               70.04904907                0.44376011                4.79652942                9.40148907              -21.20977455               -2.70086916                4.38262464                1.03862696
              14.32215025               11.74860516               73.35937810                0.96336968                0.01086493               -0.03315390                0.13751159               -0.02677924               -0.00491034                0.78083870
              15.32225890               11.28202232               72.89923101                0.29381381                0.06919396                0.04367074               -0.19790617               -0.05036841                0.12769549               -0.48381959
              16.32353413               10.81423093               72.44174093                0.00010000                0.04675969                0.09544046               -0.66423317               -1.18204327                7.50056923               -1.80484928
              17.32319410               10.32406527               72.12984715                0.00010000                0.15527771                0.26239938               -1.38601872               -2.57784807               14.81874514               -1.84181107
              18.32663969                9.81793954               71.82257062                0.00010000                0.58233992                0.38985871               -2.51439919               -3.82190282               15.34844864               -1.66637833
              19.33484090                9.29617685               71.52258979                0.00010000                1.03510032                0.82786562               -4.10106894               -5.16937215               16.13809233               -1.40399222
              20.34734169                8.76110639               71.23039904                0.00010000                1.49731800                1.82597259               -6.28073764               -6.32120618               16.91841477               -1.16881350
              21.36478726                8.21876346               70.94225638                0.00010000                2.18418123                3.40502262               -9.34391460               -6.71560188               17.03915561               -0.98833009
              22.39102532                7.67957793               70.64563483                0.00010000                3.27371876                5.20492500              -13.42423838               -5.81807067               15.03019589               -0.85079659
              23.43026163                7.15651691               70.31589849                0.00010000                4.60910314                6.56384362              -17.57951408               -3.50292608                9.20100525               -0.63184104
              24.48320738                6.66162270               69.92003924                0.44470113                5.29457505                6.68883882              -20.08812456               -1.79617119                4.24560693               -0.24379747
              14.78808281               12.74841827               73.22649044                0.96763475                0.04779464               -0.00307116                0.01730004               -0.02507493               -0.00190969                0.80272576
              15.78856076               12.28268857               72.75974537                0.31418324                0.11095104                0.08983482               -0.32756383               -0.05368653                0.16568196               -0.54272760
              16.79030183               11.81564706               72.29647854                0.00010000                0.37711971                0.18653132               -0.86333516               -1.11139053                8.07564933               -1.53690382
              17.79610315               11.32743527               71.98896715                0.00010000                0.69065974                0.28474188               -1.41081255               -2.20974408               15.59805208               -1.80774595
              18.80411502               10.82305494               71.68441427                0.00010000                0.94140256                0.44466224               -2.41255711               -2.96961205               15.75266743               -1.78605044
              19.81493120               10.30611460               71.38597781                0.00010000                1.18775587                0.96383054               -3.87212244               -3.65438224               16.14422714               -1.70774317
              20.82787014                9.78043471               71.09345670                0.00010000                1.49618454                1.84978726               -5.87200408               -4.11778680               16.51179942               -1.64593557
              21.84485489                9.25149766               70.80334099                0.00010000                2.14316087                3.06306001               -8.69878387               -4.07783058               16.34269298               -1.57207406
              22.87073336                8.72685738               70.50406536                0.00010000                3.25884073                4.39287272              -12.59430700               -3.32250254               14.28005205               -1.42423938
              23.91003171                8.21458272               70.17269887                0.00010000                4.66159675                5.42846274              -16.74975705               -1.91828102                8.69030534               -1.08342609
              24.96396529                7.72036463               69.77800914                0.44639989                5.39335883                5.65856992              -19.58071858               -1.13243035                4.12932704               -0.61824948
              15.25310815               13.74854373               73.09331068                0.87292774                0.08482280                0.02920276               -0.10768883               -0.02188170                0.04819592                0.74556014
              16.25395638               13.28381902               72.61989379                0.24231358                0.17257352                0.13389219               -0.45200204               -0.04158060                0.60245448               -0.57307786
              17.25655962               12.81796156               72.15781270                0.00010000                0.88174767                0.23447715               -1.06129677               -1.08618128                8.86543404               -1.22536902
              18.27159133               12.32976011               71.85006000                0.00010000                1.60042437               -0.11225324               -1.40579039               -1.48587871               16.11899304               -1.23245651
              19.28856811               11.82683278               71.54696542                0.00010000                1.63910746                0.21438113               -2.23215365               -1.71690285               15.94674318               -1.19678177
              20.30437348               11.31545346               71.24843030                0.00010000                1.55173968                0.78990395               -3.51959401               -1.90081652               15.92775651               -1.21582671
              21.31960290               10.79810214               70.95408262                0.00010000                1.62172459                1.60100609               -5.28931900               -2.00650313               15.92810455               -1.24793056
              22.33680798               10.28002466               70.66085879                0.00010000                2.09436520                2.61776235               -7.81295216               -1.83315116               15.51419932               -1.26180706
              23.36149021                9.76743538               70.35830542                0.00010000                3.07903928                3.74722687              -11.45268807               -1.35470343               13.48690447               -1.23893779
              24.39838876                9.26508617               70.02500399                0.00010000                4.37523743                4.74816280              -15.55110466               -0.70560256                8.21397868               -1.10010939
              25.44899496                8.77479410               69.63066735                0.44889856                5.06061960                5.32924889              -18.80062492               -0.65385720                3.92406184               -0.89672083
              15.71709461               14.74900232               72.95886691                0.92052280                0.12167117                0.04585883               -0.22650343                0.03505458                0.33509747                0.69929289
              16.71831132               14.28536641               72.48054854                0.60406845                0.27712528                0.15473951               -0.57360343                0.00220796                1.26696194               -0.59681448
              17.72263711               13.82033660               72.02123729                0.37396106                1.96015153                0.23750454               -1.33276562               -1.40106133               10.08323202               -1.29323031
              18.75751435               13.32519020               71.71863987                0.36427680                3.07232518               -0.45699038               -1.32255269               -1.05740029               16.64127707               -0.48147979
              19.78408362               12.82734256               71.41610535                0.36096008                2.40655809                0.05097820               -1.99429184               -0.61232528               16.00544830               -0.52737241
              20.80564551               12.32191268               71.11720327                0.36321871                1.95426271                0.64592264               -3.07075281               -0.61718373               15.70669020               -0.57356294
              21.82316887               11.81245483               70.82112900                0.37134454                1.66065557                1.43526909               -4.53192214               -0.54639212               15.41748370               -0.65140570
              22.83885862               11.30385290               70.52509874                0.38545984                1.77044568                2.38282409               -6.61795075               -0.32758089               14.86016509               -0.73068946
              23.85857779               10.80180191               70.22001866                0.40623885                2.48511556                3.43665311               -9.69753378               -0.00658884               12.94672881               -0.91055086
              24.88856094               10.30954597               69.88605542                0.43139089                3.64472491                4.44598041              -13.31698536                0.27460195                7.97395917               -1.06400203
              25.93147228                9.82694960               69.49165155                0.72518649                4.29113484                5.21555014              -16.46668082               -0.01190425                4.15246368               -1.30665981
              11.46678073                4.89855261               75.29767811                1.00000000               -0.20842665               -0.22582447                0.79157305               -0.04583792               -0.38771744                0.49543843
              12.46469647                4.42263556               74.86768601                1.00000000               -0.18137283               -0.15824581                0.57928481               -0.02627158               -0.46740307                0.05569385
              13.46315328                3.94638167               74.43548886                1.00000000               -0.12558728               -0.09136165                0.36738148               -0.02627013               -0.48350821               -0.05874464
              14.46218472                3.46954771               74.00504440                0.63531307               -0.09184713               -0.02395099                0.15186515               -0.07439133               -0.44732105               -0.34831147
              15.46131633                2.99140245               73.57392364                0.46510200               -0.05782280                0.05480991               -0.06494914               -0.10830701               -0.41227138               -0.30296203
              16.46102827                2.51203116               73.14483373                0.16229544               -1.10350823                0.10505975               -0.31000044               -1.20285047                0.72754252               -0.55804021
              17.43924617                2.01044878               72.73757299                0.00010000               -5.88889688                1.45102180               -0.32811712              -10.26779423               11.61320869               -2.52912667
              18.34325033                1.30924054               72.52981759                0.00010000               -3.97414229                0.77589524               -2.06820139               -9.70271921               22.16124874                1.06103745
              19.35976332                0.60418183               72.29098503                0.00010000                6.02255164               -1.25686673               -2.60500462               -8.25054624               19.78555707                1.49320266
              20.46370136               -0.09570978               72.02918204                1.00000000                5.58758689                0.55693023               -2.49985332               -7.82918616                8.87884924               -0.07113276
              21.47151506               -0.63593427               71.59029621                1.00000000                0.78137010                0.58575601               -2.59547812               -0.18010952               -0.00797724               -0.05756657
              11.94223940                5.89629436               75.16301445                1.00000000               -0.17201792               -0.21197829                0.68881189               -0.01142827                0.02922407                0.69777222
              12.94051922                5.42105310               74.73283317                1.00000000               -0.14024499               -0.14563784                0.47705103                0.00696934                0.10656666                0.07980388
              13.93943450                4.94546805               74.30366806                1.00000000               -0.07944035               -0.07872656                0.26632326                0.00491101                0.15638325               -0.25121282
              14.93893041                4.46930820               73.87444075                0.74933181               -0.02214797               -0.02089639                0.06377124               -0.02684145                0.25556384               -0.31283746
              15.93899154                3.99195055               73.44771702                0.63943296                0.02730923                0.05123729               -0.17119849               -0.05516632                0.27486615               -0.24625396
              16.93947660                3.51308175               73.01981363                0.33497226               -0.05140041                0.11253744               -0.41337361               -0.47976890                0.37565854               -0.43074678
              17.93796353                3.02495900               72.59649941                0.00010000                0.49400048                0.78952969               -0.72586034              -10.53010821               11.31743055               -1.29023640
              18.94935661                2.31699950               72.38901107                0.00010000                2.08847454               -1.23020480               -2.18157508              -14.61826317               19.74716673                2.68459144
              19.97973302                1.59161316               72.12662482                0.00010000                2.80554718               -0.37863718               -2.41715786              -12.08810599               15.56961607                2.45739876
              21.00546755                0.90985952               71.82837324                1.00000000                1.51027175                0.39540829               -1.40278334               -6.92936231                7.02963009               -0.08498247
              22.00993846                0.36992329               71.38948996                1.00000000                0.44709070                0.42183804               -1.48551847               -0.15443405                0.00608642               -0.09352529
              12.41703469                6.89431304               75.03155839                1.00000000               -0.13725216               -0.18053777                0.58356365               -0.01549840                0.16872757                0.82231648
              13.41566217                6.41972280               74.59815255                1.00000000               -0.10191441               -0.11842775                0.37423831               -0.00116797                0.36317916               -0.00365924
              14.41499640                5.94480714               74.16819261                0.00010000               -0.02483883               -0.04773034                0.16457505               -0.02716227                0.88489765               -0.68610669
              15.41516539                5.46912978               73.74526540                0.00010000                0.07215277               -0.62059069               -0.01732441               -0.61074624                1.28910566                0.82396909
              16.41643946                4.99242720               73.32394566                0.00010000                0.16295277               -1.15487084               -0.27340540               -0.78895886                1.13178653                2.44311555
              17.41842445                4.51428190               72.89917472                0.00010000                0.41434038               -2.13152153               -0.51736359               -0.70032495                1.20174523                4.70941747
              18.42472626                4.02623937               72.48105950                0.00010000                3.29032251               -5.38290904               -0.86765675              -11.23544239               12.78651447                8.75131314
              19.48423090                3.28463645               72.29037424                0.00010000                5.02074585               -2.41917162               -3.63080048              -18.94381038               18.73812551                6.02856423
              20.52514118                2.59660909               71.98305964                0.00010000                3.12865489                0.58848204               -3.19854385              -15.17850210               10.55841653                5.06504435
              21.54680399                1.91219838               71.62760245                1.00000000                1.15788352                0.10240063               -0.40079527               -7.08484498                4.16206048               -0.02078093
              22.54829885                1.37250249               71.18866214                1.00000000                0.14948570                0.12349752               -0.45766792               -0.14490031                0.01267961               -0.04420325
              12.89110991                7.89268361               74.89861328                1.00000000               -0.11081394               -0.14195946                0.47965409               -0.01931850                0.27811039                0.70425384
              13.89000177                7.41868455               74.46139789                0.41597514               -0.08128150               -0.09064309                0.27392981               -0.00101890                0.48495593               -0.38675006
              14.88948428                6.94451344               74.02796380                0.00010000               -0.54531712               -0.03553805                0.06395645               -0.65505226                2.84996978               -1.19338482
              15.87909543                6.45689639               73.63816981                0.00010000               -0.57120176               -0.92278380               -0.49126906               -1.83591701                5.44454875                1.40427562
              16.87806024                5.96885314               73.25276980                0.00010000                0.62812515               -2.08059815               -1.17218839               -2.36354573                6.46219252                4.25275676
              17.89165793                5.47045132               72.87875596                0.00010000                3.24199500               -4.20190092               -2.14760545               -4.68600940                9.22086327                8.02814537
              18.94290014                4.91730081               72.54314624                0.00010000                5.42263777               -7.84330724               -3.80777143              -10.57035829               11.88986415               12.69617133
              20.00011068                4.26861606               72.21962064                0.00010000                5.28504519               -1.13927520               -5.81586438              -16.72231330               11.71419737                7.54891272
              21.04860105                3.60338280               71.88030005                0.00010000                4.38832849                1.49891891               -6.14335254              -18.59915853                4.39155526                7.71729041
              22.08787725                2.91190753               71.42741559                0.00010000                1.89156010                4.62874996                0.46100208              -12.43564683               -0.66917030                9.41689747
              23.08643225                2.37239324               70.98840527                0.44397326               -0.14450059                5.71433418                0.42010564               -5.32560856               -0.01061424                9.97257752
              13.36464644                8.89147385               74.76408267                0.94922129               -0.08344849               -0.09903071                0.38161940               -0.01628830                0.00502473                0.63341603
              14.36381195                8.41790994               74.31890794                0.28213139               -0.04814607               -0.06925014                0.17452396                0.00056604                0.46997750               -0.58022746
              15.36368352                7.94409637               73.88274668                0.00010000               -0.48522977               -0.08992870               -0.05917427               -0.95128373                4.62612186               -1.81042671
              16.35410736                7.45067411               73.52034668                0.00010000               -0.40349556               -0.50702581               -0.87034610               -2.07382696                8.82267341                0.27271649
              17.35561360                6.95081524               73.16374302                0.00010000                1.10746111               -1.50614156               -1.88308498               -3.21717070               10.04861803                2.31267096
              18.37625658                6.43024389               72.81976634                0.00010000                2.97703757               -2.96573580               -3.29280902               -6.14400481               11.68330272                4.38462636
              19.41515436                5.86937323               72.48914553                0.00010000                4.37230299               -3.04059422               -5.27380151              -11.64588867               12.83757997                5.35403503
              20.46370264                5.26185094               72.16158494                0.00010000                4.73560919                0.33102940               -7.73805592              -16.49137888               11.87897578                6.33557618
              21.50986654                4.62658747               71.80794461                0.00010000                3.26889932                3.99441547               -9.74390028              -18.00832094                8.41340478                7.91512603
              22.52908063                4.00477338               71.41493311                0.00010000                0.54743665               10.05984610              -10.82648008              -12.91074717                4.08036606               14.41526418
              23.52081527                3.48678917               70.98750708                0.44095944               -0.82653526               11.73003861              -11.03768841               -6.68866433                1.41838858               16.02938450
              13.83791196                9.89070299               74.62907023                0.95243255               -0.05213951               -0.06215759                0.27710950               -0.02125268               -0.00341938                0.66446438
              14.83739057                9.41729954               74.17827941                0.27574682               -0.01087616               -0.04541960                0.07456850               -0.04907670                0.20859667               -0.47537188
              15.83769444                8.94271487               73.73153701                0.00010000               -0.32452711               -0.10203449               -0.20497583               -1.14566258                5.77617951               -2.03000543
              16.83090002                8.44675587               73.39223445                0.00010000               -0.17736950               -0.27467718               -1.13767483               -2.55196268               11.40383547               -0.73206457
              17.83414705                7.93873030               73.05473281                0.00010000                0.96599091               -0.79480943               -2.33169728               -4.05251546               12.14364565                0.46928572
              18.85021984                7.41113661               72.72479988                0.00010000                2.21141311               -1.10707094               -3.92445603               -6.82546113               13.20918162                1.50771982
              19.87837531                6.85648893               72.40190718                0.00010000                3.14245119               -0.30100332               -6.07510132              -10.47044300               13.87279102                2.38629667
              20.91306887                6.27523665               72.07769697                0.00010000                3.35684385                2.15987141               -8.83380625              -13.51958404               13.33748545                3.32950438
              21.94551219                5.68327111               71.73811064                0.00010000                2.81958700                5.98006949              -12.01634271              -13.89953136               10.83316812                5.11436378
              22.96946061                5.11310446               71.36561296                0.00010000                2.15575998               10.13057011              -15.00733231               -9.10714517                6.25311696                7.16522955
              23.98862739                4.60699401               70.94812926                0.44148893                1.91667808               11.18478814              -16.34022332               -3.90434448                2.68390512                7.93232600
              14.31102828               10.89023070               74.49461322                0.97158326               -0.02097380               -0.03455380                0.17316182               -0.02209901               -0.01085845                0.72924530
              15.31081854               10.41700155               74.03792029                0.29513283                0.01428293               -0.01178844               -0.02922208               -0.07672797                0.08768179               -0.46623767
              16.31131394                9.94205568               73.58310082                0.00010000               -0.18829373               -0.02117744               -0.31697120               -1.23471804                6.54980128               -1.83620637
              17.30705267                9.44518056               73.25626416                0.00010000               -0.05656897               -0.01432359               -1.29689443               -2.74701204               13.04503697               -1.42772827
              18.31018256                8.93491905               72.93037924                0.00010000                0.74680319               -0.07090409               -2.54625878               -4.22655254               13.50517346               -0.83233171
              19.32198873                8.40810247               72.60915352                0.00010000                1.57314456                0.17259807               -4.18843713               -6.27971032               14.18996150               -0.24547138
              20.34164545                7.86335316               72.29175334                0.00010000                2.22700210                1.18456174               -6.36180294               -8.50765733               14.59760123                0.30553234
              21.36652877                7.30504837               71.97225828                0.00010000                2.61813292                3.21369663               -9.16207889               -9.93748431               14.05237217                0.92112985
              22.39400811                6.74618886               71.63877273                0.00010000                2.83430271                5.95014713              -12.41989322               -9.30201200               11.73264303                1.61191474
              23.42321483                6.20738479               71.27443680                0.00010000                3.04705836                8.38418542              -15.36513745               -5.79676279                6.93941000                2.24103434
              24.45494928                5.71048493               70.85916372                0.44248610                3.17344485                8.99199300              -16.81810317               -2.71935828                3.09614553                2.30111737
              14.78392828               11.89001192               74.36038357                0.98038779                0.01027412               -0.00896835                0.06769582               -0.02046861               -0.00261717                0.77388715
              15.78403102               11.41706378               73.89759689                0.31398180                0.04463919                0.02399207               -0.13067390               -0.08060401                0.07078282               -0.49277812
              16.78482107               10.94229132               73.43629074                0.00010000               -0.04673012                0.05410688               -0.41783236               -1.19466601                7.15054106               -1.77530260
              17.78309642               10.44646940               73.11600570                0.00010000                0.09365140                0.22579138               -1.36734279               -2.58260008               14.15605996               -1.74661984
              18.78669409                9.93731222               72.79691662                0.00010000                0.65475517                0.39825380               -2.58743650               -3.78186939               14.40040598               -1.52519981
              19.79619152                9.41458857               72.48081300                0.00010000                1.22910829                0.85243066               -4.18678155               -5.13427864               14.78067192               -1.24099564
              20.81127626                8.88018016               72.16668746                0.00010000                1.76459800                1.82706856               -6.28363735               -6.32451057               14.92287259               -0.96172549
              21.83148348                8.33951058               71.84916673                0.00010000                2.29296375                3.36047186               -8.95865337               -6.78465693               14.21552098               -0.70159972
              22.85713553                7.80227406               71.51718836                0.00010000                2.88728948                5.15988888              -12.03416232               -5.94801915               11.79832906               -0.47810802
              23.88922927                7.28078816               71.15341327                0.00010000                3.54521961                6.55979058              -14.86614115               -3.57923131                6.97337344               -0.37722917
              24.92803993                6.78683387               70.73765861                0.44296476                3.88106527                6.73065981              -16.43219274               -1.72095860                3.19018075               -0.48522970
              15.25651519               12.89005133               74.22634223                0.98422123                0.04118685                0.01732723               -0.04055362               -0.01853453               -0.00034087                0.78658463
              16.25692706               12.41748139               73.75698885                0.33675971                0.07499028                0.05946163               -0.22881322               -0.07621828                0.09821246               -0.54607126
              17.25801500               11.94313782               73.28973879                0.00010000                0.17263522                0.10582291               -0.51521192               -1.06108521                7.76623266               -1.50492435
              18.26037976               11.44969639               72.97490921                0.00010000                0.42055032                0.31407237               -1.38478858               -2.14361626               15.07869288               -1.69680795
              19.26642600               10.94288412               72.65968255                0.00010000                0.80277269                0.55013693               -2.51407681               -2.92985018               15.00569813               -1.62540862
              20.27643522               10.42515108               72.34638148                0.00010000                1.19036101                1.06911661               -4.00884157               -3.67890137               15.09202347               -1.52691989
              21.29023322                9.89989453               72.03361596                0.00010000                1.61532628                1.91805640               -5.96628434               -4.20549030               14.97652494               -1.45046510
              22.30874174                9.37225781               71.71627151                0.00010000                2.17684622                3.06560992               -8.46682423               -4.20596407               14.09632196               -1.40587049
              23.33377015                8.84938663               71.38372071                0.00010000                2.91643237                4.30492537              -11.37268885               -3.45119936               11.62875874               -1.39403605
              24.36707039                8.33858060               71.01909636                0.00010000                3.73342736                5.24868711              -14.14647426               -1.96454214                6.86484932               -1.44739705
              25.40843869                7.84509813               70.60206435                0.44392738                4.13683042                5.34637285              -15.89630591               -1.00305914                3.19582337               -1.69196806
              15.72869747               13.89035846               74.09196570                0.88440545                0.07226939                0.04539367               -0.15255002               -0.01663800                0.05118946                0.72526258
              16.72942017               13.41825301               73.61607479                0.26181564                0.13434439                0.09327418               -0.32260550               -0.07236640                0.50508520               -0.56975065
              17.73138436               12.94440778               73.14950537                0.00010000                0.55288125                0.12105817               -0.65077790               -0.93222062                8.56643012               -1.20778802
              18.74047779               12.45275085               72.83611918                0.00010000                1.06290186                0.07444711               -1.37680200               -1.36221726               15.77256069               -1.13401554
              19.75264240               11.94831496               72.52389842                0.00010000                1.25626478                0.43527505               -2.37891730               -1.68813291               15.46024119               -1.08742899
              20.76560309               11.43597090               72.21212791                0.00010000                1.37086624                0.99121185               -3.73522005               -1.96418888               15.24869208               -1.08611841
              21.78005972               10.91854129               71.89973382                0.00010000                1.61345053                1.74874021               -5.51058646               -2.13281009               14.91216253               -1.10836739
              22.79787210               10.40082278               71.58189725                0.00010000                2.08645173                2.66399149               -7.79588831               -2.01028527               13.91723852               -1.16052170
              23.82178876                9.88837256               71.24855468                0.00010000                2.81774175                3.60971685              -10.49978999               -1.52030421               11.46351250               -1.23715158
              24.85422694                9.38576191               70.88310196                0.00010000                3.65774600                4.36768675              -13.18401425               -0.78313586                6.77851954               -1.32815412
              25.89494368                8.89376133               70.46399228                0.44542723                4.07167440                4.63197214              -15.09661048               -0.47795375                3.26219335               -1.71889654
              16.20039334               14.89095921               73.95639040                0.92474481                0.10370774                0.06007449               -0.26005142                0.00835305                0.32365954                0.67711835
              17.20143041               14.41934688               73.47566218                0.60921888                0.22397047                0.10938667               -0.41893421               -0.06898652                1.09531384               -0.58610490
              18.20487275               13.94555899               73.01070433                0.37304005                1.38989103                0.11512071               -0.83517668               -1.05923878                9.76054397               -1.23518257
              19.22922823               13.45118533               72.70515546                0.36398672                2.22852720               -0.15655135               -1.36510468               -0.82342395               16.58815069               -0.48922864
              20.24944329               12.95158962               72.39494715                0.36085617                1.88484370                0.32746630               -2.24790876               -0.63041174               15.81905095               -0.51838108
              21.26692511               12.44497532               72.08462274                0.36310705                1.66409239                0.90044173               -3.46191804               -0.70381256               15.44712525               -0.55080820
              22.28272514               11.93486934               71.77298549                0.37064287                1.58898284                1.63280426               -5.04845199               -0.70534258               15.00190918               -0.61998388
              23.29870477               11.42553764               71.45569239                0.38360367                1.78499008                2.47148561               -7.09255713               -0.58115171               14.01476225               -0.73411365
              24.31842494               10.92158097               71.12333599                0.40288414                2.36570730                3.32084062               -9.55378100               -0.31654729               11.71598686               -0.90779537
              25.34601891               10.42593433               70.75988565                0.42733428                3.22279201                4.01724261              -12.06615578               -0.01297230                7.17033287               -1.11504146
              26.38288078                9.93773757               70.34083015                0.72315003                3.68618683                4.39762464              -13.97571432               -0.02596594                3.86616484               -1.72166036
              11.89395106                5.03866760               76.30487789                1.00000000               -0.17831527               -0.18452882                0.65117916               -0.03130138               -0.38797251                0.49227629
              12.89216791                4.55855149               75.87318192                1.00000000               -0.16293148               -0.14277125                0.52021563               -0.01421112               -0.46858426                0.05494100
              13.89069243                4.07813002               75.43928157                1.00000000               -0.13057750               -0.10051466                0.38915660               -0.01387146               -0.48584288               -0.05644461
              14.88955636                3.59719153               75.00710036                0.64383530               -0.11609638               -0.05843007                0.25479477               -0.05571253               -0.44932918               -0.33112026
              15.88837050                3.11510513               74.57424574                0.46668097               -0.09980546               -0.00747198                0.12173442               -0.08511805               -0.42563905               -0.30290725
              16.88756025                2.63198720               74.14315046                0.15051941               -1.20208970                0.01754186               -0.03598378               -1.16380056                0.81663792               -0.55756797
              17.86432871                2.12707413               73.73616691                0.00010000               -4.97163307                1.39158260                0.00535003               -8.33003775               11.01220737               -2.75390643
              18.78812758                1.45858125               73.51059190                0.00010000               -2.83225411                0.32243618               -1.75578273               -7.96318759               20.94625127                0.65384336
              19.80768362                0.77948321               73.26581797                0.00010000                5.75770802               -1.34712816               -2.40070847               -7.13794703               19.45298351                1.03769684
              20.90328175                0.09917608               73.00464850                1.00000000                5.15777790                0.56525881               -2.45296245               -6.86373735                8.93871285               -0.04705811
              21.91083918               -0.44082633               72.56513481                1.00000000                0.75574374                0.57847526               -2.48758961               -0.16364947                0.00266026               -0.01827469
              12.37375416                6.03682231               76.16925064                1.00000000               -0.14595692               -0.17213608                0.56103116               -0.00994689                0.02686212                0.69195450
              13.37229459                5.55712378               75.73737174                1.00000000               -0.12602297               -0.13205688                0.43077253                0.00642976                0.10364757                0.07874144
              14.37123370                5.07712487               75.30651695                1.00000000               -0.08914553               -0.09022573                0.30105048                0.00495785                0.15866564               -0.24786152
              15.37051168                4.59660723               74.87568619                0.77664143               -0.05561067               -0.05642186                0.17996289               -0.02232122                0.24906253               -0.28940247
              16.37012148                4.11503041               74.44705326                0.65641073               -0.02869674               -0.00969783                0.03000341               -0.04818873                0.25338839               -0.23967343
              17.36993774                3.63216262               74.01717372                0.33640997               -0.11950878                0.02553158               -0.12528521               -0.43164489                0.32186591               -0.42285820
              18.36773131                3.14098995               73.59119310                0.00010000                0.61767130                0.70334765               -0.34426722               -8.83320724               10.69587378               -1.42733610
              19.38229117                2.46180561               73.37001030                0.00010000                2.41377143               -1.48474955               -1.67812177              -12.20119300               19.02297296                1.75531801
              20.41600674                1.76601193               73.10485728                0.00010000                3.12539891               -0.63511392               -2.01432754              -10.17198672               15.85464870                1.61548656
              21.44479914                1.10482867               72.81412087                1.00000000                1.65991855                0.41293294               -1.43393076               -5.91544588                7.43985640               -0.05469019
              22.44920511                0.56495842               72.37466348                1.00000000                0.44059618                0.42620203               -1.46786162               -0.14987423                0.00032430               -0.04178406
              12.85314919                7.03522488               76.03680754                1.00000000               -0.11552483               -0.14332857                0.46856130               -0.01368097                0.16478211                0.81495589
              13.85199394                6.55591035               75.60172868                1.00000000               -0.09205266               -0.10896812                0.34091270               -0.00093311                0.35825824               -0.00335469
              14.85130814                6.07632550               75.17009264                0.00010000               -0.03947739               -0.06443586                0.21279090               -0.02398637                0.89398648               -0.68188379
              15.85120440                5.59606309               74.74576440                0.00010000                0.02715967               -0.62730090                0.11081809               -0.49250672                1.27704137                0.63993925
              16.85185133                5.11491117               74.32231840                0.00010000                0.08817038               -1.14127518               -0.06086072               -0.53386392                1.09626985                2.02960874
              17.85296780                4.63249783               73.89556674                0.00010000                0.30851214               -2.04638718               -0.21585217               -0.26526383                1.12960579                3.94024596
              18.85802157                4.14114108               73.47444530                0.00010000                3.30569726               -4.98294242               -0.46488481               -9.12215481               11.61019165                7.37699917
              19.91908175                3.42888626               73.25986796                0.00010000                5.15996262               -2.61911774               -2.66714100              -15.72895002               17.56962135                4.34435204
              20.96122083                2.76678093               72.95715724                0.00010000                3.34722957                0.07004694               -2.30896389              -12.46568899               11.76269718                3.05723140
              21.98602634                2.10743474               72.62311803                1.00000000                1.31806899                0.12490738               -0.45072395               -5.83395239                5.27433041               -0.05669628
              22.98758221                1.56769771               72.18371522                1.00000000                0.15558670                0.13724838               -0.48188173               -0.14657438               -0.00277283               -0.05656977
              13.33210959                8.03395574               75.90288778                1.00000000               -0.09342897               -0.10735840                0.37726290               -0.01508109                0.27379853                0.69952735
              14.33117530                7.55494442               75.46404214                0.42793125               -0.07541790               -0.08727317                0.25452997                0.00318650                0.47634584               -0.38334559
              15.33060123                7.07583615               75.02890602                0.00010000               -0.45497135               -0.07707543                0.12226080               -0.59954293                2.64940129               -1.19598719
              16.32207587                6.58406121               74.63363055                0.00010000               -0.37958864               -0.94520550               -0.40647414               -1.60613198                4.97108627                1.07793419
              17.32300946                6.09220490               74.24165911                0.00010000                0.81633402               -2.05237112               -1.01993302               -1.88925411                5.73105039                3.54057007
              18.33840255                5.59123488               73.85852478                0.00010000                3.29451644               -4.01481803               -1.85313841               -3.69972581                7.88539561                6.74906904
              19.38889979                5.04133110               73.50775935                0.00010000                5.18348794               -7.29570450               -3.15432424               -8.50870639               10.00397179               10.71119333
              20.44207231                4.40942325               73.17132533                0.00010000                4.96223398               -1.52394746               -4.29008644              -13.79747236               10.16375219                5.68689990
              21.48814447                3.76741287               72.83248552                0.00010000                4.25655054                0.72596034               -4.19310776              -15.22627289                6.85822533                4.74645092
              22.52720332                3.10732682               72.43233773                0.00010000                1.88016123                3.57495818                0.45108112              -10.55683859                1.95317620                4.51597649
              23.52574769                2.56770339               71.99292512                0.43446373               -0.14556312                4.92876829                0.42392060               -5.16520875                0.01984774                5.20715655
              13.81087022                9.03307771               75.76743108                0.96506726               -0.06929612               -0.06880836                0.29014599               -0.01295730               -0.00042048                0.62707700
              14.81017726                8.55416489               75.32065514                0.29741192               -0.03348674               -0.07056639                0.17369388               -0.01100557                0.44794478               -0.57663524
              15.81020049                8.07478400               74.88256628                0.00010000               -0.37321276               -0.13584626                0.02096927               -0.91084450                4.25584524               -1.80435985
              16.80271301                7.57715898               74.51186823                0.00010000               -0.16539538               -0.58754218               -0.80548930               -1.93608705                8.01528688                0.08454807
              17.80689258                7.07386375               74.14525488                0.00010000                1.35670397               -1.55558923               -1.76786711               -2.89802822                8.88106880                1.87844807
              18.82984709                6.55220147               73.78773865                0.00010000                3.13832448               -2.92442599               -3.01761339               -5.41981605                9.91694495                3.67388159
              19.86965907                5.99522699               73.43946005                0.00010000                4.36017255               -3.02960986               -4.57484965              -10.19294049               10.38675157                4.47834112
              20.91705054                5.39840731               73.09257542                0.00010000                4.45663664               -0.16401117               -6.16906592              -14.10372815                9.33602936                5.00523292
              21.95879180                4.78130014               72.72837838                0.00010000                2.87742569                2.82891365               -6.96392878              -15.16701257                6.45444322                5.49824770
              22.97459905                4.17893391               72.33265599                0.00010000                0.23665486                7.84022058               -7.05917539              -10.98523974                3.19882032                7.71632532
              23.96352490                3.66627307               71.90728450                0.43576160               -1.10741509                9.64397057               -6.70207217               -5.93175425                1.65323048                8.96856082
              14.28967609               10.03257958               75.63141109                0.97036906               -0.04271829               -0.03624005                0.19377584               -0.01708931               -0.00251470                0.65338872
              15.28924891                9.55353309               75.17911697                0.29450741               -0.01429184               -0.04959834                0.09170448               -0.05888402                0.17289256               -0.47406589
              16.28939025                9.07311923               74.73013811                0.00010000               -0.24872638               -0.12618012               -0.07517219               -1.13927050                5.31435337               -1.97525397
              17.28427438                8.57231036               74.38100533                0.00010000                0.03080742               -0.36487600               -1.08337124               -2.48740400               10.43236457               -0.78690231
              18.29000640                8.06109312               74.03154539                0.00010000                1.21843059               -0.87182142               -2.25071427               -3.82889120               10.81122717                0.31312901
              19.30864299                7.53274636               73.68618718                0.00010000                2.44143719               -1.17833651               -3.69836920               -6.31453311               11.30853937                1.26715601
              20.33883515                6.98073891               73.34352590                0.00010000                3.26408044               -0.49906824               -5.46975439               -9.52671265               11.27527766                2.08455119
              21.37392460                6.40614303               72.99625058                0.00010000                3.27212354                1.59713669               -7.43537809              -12.10658952               10.13203103                2.92682274
              22.40427762                5.82399114               72.63272716                0.00010000                2.43004984                4.73096530               -9.34091160              -12.17405153                7.68503250                4.15709483
              23.42252560                5.26413123               72.24204478                0.00010000                1.40783304                8.06961576              -10.73101711               -7.87375910                4.15129111                5.57682586
              24.43243428                4.76058280               71.81731317                0.43702497                0.99086802                8.84038866              -11.18845938               -3.40262078                1.79347614                5.79241978
              14.76862141               11.03235291               75.49595719                0.99059749               -0.01614832               -0.01128443                0.09887707               -0.01823971               -0.00888262                0.71465828
              15.76845993               10.55317292               75.03782818                0.31653394                0.00081957               -0.02174433                0.00895163               -0.07870223                0.05687263               -0.46362003
              16.76863780               10.07226039               74.58091310                0.00010000               -0.17344454               -0.05161606               -0.13473085               -1.22827900                6.06017054               -1.75501170
              17.76499104                9.56986146               74.24342345                0.00010000                0.06204808               -0.09112716               -1.24434878               -2.72090152               12.03005478               -1.36926276
              18.76987876                9.05642732               73.90486790                0.00010000                0.94597993               -0.14804424               -2.50224559               -4.06963066               12.17223230               -0.78314030
              19.78391064                8.52863474               73.56754414                0.00010000                1.79246901                0.06913079               -4.03539814               -5.95705971               12.35988367               -0.19460452
              20.80572814                7.98524563               73.22975151                0.00010000                2.38779385                0.96351776               -5.89943409               -7.98372150               12.12784847                0.39352973
              21.83166651                7.43035004               72.88556744                0.00010000                2.57972135                2.72876053               -8.05357554               -9.23270050               11.01062025                1.05963458
              22.85732257                6.87591945               72.52548525                0.00010000                2.44328505                5.05383239              -10.27127671               -8.57780367                8.62311836                1.83070637
              23.88053221                6.34032622               72.13802556                0.00010000                2.26233911                7.00907667              -12.08850586               -5.30526717                4.84518123                2.42382038
              24.90256935                5.84308085               71.71268701                0.43817934                2.20371397                7.42173429              -12.81698755               -2.42023585                2.18098182                2.23625840
              15.24767127               12.03235389               75.36073202                0.99939485                0.00961087                0.01074594                0.00701359               -0.01750084               -0.00060645                0.75266387
              16.24776738               11.55309820               74.89661753                0.33708158                0.02324321                0.00581597               -0.06916511               -0.07992321                0.04315987               -0.48424262
              17.24813614               11.07208691               74.43338428                0.00010000               -0.10389799                0.00367773               -0.19001570               -1.17710310                6.66787427               -1.69691545
              18.24568942               10.57048782               74.10250029                0.00010000                0.08521838                0.17620855               -1.31250527               -2.56062287               13.18450804               -1.61734898
              19.24984051               10.05813223               73.77082189                0.00010000                0.74970349                0.35688256               -2.58371436               -3.67404479               13.16857519               -1.35719604
              20.26068349                9.53412897               73.43885416                0.00010000                1.38024566                0.78132785               -4.11795192               -4.95976738               13.13863442               -1.02932013
              21.27744542                9.00000926               73.10472629                0.00010000                1.89566390                1.65667123               -5.97531352               -6.08141336               12.75459896               -0.68458185
              22.29859677                8.46071824               72.76308332                0.00010000                2.26499715                3.01498424               -8.12467105               -6.49657034               11.57643410               -0.32765601
              23.32274536                7.92506779               72.40495158                0.00010000                2.53310422                4.58454486              -10.35855826               -5.66221815                9.15963890               -0.01416446
              24.34925885                7.40431276               72.01857566                0.00010000                2.78874761                5.78099313              -12.21700201               -3.37987328                5.21688544                0.08929491
              25.37852031                6.90901748               71.59139539                0.43936867                2.92614591                5.85553754              -13.07748743               -1.56070661                2.38778507               -0.31634916
              15.72678276               13.03256783               75.22567937                1.00000000                0.03456782                0.03234682               -0.08536067               -0.01573439                0.00152452                0.75873850
              16.72712844               12.55328924               74.75516911                0.36171181                0.04616784                0.03262348               -0.14261962               -0.07414270                0.07148376               -0.53109622
              17.72770612               12.07233395               74.28617431                0.00010000                0.03024053                0.03766792               -0.24247526               -1.00979595                7.30821650               -1.44708821
              18.72773325               11.57338563               73.96127137                0.00010000                0.25252975                0.31728628               -1.33034869               -2.09044480               14.19995218               -1.54594888
              19.73275672               11.06356497               73.63413274                0.00010000                0.75525032                0.58436844               -2.55768979               -2.86003153               13.93687701               -1.42060881
              20.74283826               10.54426130               73.30580098                0.00010000                1.23769464                1.06804250               -4.03537375               -3.61787442               13.70664647               -1.26732262
              21.75751061               10.01837905               72.97413101                0.00010000                1.69191596                1.82779997               -5.81714235               -4.14900910               13.16886375               -1.12139544
              22.77667658                9.49064972               72.63400451                0.00010000                2.14865376                2.83375537               -7.87647711               -4.15167964               11.90226320               -1.00147862
              23.80048368                8.96761034               72.27661158                0.00010000                2.61542379                3.90046412              -10.02955671               -3.39466251                9.42284194               -0.95492369
              24.82898505                8.45594608               71.88976938                0.00010000                3.07310505                4.67105166              -11.86941889               -1.90780256                5.37915816               -1.10044002
              25.86194578                7.96019160               71.46008302                0.44038217                3.29607305                4.63164431              -12.82579450               -0.87855517                2.51710950               -1.65241093
              16.20591376               14.03300082               75.09025968                0.89695269                0.06046498                0.05637313               -0.18112627               -0.01294185                0.05218705                0.69520522
              17.20651841               13.55375067               74.61344168                0.28381280                0.09650345                0.05901438               -0.21595885               -0.06926659                0.45003258               -0.55134717
              18.20784383               13.07284027               74.14479714                0.00010000                0.30655454                0.04505471               -0.34263087               -0.81342652                8.12120258               -1.16831582
              19.21264950               12.57683355               73.82252396                0.00010000                0.69601871                0.19737237               -1.33726439               -1.28596869               15.02375551               -1.01670098
              20.22176421               12.06981960               73.49938708                0.00010000                1.04312111                0.56562538               -2.49209312               -1.65515447               14.58891538               -0.94039275
              21.23351192               11.55548982               73.17372590                0.00010000                1.31563031                1.08227753               -3.88539619               -1.97714618               14.14747829               -0.89350976
              22.24807681               11.03656526               72.84387089                0.00010000                1.64099798                1.75863787               -5.56044474               -2.17348377               13.48440842               -0.86215353
              23.26633188               10.51739335               72.50494102                0.00010000                2.07394701                2.54653147               -7.49732712               -2.06807009               12.16236463               -0.85871786
              24.28955575               10.00307707               72.14830962                0.00010000                2.60948331                3.32365182               -9.54180599               -1.57194841                9.66847465               -0.90545908
              25.31852155                9.49773380               71.76132371                0.00010000                3.14512179                3.88658403              -11.33706620               -0.79691627                5.54633205               -1.06700775
              26.35245819                9.00165037               71.32873514                0.44152596                3.39366370                3.93245267              -12.34174235               -0.36030334                2.67040583               -1.64212391
              16.68502423               15.03369529               74.95366589                0.93066521                0.08794361                0.06944698               -0.27990897               -0.01152938                0.30983584                0.64656469
              17.68590367               14.55446953               74.47216985                0.61540497                0.16652419                0.07188587               -0.29282092               -0.08448703                0.98786807               -0.56375740
              18.68835472               14.07323504               74.00453376                0.37200412                0.95654376                0.03947747               -0.46443328               -0.80573421                9.31471735               -1.17986367
              19.70503454               13.57733308               73.69133778                0.36381856                1.63213175                0.04995309               -1.38156906               -0.67937411               16.00717851               -0.46190184
              20.72099735               13.07487748               73.37114718                0.36102709                1.57575671                0.50578755               -2.47286059               -0.64799687               15.13392606               -0.47121100
              21.73654968               12.56590685               73.04796491                0.36302994                1.55700290                1.04170273               -3.79632760               -0.76250834               14.58772433               -0.47673973
              22.75213741               12.05355181               72.72015996                0.36968249                1.61268450                1.69865456               -5.38651871               -0.81026514               13.88109434               -0.51367291
              23.76880337               11.54158035               72.38324760                0.38191354                1.82834289                2.41870059               -7.23072182               -0.72627315               12.60208713               -0.58689691
              24.78870427               11.03408338               72.02894304                0.39957311                2.28350325                3.10063076               -9.19686968               -0.48027803               10.22752331               -0.71075841
              25.81447343               10.53367776               71.64473230                0.42340227                2.91011552                3.59439670              -10.95966872               -0.16694837                6.12521304               -0.90437789
              26.84690658               10.03884065               71.21213726                0.72116575                3.24331444                3.71902804              -11.97129099               -0.03887269                3.29063350               -1.53452092
              12.32241323                5.17965263               77.31070169                1.00000000               -0.14921312               -0.14488288                0.51651566               -0.01766890               -0.38848288                0.48916225
              13.32092110                4.69535473               76.87809032                1.00000000               -0.14476259               -0.12735644                0.46180350               -0.00305406               -0.47025927                0.05446229
              14.31951798                4.21078202               76.44327200                1.00000000               -0.13435632               -0.10822761                0.40667243               -0.00251643               -0.48886724               -0.05384869
              15.31823397                3.72575364               76.01014029                0.65215189               -0.13822649               -0.08975252                0.34835748               -0.03849978               -0.45092326               -0.31394868
              16.31675345                3.23972927               75.57635833                0.46924529               -0.13970592               -0.06448429                0.29300549               -0.06418457               -0.43517497               -0.30227972
              17.31543985                2.75283328               75.14411405                0.14195062               -1.23522865               -0.06249729                0.21860795               -1.08712751                0.88307660               -0.55834857
              18.29204888                2.24531827               74.73767999                0.00010000               -4.14577795                1.28156101                0.24498368               -6.76807699               10.41772164               -2.89657022
              19.23252430                1.60348063               74.49470194                0.00010000               -1.86412399               -0.06508297               -1.42863389               -6.56029674               19.66108201                0.36191516
              20.25476640                0.94685715               74.24297086                0.00010000                5.53172412               -1.42735283               -2.17659283               -6.15891256               18.90978492                0.70098416
              21.34315878                0.28440432               73.98012279                1.00000000                4.79146322                0.58918647               -2.45711999               -5.98074319                8.85341659               -0.01631068
              22.35059566               -0.25535712               73.54054442                1.00000000                0.74368824                0.58643042               -2.43233902               -0.14973720                0.00513502                0.00492752
              12.80653444                6.17820381               77.17423508                1.00000000               -0.12085779               -0.13388083                0.43863350               -0.00852274                0.02444246                0.68593030
              13.80532586                5.69408117               76.74144862                1.00000000               -0.11205397               -0.11847097                0.38477376                0.00585329                0.10043465                0.07802110
              14.80429336                5.20969975               76.30968907                1.00000000               -0.09752550               -0.10008191                0.33088490                0.00486879                0.16040892               -0.24365155
              15.80337535                4.72485611               75.87804001                0.80158926               -0.08607908               -0.08847141                0.28538077               -0.01844172                0.24378796               -0.26651166
              16.80257178                4.23908442               75.44831708                0.67276795               -0.08006377               -0.06578732                0.21460376               -0.04193736                0.23645523               -0.23379897
              17.80177408                3.75220831               75.01730793                0.34075383               -0.17636740               -0.05487605                0.14188541               -0.37503716                0.27899117               -0.41671509
              18.79904443                3.25813388               74.58961406                0.00010000                0.71889052                0.59474158                0.02117210               -7.43992555               10.07536064               -1.53576949
              19.81615189                2.60282980               74.35544864                0.00010000                2.68354954               -1.66360887               -1.28477508              -10.25815871               18.24399708                1.04433543
              20.85271542                1.93258362               74.08633827                0.00010000                3.41532941               -0.83658350               -1.74114609               -8.50774784               15.89415889                0.98507788
              21.88445848                1.29029619               73.79969463                1.00000000                1.80721508                0.42216401               -1.47317942               -4.97512929                7.65140785               -0.02898534
              22.88885973                0.75050719               73.36013273                1.00000000                0.44012483                0.42332866               -1.45443532               -0.15623200               -0.00002080               -0.02620684
              13.29048805                7.17697502               77.04092961                1.00000000               -0.09458245               -0.10765991                0.35848966               -0.01183401                0.16084456                0.80650807
              14.28954222                6.69298532               76.60497081                1.00000000               -0.08238179               -0.09949990                0.30756053               -0.00050267                0.35324681               -0.00226289
              15.28884041                6.20878039               76.17244843                0.00010000               -0.05308801               -0.07898415                0.25568562               -0.02052893                0.90155882               -0.67755312
              16.28848046                5.72398421               75.74748176                0.00010000               -0.01389533               -0.62524380                0.22666457               -0.39890805                1.26571341                0.43529263
              17.28856251                5.23841352               75.32272845                0.00010000                0.02045970               -1.11781816                0.13487335               -0.35166067                1.06734768                1.59722647
              18.28888966                4.75173576               74.89485767                0.00010000                0.20331854               -1.94737586                0.06388441                0.01455510                1.07490791                3.18719728
              19.29262888                4.25721310               74.47176180                0.00010000                3.20108623               -4.58119734               -0.07947800               -7.51963588               10.59855666                6.17778622
              20.35291138                3.57020845               74.23703142                0.00010000                5.22580878               -2.65915949               -2.01529559              -13.22899745               16.56619071                2.87787288
              21.39714505                2.93012548               73.93688036                0.00010000                3.64106202               -0.27464665               -1.94590066              -10.26615575               12.55506474                1.51411000
              22.42573262                2.29284760               73.61858797                1.00000000                1.49519820                0.11964628               -0.42385592               -4.74866580                6.08314281               -0.06210106
              23.42704902                1.75310946               73.17902451                1.00000000                0.13163937                0.12299526               -0.42123379               -0.13407922               -0.01030431               -0.06960104
              13.77427717                8.17605061               76.90615854                1.00000000               -0.07667251               -0.07414663                0.27956321               -0.01085050                0.26913001                0.69110212
              14.77351044                7.69209117               76.46648848                0.44269706               -0.06966394               -0.08414543                0.23464128                0.00814425                0.46519262               -0.37643208
              15.77288389                7.20812006               76.03040902                0.00010000               -0.38731919               -0.10016507                0.17631362               -0.54965070                2.42536914               -1.19380785
              16.76576406                6.71235124               75.63004032                0.00010000               -0.25484365               -0.94969628               -0.30100336               -1.40739852                4.46097641                0.71054021
              17.76778702                6.21672806               75.23237114                0.00010000                0.87507710               -1.99578007               -0.82038387               -1.51441972                5.01485869                2.78066251
              18.78326560                5.71326079               74.84169319                0.00010000                3.11960049               -3.78383215               -1.48390779               -2.93587427                6.76580825                5.47341013
              19.83017903                5.16650993               74.48005975                0.00010000                4.76969812               -6.70197978               -2.45847646               -6.90952173                8.57492037                8.83140074
              20.87865956                4.54964661               74.13381891                0.00010000                4.72870661               -1.65890484               -3.28685173              -11.54128661                9.25047700                3.98174386
              21.92475316                3.92709068               73.79643790                0.00010000                4.39208084                0.30926500               -3.66115848              -12.76138576                8.18634740                2.38711281
              22.96650118                3.29268911               73.43643721                0.00010000                2.04506354                2.82726208                0.31152296               -9.28526485                3.97214340                0.92632775
              23.96565443                2.75296709               72.99688368                0.42830063               -0.08467511                4.43314388                0.29881934               -5.09350962                0.01515957                1.88754532
              14.25818991                9.17549209               76.76988559                0.98477063               -0.05542584               -0.04029761                0.20299168               -0.01033086               -0.00477988                0.61245852
              15.25763565                8.69130241               76.32238182                0.31518239               -0.03012884               -0.07229914                0.17052480               -0.00520273                0.42333809               -0.56599534
              16.25758733                8.20677708               75.88316607                0.00010000               -0.29555770               -0.16285459                0.09576374               -0.85514363                3.84358236               -1.77395454
              17.25172450                7.70499028               75.50423690                0.00010000               -0.01113887               -0.64443171               -0.70166278               -1.79515940                7.13851542               -0.13567321
              18.25736456                7.19849792               75.12838567                0.00010000                1.43329017               -1.56740983               -1.56972360               -2.57642205                7.72332951                1.39335353
              19.28039030                6.67605912               74.75941407                0.00010000                3.03440348               -2.82932746               -2.61080977               -4.70899456                8.35636734                2.90792624
              20.31805263                6.12317350               74.39764854                0.00010000                4.05572976               -2.93107151               -3.79206319               -8.76951637                8.53122335                3.46626898
              21.36150490                5.53703035               74.03820362                0.00010000                4.04111043               -0.44327620               -4.89848092              -11.95070342                7.64323921                3.63923463
              22.39887483                4.93631078               73.66866603                0.00010000                2.63230103                2.11077300               -5.34149564              -12.94860123                5.37772937                3.18278564
              23.41415092                4.34939284               73.27374960                0.00010000                0.28740129                6.32911431               -5.58349101               -9.65695994                2.63293735                2.97444437
              24.40462286                3.84177233               72.85346563                0.42967208               -0.95280572                8.22364024               -4.95722419               -5.34676596                1.67286001                4.02446182
              14.74244991               10.17524466               76.63294574                0.99068000               -0.03285197               -0.01445751                0.11650717               -0.01400927               -0.00079510                0.63077306
              15.74212139                9.69064519               76.18011350                0.31446876               -0.01783849               -0.05369095                0.10556585               -0.05086203                0.14639305               -0.46322892
              16.74209314                9.20486297               75.73003357                0.00010000               -0.19906761               -0.15339019                0.04696339               -1.09239210                4.79905085               -1.91692947
              17.73814004                8.69946260               75.37056702                0.00010000                0.15483013               -0.43449681               -0.97991281               -2.37543230                9.34397266               -0.85972698
              18.74518974                8.18537986               75.00971852                0.00010000                1.31350437               -0.92590878               -2.07131983               -3.53231988                9.44449869                0.10794957
              19.76441012                7.65667424               74.65083250                0.00010000                2.43138607               -1.22578606               -3.31952207               -5.67894338                9.54901176                0.93523209
              20.79381746                7.10788850               74.29251210                0.00010000                3.10490492               -0.65750712               -4.71370199               -8.38833321                9.14523606                1.61709174
              21.82650822                6.54078108               73.92898941                0.00010000                2.98005909                1.11889886               -6.10059596              -10.45399089                7.85812728                2.20304163
              22.85341865                5.96930614               73.55129241                0.00010000                2.06961000                3.71338958               -7.28168786              -10.31860840                5.63042279                2.86535769
              23.86790042                5.41927140               73.15099262                0.00010000                1.02707407                6.49687326               -7.96959570               -6.65502332                2.90077382                3.52421347
              24.87396013                4.91743990               72.72436007                0.43075768                0.60597032                6.96777742               -8.08267404               -2.95199159                1.36492050                3.15915128
              15.22710866               11.17520294               76.49659076                1.00000000               -0.01085642                0.00491801                0.03360262               -0.01267370               -0.00515548                0.69210160
              16.22700009               10.69022859               76.03809932                0.33873941               -0.00932899               -0.03035976                0.04214799               -0.06865460                0.03956278               -0.45038895
              17.22692208               10.20370928               75.58040621                0.00010000               -0.16505662               -0.08855859                0.01860664               -1.18627962                5.49074829               -1.68741713
              18.22369896                9.69630035               75.23137718                0.00010000                0.12922200               -0.15940531               -1.14248854               -2.62603008               10.84382706               -1.31778184
              19.22950652                9.17997974               74.88033433                0.00010000                1.03019175               -0.22382000               -2.35879656               -3.81174832               10.74394392               -0.77225257
              20.24430280                8.65154340               74.52844556                0.00010000                1.83363008               -0.04644591               -3.72504393               -5.46533466               10.56968742               -0.21807692
              21.26617912                8.11002336               74.17376466                0.00010000                2.33523193                0.71102612               -5.24918217               -7.19067224                9.96310936                0.33358799
              22.29100743                7.55940833               73.81118677                0.00010000                2.39166168                2.18696563               -6.84595577               -8.15830690                8.62808451                0.92642437
              23.31401235                7.01057857               73.43334720                0.00010000                2.09546313                4.07791449               -8.31634148               -7.43303508                6.44840769                1.54099497
              24.33291670                6.47933031               73.03266668                0.00010000                1.76168370                5.57794212               -9.36866394               -4.51139667                3.48312477                1.91873305
              25.34924603                5.98112788               72.60282397                0.43215601                1.63293297                5.78354846               -9.66700541               -2.01043988                1.59358163                1.46393435
              15.71214513               12.17534302               76.36052384                1.00000000                0.00968214                0.02477506               -0.04366579               -0.00762467                0.00158410                0.73114653
              16.71224195               11.69003799               75.89621358                0.36145556                0.00753278               -0.00966351               -0.01745169               -0.06947537                0.03098284               -0.46626105
              17.71229579               11.20309180               75.43249043                0.00010000               -0.14464893               -0.04630404               -0.00994757               -1.13042574                6.08254638               -1.62763775
              18.70934897               10.69627450               75.08975560                0.00010000                0.07079701                0.12266960               -1.21942633               -2.47334614               11.98591298               -1.49035068
              19.71371173               10.18090346               74.74524233                0.00010000                0.78554196                0.29635110               -2.48887852               -3.47008765               11.77353344               -1.20991776
              20.72505981                9.65574532               74.39845397                0.00010000                1.42136790                0.66947490               -3.90099431               -4.62636824               11.43620255               -0.86017622
              21.74213908                9.12210902               74.04718119                0.00010000                1.88635331                1.41493307               -5.47399380               -5.59985384               10.72215185               -0.48419950
              22.76278688                8.58452040               73.68667331                0.00010000                2.13484409                2.54811003               -7.13886007               -5.89727951                9.35339418               -0.09833595
              23.78483597                8.05086443               73.31001720                0.00010000                2.21681477                3.81757763               -8.71144045               -5.06202014                7.11178162                0.22048794
              24.80712317                7.53083024               72.90907323                0.00010000                2.26601059                4.72467210               -9.88810534               -2.97440758                3.92685427                0.25140015
              25.83015618                7.03311087               72.47610886                0.43334914                2.30330039                4.67911398              -10.30017513               -1.32655835                1.81314086               -0.33198034
              16.19756621               13.17569844               76.22463502                1.00000000                0.02955925                0.04665182               -0.12227387               -0.00470708                0.00259732                0.73482322
              17.19786180               12.69003532               75.75413645                0.38791269                0.02554263                0.00936639               -0.07281448               -0.06369139                0.06087657               -0.50964784
              18.19807706               12.20278320               75.28488929                0.00010000               -0.07207124               -0.02048956               -0.04009694               -0.94256186                6.72387540               -1.39391996
              19.19642038               11.69875374               74.94830223                0.00010000                0.12784379                0.30379620               -1.25246975               -1.99312190               13.03861987               -1.39690257
              20.20063394               11.18590676               74.60852875                0.00010000                0.70747480                0.57946020               -2.52297210               -2.71568976               12.63342250               -1.22369971
              21.21056987               10.66493289               74.26567400                0.00010000                1.23865168                1.00957265               -3.92962745               -3.42878578               12.15759377               -1.02110647
              22.22540697               10.13832202               73.91727311                0.00010000                1.68682807                1.65801271               -5.48968133               -3.90843409               11.34799776               -0.81252653
              23.24430643                9.61037053               73.55874197                0.00010000                2.05275686                2.49424696               -7.14210808               -3.87490583                9.92101666               -0.62490861
              24.26646211                9.08693012               73.18312958                0.00010000                2.34378399                3.35337487               -8.71513757               -3.13035918                7.59872444               -0.53364612
              25.29118211                8.57382375               72.78170798                0.00010000                2.58457491                3.93142982               -9.91489872               -1.73075366                4.22828983               -0.69722736
              26.31815361                8.07471016               72.34554846                0.43476143                2.69714924                3.78768727              -10.37545433               -0.74272047                1.97974476               -1.35564323
              16.68337723               14.17627605               76.08834317                0.91141644                0.05061333                0.06898294               -0.20155918               -0.00427738                0.04801664                0.66432428
              17.68388336               13.69022532               75.61175561                0.30758016                0.06744495                0.02900306               -0.13059576               -0.05679696                0.41333960               -0.52748599
              18.68472613               13.20268201               75.14265275                0.00010000                0.12398050               -0.01473588               -0.11494199               -0.69763987                7.53367553               -1.13088570
              19.68636297               12.70235042               74.80937389                0.00010000                0.42463249                0.27829631               -1.28336931               -1.19256661               13.93273784               -0.90832132
              20.69321878               12.19249267               74.47405655                0.00010000                0.88529341                0.63692200               -2.53187219               -1.57764477               13.39676373               -0.79453102
              21.70406884               11.67593678               74.13441999                0.00010000                1.26569950                1.10148029               -3.90908548               -1.90632236               12.76399014               -0.70313913
              22.71853277               11.15526928               73.78852492                0.00010000                1.63059129                1.68478629               -5.43035356               -2.09370382               11.87734954               -0.61594748
              23.73668067               10.63440534               73.43195071                0.00010000                2.01213990                2.34080106               -7.04103739               -1.98401756               10.41543613               -0.55058653
              24.75877556               10.11793193               73.05771856                0.00010000                2.40236969                2.95844244               -8.58427375               -1.49589530                8.04333353               -0.55202627
              25.78472806                9.60945884               72.65636064                0.00010000                2.73766895                3.36029218               -9.77820403               -0.74602423                4.50651846               -0.71468195
              26.81352894                9.10886461               72.21715743                0.43576187                2.88008844                3.27663717              -10.24034524               -0.27292612                2.15710008               -1.30461279
              17.16958212               15.17707810               75.95079222                0.93645833                0.07377820                0.08020428               -0.29133865               -0.02578226                0.29939846                0.60951575
              18.17031990               14.69061538               75.46980576                0.62364191                0.12085216                0.03900567               -0.18798424               -0.08582636                0.91567366               -0.53523476
              19.17199917               14.20248848               75.00141566                0.37104404                0.62192412               -0.01935278               -0.19688621               -0.58748179                8.69914666               -1.13359549
              20.18275839               13.70431967               74.67752408                0.36364203                1.17477595                0.19692458               -1.36532778               -0.55262236               14.96793009               -0.42478130
              21.19549468               13.19864520               74.34548994                0.36092049                1.34542143                0.61525370               -2.60064645               -0.64026751               14.01492307               -0.41030330
              22.20966682               12.68696250               74.00869619                0.36273937                1.47848256                1.10257232               -3.96386682               -0.77157525               13.29747975               -0.38907885
              23.22506434               12.17201775               73.66525511                0.36901700                1.61483065                1.67484713               -5.47002614               -0.83564054               12.38194501               -0.38929417
              24.24196343               11.65718655               73.31107796                0.38020590                1.82131832                2.27812163               -7.07013638               -0.76766272               10.95720734               -0.41488307
              25.26149070               11.14609897               72.93939860                0.39662120                2.16827600                2.81670373               -8.61622721               -0.53633426                8.66474063               -0.49045740
              26.28532895               10.64102959               72.54069227                0.41875155                2.61964144                3.15707572               -9.83890662               -0.23271428                5.08371388               -0.65665136
              27.31388353               10.14024291               72.10140433                0.71830513                2.85545825                3.13782935              -10.30859955               -0.04321004                2.68787270               -1.20749027
              12.75140414                5.32138408               78.31520820                1.00000000               -0.12117240               -0.10710780                0.38779252               -0.00481695               -0.38899802                0.48594162
              13.75019241                4.83292414               77.88241799                1.00000000               -0.12695136               -0.11204181                0.40409518                0.00742853               -0.47216033                0.05428999
              14.74886511                4.34421890               77.44741502                1.00000000               -0.13704291               -0.11434903                0.41954498                0.00798727               -0.49235132               -0.05089430
              15.74745156                3.85511313               77.01406751                0.66067948               -0.15859344               -0.11776000                0.43193984               -0.02305736               -0.45232847               -0.29741249
              16.74569324                3.36514203               76.58010585                0.47345786               -0.17757182               -0.11577192                0.44781737               -0.04508999               -0.44077177               -0.30125698
              17.74390012                2.87443248               76.14752262                0.13763476               -1.17989915               -0.13477784                0.45190545               -0.96132586                0.88815306               -0.55958900
              18.72209526                2.36527458               75.74106658                0.00010000               -3.39208815                1.09181746                0.39056810               -5.60506127                9.80052884               -2.88008617
              19.67605836                1.74432615               75.48201923                0.00010000               -1.08183942               -0.39633174               -1.11980539               -5.48647050               18.33813344                0.13717899
              20.70045847                1.10676808               75.22228611                0.00010000                5.33590791               -1.49640920               -1.96984220               -5.31245217               18.13860823                0.41920359
              21.78277651                0.45970619               74.95550610                1.00000000                4.48200722                0.60775875               -2.45653219               -5.20799125                8.62548602               -0.04311764
              22.79009861               -0.07990440               74.51648803                1.00000000                0.73221004                0.58585941               -2.36137312               -0.13807263                0.00036554               -0.03906271
              13.23981591                6.32031300               78.17802331                1.00000000               -0.09666235               -0.09762509                0.32185290               -0.00695039                0.02200719                0.67963748
              14.23884929                5.83180372               77.74506722                1.00000000               -0.09827109               -0.10494509                0.33915439                0.00550316                0.09697887                0.07769539
              15.23785049                5.34307541               77.31313465                1.00000000               -0.10449339               -0.10822059                0.35576749                0.00475274                0.16145829               -0.23857206
              16.23675942                4.85393553               76.88139381                0.82382813               -0.11339115               -0.11722496                0.38009335               -0.01520100                0.23951240               -0.24488531
              17.23558267                4.36398431               76.45134534                0.68810380               -0.12694168               -0.11701912                0.38334456               -0.03608464                0.22461283               -0.22849106
              18.23422059                3.87308470               76.02001143                0.34902576               -0.22424263               -0.12879784                0.38927358               -0.31295321                0.25340172               -0.41170928
              19.23109781                3.37619275               75.59161654                0.00010000                0.81131584                0.44882672                0.37039582               -6.34990875                9.42026210               -1.57089809
              20.25044690                2.74036283               75.34431479                0.00010000                2.92730559               -1.81263516               -0.97443284               -8.75800623               17.33522159                0.48006934
              21.28964392                2.09180398               75.07003436                0.00010000                3.67929690               -0.99022848               -1.54735279               -7.21359718               15.67806899                0.37368308
              22.32403284                1.46578378               74.78465728                1.00000000                1.93422790                0.48719708               -1.51058389               -4.15406282                7.68939794               -0.00114470
              23.32832848                0.92595419               74.34557477                1.00000000                0.42956424                0.47295661               -1.42696285               -0.16273723               -0.00042752               -0.03390658
              13.72828369                7.31943158               78.04397733                1.00000000               -0.07436296               -0.07455984                0.25376391               -0.00981447                0.15690379                0.79742950
              14.72754006                6.83082523               77.60787989                1.00000000               -0.07276684               -0.08994772                0.27436255                0.00011520                0.34802651               -0.00035156
              15.72682836                6.34205449               77.17520636                0.00010000               -0.06507131               -0.09165283                0.29338322               -0.01751600                0.90698772               -0.67253780
              16.72623864                5.85276863               76.75029769                0.00010000               -0.05029917               -0.62093236                0.33112928               -0.33394902                1.25541139                0.22621954
              17.72582237                5.36280165               76.32501587                0.00010000               -0.04030138               -1.09116894                0.31586047               -0.24204997                1.04599976                1.17155117
              18.72543261                4.87185652               75.89684443                0.00010000                0.09982910               -1.84690099                0.32508264                0.16294927                1.04288936                2.49028334
              19.72781896                4.37425111               75.47285574                0.00010000                2.99271947               -4.20601874                0.29158444               -6.33042085                9.65241409                5.08908460
              20.78528700                3.70807344               75.21956205                0.00010000                5.14733087               -2.62384465               -1.51226108              -11.35153980               15.44276865                1.69719595
              21.83076557                3.08696351               74.91823923                0.00010000                4.01290242               -0.42172651               -1.84474434               -8.95070597               13.01569319               -0.24990357
              22.86554505                2.46945014               74.61464092                0.00010000                1.78687358                0.24539808               -0.52967893               -3.76206058                6.77889072               -0.22551237
              23.86650305                1.92955473               74.17529055                1.00000000                0.09579966                0.25294870               -0.45624363               -0.14806738                0.02154279               -0.30085033
              14.21683231                8.31882180               77.90847904                1.00000000               -0.06036289               -0.04459476                0.18744867               -0.00677979                0.26415703                0.68007195
              15.21622868                7.83000476               77.46873496                0.45835858               -0.06377648               -0.08026317                0.21454484                0.01220181                0.45237162               -0.36678671
              16.21555678                7.34124236               77.03243229                0.00010000               -0.34476967               -0.11870688                0.22595757               -0.50495931                2.19438630               -1.18789146
              17.20933328                6.84151688               76.62761048                0.00010000               -0.19515028               -0.94249040               -0.17979048               -1.25281777                3.95961641                0.32704184
              18.21165377                6.34216093               76.22525144                0.00010000                0.83484103               -1.92091045               -0.59683786               -1.25052889                4.38289561                2.01852258
              19.22603010                5.83614668               75.82884663                0.00010000                2.83093526               -3.53179171               -1.09926319               -2.39047987                5.84969764                4.24998010
              20.26827248                5.29207238               75.45858982                0.00010000                4.23368045               -6.10755419               -1.85870825               -5.72928565                7.53511317                7.08430865
              21.31070371                4.68788593               75.10558830                0.00010000                4.04903182               -1.60259706               -2.54762400               -9.75460477                8.12343205                2.47753495
              22.34925311                4.08336945               74.75926235                0.00010000                4.77483455                0.15689167               -2.91042447              -10.85796797                8.74232756                0.36331711
              23.40620040                3.47069174               74.43856819                0.00010000                2.79524152                2.72086272               -3.14946536               -8.77215688                2.69509775               -0.99297656
              24.40515794                2.93101317               73.99890150                0.42261163               -0.10424612                4.48655949               -0.77841530               -5.41550774               -2.86614440                1.64503218
              14.70578218                9.31853968               77.77149092                1.00000000               -0.04186297               -0.01659664                0.12115081               -0.00735225               -0.00728436                0.59226667
              15.70536355                8.82921997               77.32406564                0.33450845               -0.02825612               -0.07268790                0.16664543                0.00004689                0.39764168               -0.54951708
              16.70521706                8.33968035               76.88448155                0.00010000               -0.25499203               -0.18509271                0.16472553               -0.79700903                3.42686301               -1.73917128
              17.70026371                7.83391882               76.49783497                0.00010000                0.04824691               -0.67706692               -0.56741790               -1.65806580                6.26687488               -0.37543089
              18.70618199                7.32438344               76.11386040                0.00010000                1.37239286               -1.54287381               -1.32259970               -2.28605012                6.66774584                0.87651494
              19.72771157                6.80122069               75.73552246                0.00010000                2.76559973               -2.68635828               -2.16955555               -4.07419294                7.07908156                2.10036390
              20.76149399                6.25210003               75.36361879                0.00010000                3.55931319               -2.75538753               -3.07159308               -7.49443518                7.12661880                2.43216226
              21.79889783                5.67602150               74.99460580                0.00010000                3.46532087               -0.53326115               -3.87749523              -10.01977841                6.43389219                2.24247506
              22.83080041                5.09010134               74.62154847                0.00010000                2.17801841                1.66238382               -4.37107946              -10.32621806                4.09411763                1.76253664
              23.84245820                4.52386739               74.22098617                0.00010000                0.33748172                5.25033422               -4.30814119               -8.47712056                1.94742237               -0.33882710
              24.83755004                4.01928592               73.80814001                0.42380289               -0.49081569                7.16971588               -4.18754459               -5.06615493                1.89022265                0.28417174
              15.19532468               10.31848987               77.63374123                1.00000000               -0.02357390                0.00385842                0.04847753               -0.00793654                0.00194910                0.60451187
              16.19508894                9.82855100               77.18122828                0.33641768               -0.02034670               -0.05774558                0.11634893               -0.04385906                0.12849198               -0.44536130
              17.19491775                9.33754050               76.73107738                0.00010000               -0.18100296               -0.18125813                0.15258278               -1.03088059                4.25719692               -1.85052123
              18.19146888                8.82797554               76.36140708                0.00010000                0.18565758               -0.48007857               -0.83920641               -2.22806508                8.21978386               -0.95757138
              19.19863090                8.31130345               75.99011900                0.00010000                1.26803847               -0.94624894               -1.82957390               -3.20243764                8.15281204               -0.15422312
              20.21682965                7.78241951               75.61979674                0.00010000                2.24760299               -1.22844751               -2.88190075               -5.00881667                8.03799858                0.51037824
              21.24358296                7.23696463               75.24925186                0.00010000                2.77385905               -0.74258692               -3.96980582               -7.22218381                7.49491254                1.00222732
              22.27230683                6.67722071               74.87423866                0.00010000                2.56499516                0.75865618               -4.97318754               -8.72998331                6.22584180                1.35546203
              23.29488286                6.11661713               74.48709341                0.00010000                1.75832888                2.89566068               -5.72527140               -8.37559362                4.34776750                1.55612764
              24.30747341                5.57569843               74.08265286                0.00010000                0.90574593                4.83764410               -6.11258922               -5.19749531                2.18475348                1.97245108
              25.31299778                5.07440749               73.65565969                0.42494733                0.55243694                5.06624101               -6.03895256               -2.30027625                1.07926198                1.03199514
              15.68550118               11.31861685               77.49662925                1.00000000               -0.00654412                0.02213443               -0.02082207               -0.00523977               -0.00186889                0.67071073
              16.68543574               10.82806506               77.03867114                0.36336098               -0.01631343               -0.04075780                0.06963681               -0.06150768                0.03073568               -0.43134332
              17.68517491               10.33605519               76.58128523                0.00010000               -0.17481415               -0.12447153                0.14576316               -1.12102533                4.87666060               -1.61394761
              18.68193945                9.82431725               76.22057368                0.00010000                0.12571786               -0.21098930               -1.00626516               -2.47049171                9.57528469               -1.29714389
              19.68768927                9.30545846               75.85769197                0.00010000                0.99673023               -0.27819982               -2.14698141               -3.48418014                9.33116610               -0.82610409
              20.70187406                8.77665174               75.49304326                0.00010000                1.72799246               -0.13612570               -3.33853024               -4.87855675                8.95146855               -0.35335591
              21.72224912                8.23724829               75.12476786                0.00010000                2.13858010                0.49260947               -4.56698155               -6.26854801                8.18102932                0.10150891
              22.74464566                7.69119462               74.74864832                0.00010000                2.12808513                1.69878066               -5.74489475               -6.93559633                6.85321852                0.54032597
              23.76481082                7.14801455               74.35915842                0.00010000                1.80361380                3.15390198               -6.72370232               -6.14380697                4.95326389                0.94488262
              24.78071794                6.62062027               73.95065228                0.00010000                1.46577903                4.23005179               -7.33105517               -3.65864720                2.61270193                1.00981437
              25.79412640                6.12061074               73.51934690                0.42614198                1.34084628                4.26229514               -7.42235454               -1.61524876                1.25165904                0.37653101
              16.17632347               12.31893256               77.35985870                1.00000000                0.00969809                0.04140569               -0.08662362               -0.00313779                0.00193901                0.71164390
              17.17642045               11.82773585               76.89626849                0.38736098               -0.00392073               -0.02553997                0.02497026               -0.06127607                0.02740211               -0.44412133
              18.17624505               11.33505107               76.43318533                0.00010000               -0.18823332               -0.08809821                0.13377662               -1.05685779                5.43195050               -1.55222270
              19.17265578               10.82375575               76.07811177                0.00010000                0.01838767                0.07560175               -1.09858860               -2.31924398               10.65272929               -1.39391591
              20.17661281               10.30573946               75.72104432                0.00010000                0.74064517                0.24091486               -2.32538024               -3.18473118               10.32278539               -1.12378456
              21.18746868                9.77969700               75.36083428                0.00010000                1.35281528                0.56107059               -3.59769465               -4.17754615                9.80543869               -0.79231594
              22.20366911                9.24681682               74.99524642                0.00010000                1.76799796                1.17682488               -4.91007639               -4.96735960                8.93969453               -0.44214319
              23.22282864                8.71119632               74.62030612                0.00010000                1.94559819                2.08397632               -6.18791277               -5.12634300                7.56318017               -0.10095475
              24.24258108                8.17969517               74.23072277                0.00010000                1.94378175                3.06107549               -7.28826117               -4.31077610                5.58742946                0.13534569
              25.26170428                7.66029946               73.82081356                0.00010000                1.90653951                3.70469289               -8.01558588               -2.48138744                3.01823243                0.06640926
              26.28071187                7.15965339               73.38539188                0.42737179                1.90075866                3.57097099               -8.16588973               -1.07794101                1.41266508               -0.61516905
              16.66783184               13.31944496               77.22323389                1.00000000                0.02598621                0.05987770               -0.15544167               -0.00278280                0.00417480                0.71365033
              17.66809170               12.82755426               76.75371282                0.41572833                0.00930035               -0.01021022               -0.01544979               -0.05482809                0.05969072               -0.48425260
              18.66801785               12.33429323               76.28537237                0.00010000               -0.16127583               -0.06774438                0.12051876               -0.85354858                6.05119624               -1.33451742
              19.66486619               11.82582928               75.93622198                0.00010000                0.00177737                0.28447620               -1.15346910               -1.83858967               11.68640222               -1.27442171
              20.66805340               11.31027675               75.58367329                0.00010000                0.61897943                0.56141716               -2.41944939               -2.49577758               11.19693276               -1.07682951
              21.67724578               10.78787315               75.22720843                0.00010000                1.16746017                0.93539255               -3.72884090               -3.13186458               10.57372451               -0.85454501
              22.69140260               10.26078479               74.86433738                0.00010000                1.59973356                1.47237471               -5.07640150               -3.52875158                9.63376472               -0.62443732
              23.70924045                9.73287415               74.49116234                0.00010000                1.90447794                2.14246529               -6.39429206               -3.44651989                8.20101188               -0.42027828
              24.72949216                9.20923606               74.10230883                0.00010000                2.09457610                2.80361784               -7.54189010               -2.73642995                6.12275272               -0.32823278
              25.75113197                8.69471413               73.69147141                0.00010000                2.21837849                3.20782023               -8.31370274               -1.48485673                3.34158247               -0.51185711
              26.77385973                8.19203016               73.25257394                0.42826960                2.27277590                3.00244263               -8.48133209               -0.60366013                1.57340115               -1.18110087
              17.16004922               14.32013011               77.08622850                0.92869870                0.04264048                0.07712784               -0.22061355               -0.00218335                0.04088422                0.63498816
              18.16047562               13.82753164               76.61082976                0.33248175                0.04249201                0.00551370               -0.05773253               -0.04659681                0.38661009               -0.49726389
              19.16089906               13.33369618               76.14249830                0.00010000               -0.02875819               -0.06279539                0.06580344               -0.57424413                6.83585263               -1.08537849
              20.15990046               12.82944528               75.79685658                0.00010000                0.18771645                0.33539018               -1.20784121               -1.06378503               12.58891817               -0.82008020
              21.16465339               12.31696780               75.44874963                0.00010000                0.72114504                0.67639467               -2.49316525               -1.44850633               11.98913172               -0.67910854
              22.17432336               11.79840485               75.09554419                0.00010000                1.17198453                1.08498559               -3.81659253               -1.76075859               11.23719783               -0.56106174
              23.18809308               11.27626431               74.73526382                0.00010000                1.55618057                1.57603754               -5.17561607               -1.91836376               10.23857036               -0.44280750
              24.20544697               10.75404563               74.36412027                0.00010000                1.89597099                2.10770261               -6.50655135               -1.79666001                8.76962810               -0.34515814
              25.22601250               10.23576753               73.97662414                0.00010000                2.18830375                2.58390446               -7.67297181               -1.33485808                6.61806456               -0.32313268
              26.24921305                9.72445587               73.56575963                0.00010000                2.39970508                2.85836653               -8.46212796               -0.65276401                3.64058420               -0.47638741
              27.27400660                9.21970224               73.12392823                0.42953819                2.47935531                2.70834406               -8.61330808               -0.20635323                1.73461007               -1.01925996
              17.65298511               15.32098752               76.94783911                0.94473098                0.06085866                0.08574067               -0.29756314               -0.03870934                0.29133632                0.57067231
              18.65359370               14.82766453               76.46841017                0.63298737                0.08171110                0.01328886               -0.09739512               -0.08570260                0.86005857               -0.49811425
              19.65461933               14.33303732               76.00059603                0.37026971                0.33625857               -0.06588648                0.01038131               -0.38434492                7.94656591               -1.08154323
              20.66031887               13.83253709               75.66403122                0.36348937                0.77521814                0.30918076               -1.31452707               -0.41979250               13.59500870               -0.38680974
              21.67012370               13.32380465               75.31913425                0.36084486                1.12076124                0.68368479               -2.61875853               -0.60118038               12.60039956               -0.35380541
              22.68273409               12.80957286               74.96868757                0.36270289                1.36354249                1.11680090               -3.96204094               -0.73388208               11.76949324               -0.31467492
              23.69739455               12.29230554               74.61075943                0.36831692                1.55349686                1.60412279               -5.34255027               -0.79708611               10.73941368               -0.29021044
              24.71380403               11.77502820               74.24184487                0.37846372                1.74951071                2.09825727               -6.70080661               -0.73386334                9.29317950               -0.28509869
              25.73238476               11.26091415               73.85661849                0.39342522                2.01689721                2.51466256               -7.90356566               -0.52011094                7.19121018               -0.32857143
              26.75414197               10.75188146               73.44795417                0.41394913                2.34275786                2.74255927               -8.73960740               -0.24296260                4.14675916               -0.46759751
              27.77923992               10.24619704               73.00596527                0.71521380                2.50979419                2.64948018               -8.89723056               -0.04510999                2.15888419               -0.92485054
              13.18021370                5.46374126               79.31845754                1.00000000               -0.09426287               -0.07138266                0.26519120                0.00738933               -0.38968078                0.48271715
              14.17927107                4.97114208               78.88617223                1.00000000               -0.10961357               -0.09689018                0.34721237                0.01748466               -0.47461931                0.05447768
              15.17802143                4.47832489               78.45166290                1.00000000               -0.13872486               -0.11879175                0.42755162                0.01798605               -0.49685616               -0.04755383
              16.17649658                3.98515279               78.01877909                0.66870664               -0.17692663               -0.14245627                0.50511382               -0.00915313               -0.45498057               -0.28198229
              17.17448290                3.49122515               77.58531468                0.47883542               -0.21271973               -0.16205691                0.58574771               -0.02809326               -0.44363710               -0.29862560
              18.17224218                2.99666389               77.15315216                0.13881901               -1.04600256               -0.20115754                0.66398811               -0.79755385                0.80320648               -0.56006626
              19.15356285                2.48661663               76.74549135                0.00010000               -2.70873731                0.83101280                0.48351889               -4.79319480                9.12087679               -2.66752959
              20.11806744                1.88163307               76.47230583                0.00010000               -0.47555818               -0.67447115               -0.83415290               -4.70648813               16.98698751               -0.05225573
              21.14405168                1.25974473               76.20357402                0.00010000                5.16995728               -1.56405674               -1.77763536               -4.63140999               17.15242447                0.18079572
              22.22146658                0.62523961               75.93099214                1.00000000                4.22937206                0.58988690               -2.43370405               -4.57888604                8.27421659               -0.04894734
              23.22863913                0.08568813               75.49331696                1.00000000                0.71725435                0.53384015               -2.24842393               -0.11744101               -0.01009441               -0.06836423
              13.67288677                6.46302743               79.18067213                1.00000000               -0.07326698               -0.06366912                0.21080135               -0.00506015                0.01948484                0.67320710
              14.67215410                5.97017318               78.74823171                1.00000000               -0.08454188               -0.09157698                0.29401352                0.00560970                0.09317898                0.07784399
              15.67119594                5.47713697               78.31680442                1.00000000               -0.10995954               -0.11464535                0.37571676                0.00479932                0.16156736               -0.23257748
              16.66995491                4.98372823               77.88564188                0.84284196               -0.13747601               -0.14304319                0.46450125               -0.01248910                0.23631978               -0.22499402
              17.66844642                4.48960458               77.45598397                0.70282699               -0.16920030               -0.16433559                0.53746365               -0.03115275                0.21912365               -0.22283584
              18.66657091                3.99465231               77.02509340                0.36247397               -0.26500538               -0.19788304                0.61828745               -0.25062229                0.24970502               -0.40692759
              19.66314631                3.49492675               76.59702198                0.00010000                0.89337989                0.27024407                0.69913778               -5.51836318                8.71337401               -1.50265217
              20.68443851                2.87488836               76.33595998                0.00010000                3.13940035               -1.93771041               -0.71387837               -7.62533828               16.27174791                0.06170342
              21.72593432                2.24410416               76.05539121                0.00010000                3.91337561               -1.19226567               -1.42240753               -6.27107582               15.22511959               -0.23056287
              22.76270602                1.63113848               75.76948295                1.00000000                2.05409379                0.45934194               -1.54001140               -3.51425429                7.58857034               -0.04394879
              23.76701619                1.09102653               75.33159347                1.00000000                0.43101739                0.40387946               -1.37334972               -0.13412023                0.00523522               -0.09911709
              14.16582101                7.46246787               79.04600489                1.00000000               -0.05472799               -0.04444843                0.15452261               -0.00764840                0.15297805                0.78822903
              15.16527373                6.96931054               78.61045806                1.00000000               -0.06293192               -0.08017437                0.24138691                0.00073148                0.34269202                0.00236284
              16.16456237                6.47603198               78.17831609                0.00010000               -0.07472720               -0.10249662                0.32603434               -0.01592276                0.91028469               -0.66657310
              17.16377918                5.98229193               77.75410435                0.00010000               -0.08133056               -0.61867197                0.42556311               -0.29556043                1.24792344                0.02285923
              18.16293576                5.48793844               77.32904566                0.00010000               -0.09358076               -1.06753053                0.48440532               -0.19116647                1.03566956                0.76605143
              19.16190757                4.99270623               76.90135933                0.00010000                0.00118908               -1.75349740                0.57081786                0.22166622                1.04027274                1.84345367
              20.16295954                4.49202151               76.47759349                0.00010000                2.72378501               -3.87468481                0.64739067               -5.44170287                8.75472884                4.09264086
              21.21638327                3.84287886               76.20678620                0.00010000                4.97102561               -2.53674001               -1.10688610              -10.00524604               14.23613787                0.72005496
              22.26238005                3.23589941               75.89998548                0.00010000                4.39379262               -0.65281853               -1.77528111               -8.38834550               13.21488907               -1.15730991
              23.30425912                2.63442645               75.60799439                0.00010000                2.19002791                1.76729256               -0.73744381               -6.20378630                7.29501166               -3.67212320
              24.30618061                2.09376572               75.16989964                0.95436674                0.19214889                3.09958677               -0.58153638               -3.03363654                0.06955537               -1.45677255
              14.65904848                8.46213846               78.90990752                1.00000000               -0.04438506               -0.01963198                0.10090887               -0.00318850                0.25796148                0.66776882
              15.65860463                7.96856969               78.47077938                0.47503665               -0.05761908               -0.07458977                0.19418045                0.01363498                0.43772104               -0.35405548
              16.65789609                7.47508704               78.03492817                0.00010000               -0.32336900               -0.13417057                0.27048689               -0.47110060                1.96686195               -1.17771059
              17.65213725                6.97135479               77.62644451                0.00010000               -0.18436553               -0.93034268               -0.05425929               -1.14645513                3.48945311               -0.05183563
              18.65420878                6.46825397               77.22043438                0.00010000                0.73919604               -1.83888923               -0.37391734               -1.08380951                3.83818566                1.27613263
              19.66692117                5.95958237               76.81970792                0.00010000                2.49654165               -3.27949737               -0.74651002               -2.02574680                5.12318434                3.08950061
              20.70413962                5.41743306               76.44288559                0.00010000                3.67672572               -5.54333966               -1.35642261               -4.84433410                6.68165638                5.44749156
              21.74045568                4.82415356               76.08286643                0.00010000                3.12401026               -1.48246867               -1.97417720               -8.52577396                7.73418348                1.17712015
              22.76661982                4.23104779               75.73822941                0.00010000                2.01541505                0.39155200               -2.10315489               -8.28362319                6.80384521               -1.28766677
              23.78076398                3.66648433               75.37344791                0.00010000                1.05225454                3.20525891               -4.74122868               -5.78904085                2.23295887               -3.68539686
              24.78766491                3.15301827               74.98131538                0.41718676                0.69009311                4.84659312               -2.81528927               -3.24965554                0.85649130               -1.18885507
              15.15289478                9.46207523               78.77230861                1.00000000               -0.02969324                0.00290511                0.04625491               -0.00233360               -0.00696076                0.57363945
              16.15259785                8.96781874               78.32571473                0.35539366               -0.02697613               -0.07186135                0.16402658                0.00118939                0.37174243               -0.53004817
              17.15235526                8.47334857               77.88646058                0.00010000               -0.24573512               -0.20190824                0.22784817               -0.74857407                3.01418606               -1.69235627
              18.14768314                7.96368507               77.49288854                0.00010000                0.03383650               -0.68911595               -0.42171844               -1.54155293                5.43313277               -0.62551609
              19.15303199                7.45116066               77.10193368                0.00010000                1.22652010               -1.48950673               -1.06864140               -2.04606281                5.73444285                0.34053857
              20.17221355                6.92711628               76.71602296                0.00010000                2.42348374               -2.51106798               -1.76054858               -3.54449374                6.04353932                1.27833220
              21.20150166                6.38115471               76.33621668                0.00010000                3.00197560               -2.53245421               -2.47308735               -6.43763083                6.12511033                1.38663488
              22.23225306                5.81322949               75.96065372                0.00010000                2.64375777               -0.51528805               -3.07276842               -8.23482153                5.56205929                0.93904239
              23.25437682                5.24373045               75.58124444                0.00010000                1.71273807                1.58854800               -3.59959736               -7.46789447                3.92262355               -0.18444894
              24.26650782                4.69853163               75.18758678                0.00010000                0.68713997                3.12849864               -3.31325083               -4.53838190                1.80895200               -0.98155582
              25.26811962                4.19069758               74.76971474                0.41810887                0.16117969                3.69273241               -3.51264430               -2.69006401                0.97066654               -2.65223947
              15.64751479               10.46219656               78.63391530                1.00000000               -0.01597090                0.02122225               -0.01032817               -0.00177434                0.00277980                0.58297527
              16.64735508                9.96713246               78.18244048                0.35993696               -0.02282505               -0.06286165                0.12661595               -0.03933553                0.11623702               -0.42599388
              17.64705828                9.47104887               77.73308523                0.00010000               -0.19304878               -0.20130964                0.24187439               -0.96812510                3.71233088               -1.77006332
              18.64349410                8.95757247               77.35378289                0.00010000                0.13990169               -0.50161455               -0.68508833               -2.07351316                7.11052725               -1.08083263
              19.64985632                8.43846384               76.97312704                0.00010000                1.12715669               -0.93141607               -1.57264107               -2.87915943                6.96957885               -0.46880990
              20.66603723                7.90936101               76.59319448                0.00010000                1.97087366               -1.18387690               -2.46365772               -4.38185707                6.77421833                0.00672838
              21.68927379                7.36678397               76.21311598                0.00010000                2.35731393               -0.75478658               -3.32854030               -6.14101137                6.23859338                0.28720843
              22.71318351                6.81384780               75.82952566                0.00010000                2.13430030                0.54589544               -4.08890560               -7.12685190                5.16277236                0.34748555
              23.73195980                6.26281875               75.43678698                0.00010000                1.49228491                2.10582020               -4.58031423               -6.40483219                3.58326685                0.24582062
              24.74302921                5.72905430               75.02874083                0.00010000                0.87859595                3.14171380               -4.82008330               -3.87356950                1.82220711               -0.09882538
              25.74953172                5.22687292               74.60358102                0.41935258                0.65025051                3.41143609               -4.74567764               -1.77962025                1.03006692               -0.97048851
              16.14298750               11.46249968               78.49617432                1.00000000               -0.00286696                0.03873415               -0.06788074               -0.00133985               -0.00002615                0.64891309
              17.14295883               10.96656151               78.03949206                0.38824052               -0.02173731               -0.05092872                0.09292376               -0.05345075                0.02938460               -0.40857486
              18.14255275               10.46932238               77.58332147                0.00010000               -0.20804542               -0.15443326                0.25220886               -1.04377442                4.24606535               -1.53267807
              19.13879792                9.95365278               77.21125188                0.00010000                0.05537557               -0.24122943               -0.85690657               -2.28697860                8.28653564               -1.31286179
              20.14366026                9.43253234               76.83739470                0.00010000                0.87291769               -0.30086973               -1.91173605               -3.13127159                7.98464910               -0.95270439
              21.15625627                8.90343874               76.46167495                0.00010000                1.52671909               -0.18135857               -2.95165830               -4.27720470                7.52776363               -0.60123361
              22.17419464                8.36605898               76.08242503                0.00010000                1.87124883                0.34563321               -3.95631493               -5.35519994                6.74773890               -0.29451209
              23.19368125                7.82414740               75.69628888                0.00010000                1.84395144                1.30697407               -4.84727268               -5.74107555                5.54822213               -0.05208054
              24.21107367                7.28584686               75.29887315                0.00010000                1.56505060                2.38010943               -5.52455919               -4.93320892                3.95299406                0.07688146
              25.22498226                6.76136590               74.88604557                0.00010000                1.29081549                3.11424979               -5.88663194               -2.85655259                2.06609399               -0.06470124
              26.23688998                6.25892631               74.45437688                0.42008064                1.19077213                3.03537637               -5.87993186               -1.25790430                1.00873975               -0.86294006
              16.63936433               12.46297125               78.35879137                1.00000000                0.00990366                0.05509827               -0.12487410               -0.00051776                0.00216519                0.68644393
              17.63946336               11.96611389               77.89671299                0.41478645               -0.01364004               -0.03862566                0.06146183               -0.05263592                0.02915137               -0.41613373
              18.63909152               11.46796021               77.43516596                0.00010000               -0.24593956               -0.12712478                0.25215684               -0.96634653                4.74555923               -1.46963267
              19.63454457               10.95274788               77.06778382                0.00010000               -0.08233006                0.04338557               -0.96444799               -2.12320944                9.25575162               -1.33749765
              20.63744492               10.43244644               76.69873473                0.00010000                0.62109611                0.20662647               -2.13001854               -2.85440823                8.87952696               -1.11554279
              21.64696649                9.90573384               76.32650007                0.00010000                1.20081065                0.48466706               -3.27377029               -3.68129024                8.29230164               -0.84536190
              22.66146114                9.37369664               75.94897966                0.00010000                1.58038179                0.98784446               -4.37904727               -4.29064233                7.40580789               -0.57334392
              23.67857413                8.83998728               75.56291505                0.00010000                1.73079896                1.70017036               -5.37926661               -4.33008635                6.13357637               -0.33772876
              24.69607712                8.31042094               75.16425198                0.00010000                1.71222900                2.43086173               -6.16796940               -3.55567785                4.44609062               -0.22631370
              25.71281871                7.79133930               74.74876151                0.00010000                1.65878532                2.86373157               -6.62267056               -2.00370462                2.37205076               -0.41525368
              26.72925282                7.28758045               74.31279107                0.42124529                1.64341133                2.68127460               -6.63074032               -0.84955558                1.13372853               -1.11576830
              17.13669186               13.46360164               78.22152619                1.00000000                0.02252872                0.06996760               -0.18379856                0.00013835                0.00624574                0.68650511
              18.13691714               12.96578900               77.75382746                0.44591755               -0.00500152               -0.02655957                0.03489976               -0.04696821                0.06167284               -0.45179334
              19.13659183               12.46677988               77.28729967                0.00010000               -0.25348255               -0.11047176                0.25239480               -0.74718331                5.31987278               -1.26523613
              20.13184749               11.95452049               76.92523285                0.00010000               -0.15028429                0.26958456               -1.03913317               -1.63847913               10.21972768               -1.18714298
              21.13358614               11.43666486               76.56013977                0.00010000                0.47663899                0.55015501               -2.27347669               -2.22597640                9.70262819               -0.99890067
              22.14138027               10.91313208               76.19109719                0.00010000                1.02711050                0.87512837               -3.48413867               -2.77584392                9.02074145               -0.79456790
              23.15412835               10.38581587               75.81574508                0.00010000                1.44874751                1.31472204               -4.65493533               -3.08571644                8.06060474               -0.58969540
              24.17035522                9.85815081               75.43085613                0.00010000                1.72398732                1.84161845               -5.72234093               -2.96065033                6.72274638               -0.42036040
              25.18860810                9.33446409               75.03229178                0.00010000                1.86967175                2.33693418               -6.57624502               -2.30449438                4.92698647               -0.37037380
              26.20774866                8.81864053               74.61543393                0.00010000                1.94042389                2.60545162               -7.07415097               -1.22476723                2.65460524               -0.57949432
              27.22741657                8.31255180               74.17592182                0.42238107                1.96679166                2.37538183               -7.07536289               -0.47731759                1.25956956               -1.21717281
              17.63499239               14.46437060               78.08393090                0.94658492                0.03533728                0.08343355               -0.23776983               -0.00004597                0.03328240                0.60262661
              18.63534576               13.96558270               77.61060096                0.36040115                0.02119880               -0.01483564                0.00778106               -0.03864061                0.36140960               -0.46153127
              19.63541636               13.46575077               77.14396882                0.00010000               -0.17278771               -0.10588625                0.21416374               -0.43627624                6.05724426               -1.02777605
              20.63189001               12.95813957               76.78521707                0.00010000               -0.05512799                0.38568440               -1.11107575               -0.90141874               11.07903769               -0.75404348
              21.63431380               12.44344954               76.42419325                0.00010000                0.52043010                0.70675009               -2.39465801               -1.28214898               10.45939836               -0.60677219
              22.64229861               11.92323640               76.05808814                0.00010000                1.02071413                1.06250746               -3.64860802               -1.57036224                9.66113605               -0.48682104
              23.65472809               11.39999108               75.68501260                0.00010000                1.42071481                1.47032213               -4.86164364               -1.69248962                8.64486235               -0.36838540
              24.67071290               10.87681965               75.30181968                0.00010000                1.73847076                1.89422917               -5.97206966               -1.56093613                7.26377106               -0.27267618
              25.68949750               10.35715962               74.90425912                0.00010000                1.97613762                2.25373775               -6.86753036               -1.13869048                5.38479551               -0.25437017
              26.71023566                9.84344833               74.48711808                0.00010000                2.11932200                2.43240160               -7.39124724               -0.54514205                2.92340245               -0.40395107
              27.73188394                9.33508808               74.04489127                0.42337077                2.16482850                2.25600106               -7.36937703               -0.15490292                1.39172649               -0.88436370
              18.13426674               15.46527032               77.94484095                0.95322270                0.04974150                0.08997174               -0.30233613               -0.05036780                0.28154487                0.53166567
              19.13476416               14.96549228               77.46785786                0.64299617                0.05213430               -0.00904121               -0.01848377               -0.08856836                0.80860503               -0.45806075
              20.13530943               14.46466216               77.00162329                0.36927458                0.06780958               -0.10886167                0.17829887               -0.17359885                7.09171950               -1.01612071
              21.13612035               13.96223418               76.65123354                0.36323917                0.37684513                0.40946095               -1.22992624               -0.27008039               12.00773680               -0.35154081
              22.14284633               13.45079987               76.29311477                0.36084094                0.86555733                0.73503219               -2.54952224               -0.53934475               11.01987152               -0.31097827
              23.15343149               12.93438223               75.92945537                0.36253102                1.19244909                1.11458314               -3.83908316               -0.66558901               10.14450428               -0.26674458
              24.16669531               12.41522231               75.55840411                0.36773613                1.42682330                1.52312357               -5.08817931               -0.72061971                9.09149491               -0.23433053
              25.18196796               11.89603539               75.17706182                0.37685662                1.62551476                1.92157404               -6.23829362               -0.65866789                7.72024010               -0.21823570
              26.19920561               11.37953885               74.78132728                0.39044885                1.84746972                2.23792258               -7.17784267               -0.46653073                5.87291792               -0.24806832
              27.21891735               10.86728857               74.36590013                0.40914714                2.09167032                2.38402352               -7.74686172               -0.22518151                3.34444394               -0.36792853
              28.24103901               10.35767182               73.92345972                0.71203390                2.21216585                2.25837374               -7.72923375               -0.04616748                1.72590050               -0.74554578
              13.60818115                5.60660924               80.32051203                1.00000000               -0.06864810               -0.03794424                0.14908676                0.01907837               -0.39104642                0.47977203
              14.60749467                5.10989472               79.88936223                1.00000000               -0.09300159               -0.08199527                0.29144595                0.02736835               -0.47854292                0.05509433
              15.60632112                4.61298478               79.45596605                1.00000000               -0.13972552               -0.12141142                0.43061683                0.02771448               -0.50361631               -0.04380182
              16.60470016                4.11574791               79.02416978                0.67616322               -0.19368466               -0.16375223                0.56759935                0.00291660               -0.46037480               -0.26807313
              17.60244743                3.61783092               78.59182080                0.48610531               -0.24562934               -0.20343127                0.70690596               -0.01334337               -0.44478718               -0.29459650
              18.59978757                3.11934868               78.16080238                0.14794086               -0.85441487               -0.26096900                0.85431485               -0.60949881                0.62956735               -0.56184595
              19.58535913                2.60886273               77.75073696                0.00010000               -2.10360657                0.51748390                0.60435828               -4.25483920                8.32232585               -2.27341793
              20.55771544                2.01597272               77.46533617                0.00010000               -0.02692437               -0.88562033               -0.56962635               -4.12593862               15.60618773               -0.22531941
              21.58482064                1.40674960               77.18673340                0.00010000                5.04012291               -1.59683290               -1.59941127               -4.13108376               15.98119540               -0.04471175
              22.65851790                0.78174564               76.90683202                1.00000000                4.02132261                0.61569178               -2.35697437               -4.12030691                7.80269838                0.02750488
              23.66524710                0.24217529               76.47151955                1.00000000                0.67291935                0.52138869               -2.06185625               -0.06053086               -0.02067082               -0.02070309
              14.10508645                6.60622979               80.18223934                1.00000000               -0.05058711               -0.03242305                0.10568467               -0.00271426                0.01667903                0.66694538
              15.10458058                6.10907477               79.75094749                1.00000000               -0.07073915               -0.07849500                0.24951351                0.00644537                0.08869613                0.07854964
              16.10367167                5.61177067               79.32064898                1.00000000               -0.11371624               -0.11927536                0.39070143                0.00511305                0.16044520               -0.22564999
              17.10230626                5.11411039               78.89068383                0.85950534               -0.15790291               -0.16623697                0.53859856               -0.01033412                0.23482606               -0.20693894
              18.10051361                4.61579661               78.46209461                0.71758568               -0.20647878               -0.20793277                0.67703284               -0.02690219                0.22151493               -0.21631593
              19.09817668                4.11673899               78.03237718                0.38185063               -0.30074487               -0.26188013                0.82948005               -0.19281883                0.26909664               -0.40285864
              20.09449871                3.61403757               77.60559930                0.00010000                0.96679724                0.06887928                1.00169751               -4.87474699                7.95183338               -1.33466523
              21.11751263                3.00711652               77.33003723                0.00010000                3.30623170               -2.02023153               -0.48685155               -6.66769895               15.01986258               -0.27861964
              22.16062335                2.39078127               77.04158621                0.00010000                4.10446800               -1.28852399               -1.35240325               -5.50897220               14.53382426               -0.75993742
              23.19960199                1.78790256               76.75385705                0.91955433                2.17943944                0.51485380               -1.71456771               -3.01894364                7.36390520                0.00475101
              24.20421214                1.24738917               76.31810778                1.00000000                0.46101507                0.42610442               -1.42930248               -0.10950964                0.01770101               -0.08695655
              14.60243692                7.60596077               80.04706778                1.00000000               -0.03542171               -0.01781673                0.06093645               -0.00552810                0.14894553                0.77923492
              15.60208270                7.10832482               79.61270763                1.00000000               -0.05245808               -0.07038912                0.20863654                0.00101805                0.33723734                0.00579602
              16.60138776                6.61059928               79.18172704                0.00010000               -0.08075836               -0.11135069                0.35355690               -0.01722179                0.91211958               -0.65972386
              17.60046754                6.11242317               78.75880895                0.00010000               -0.10534863               -0.62072067                0.51047238               -0.28085651                1.24589261               -0.17105358
              18.59928079                5.61367227               78.33470397                0.00010000               -0.13886504               -1.05005243                0.64104939               -0.18358180                1.04034059                0.37892517
              19.59769024                5.11411107               77.90826079                0.00010000               -0.08970657               -1.67329644                0.80345311                0.22169758                1.07141991                1.23433775
              20.59748666                4.61024032               77.48580356                0.00010000                2.49637674               -3.58192772                0.98489212               -4.71472979                7.85680891                3.11836663
              21.64761777                3.97556809               77.19742433                0.00010000                4.81842541               -2.47778481               -0.83119499               -8.83651324               12.92758730               -0.02593005
              22.69385516                3.38097912               76.88273361                0.00010000                4.69566749               -0.72120582               -1.63811666               -7.47000945               13.20056866               -1.94816492
              23.74153112                2.79204271               76.59989204                0.00010000                2.51142507                1.47444312               -1.09673934               -6.10550585                7.61675941               -5.03299140
              24.74408367                2.25069738               76.16365982                0.51908696                0.25525448                3.00158933               -0.83170161               -4.01749950                0.07748110               -3.39321269
              15.10024780                8.60587346               79.91049722                1.00000000               -0.02853599                0.00219576                0.01975832               -0.00095695                0.25036849                0.65566944
              16.09996244                8.10766698               79.47261857                0.49349664               -0.05094603               -0.06834537                0.17369997                0.01169600                0.42133735               -0.33755250
              17.09922888                7.60954365               79.03784203                0.00010000               -0.31731539               -0.14615521                0.30925587               -0.45159017                1.74732441               -1.16330772
              18.09361613                7.10169598               78.62652530                0.00010000               -0.20374037               -0.91765267                0.06420711               -1.08811840                3.05253737               -0.41843310
              19.09515407                6.59479556               78.21777309                0.00010000                0.62132238               -1.75853609               -0.17070050               -0.99836388                3.36692567                0.55577139
              20.10604258                6.08327306               77.81391643                0.00010000                2.17965121               -3.04051505               -0.44288960               -1.78937140                4.50372750                1.97276478
              21.13874710                5.54239902               77.43146137                0.00010000                3.20004918               -5.03189911               -0.97403352               -4.19167240                6.00491989                3.88101590
              22.17004357                4.95756082               77.06610476                0.00010000                2.80007201               -1.37124861               -1.55111725               -7.42741944                7.27542317                0.02780324
              23.19474854                4.37635715               76.71719925                0.00010000                1.88650216                0.34378359               -2.06871468               -7.58523791                6.74912848               -2.43268625
              24.20777361                3.81739142               76.34374361                0.00010000                0.59021424                2.84503160               -2.65695289               -6.01501850                4.10958028               -7.37329558
              25.20655282                3.30742096               75.94259572                0.41178396               -0.12207852                4.66390572               -3.25476542               -3.56585661                2.40621136               -6.07914985
              15.59883073                9.60600469               79.77241601                1.00000000               -0.01843033                0.02051037               -0.02184637               -0.00057222               -0.00360028                0.55733836
              16.59864643                9.10695791               79.32734617                0.37796303               -0.02518833               -0.07065948                0.16054826               -0.00236049                0.34567409               -0.50717416
              17.59832696                8.60767617               78.88903852                0.00010000               -0.25965834               -0.21326558                0.28361482               -0.71473634                2.60953538               -1.63457792
              18.59345326                8.09407012               78.48940060                0.00010000               -0.02952685               -0.68502139               -0.28342163               -1.45765738                4.64271394               -0.88112223
              19.59773643                7.57850155               78.09248758                0.00010000                1.04230452               -1.41646645               -0.83871469               -1.86562674                4.89674031               -0.20635958
              20.61429935                7.05330077               77.70031149                0.00010000                2.08145063               -2.31854827               -1.42142815               -3.13083541                5.17369466                0.44740490
              21.63936544                6.50960234               77.31415704                0.00010000                2.54059494               -2.29492838               -2.02059770               -5.59405480                5.33966362                0.36406590
              22.66511125                5.94814312               76.93315043                0.00010000                2.14771859               -0.45127813               -2.55880567               -6.99499181                5.04266869               -0.31836337
              23.68231981                5.38785479               76.54955652                0.00010000                1.25278444                1.37738425               -2.96583396               -6.33076461                3.99520557               -1.97419389
              24.69016694                4.84894335               76.15472115                0.00010000                0.51938177                2.89358536               -3.16881253               -3.72646961                2.08144722               -3.26145955
              25.69270745                4.34397549               75.73788713                0.41273027                0.25405083                3.14573079               -3.22053747               -1.62848948                1.04976258               -4.36371492
              16.09832991               10.60628367               79.63353467                1.00000000               -0.00861628                0.03571745               -0.06430972               -0.00126493                0.00339111                0.56260212
              17.09824375               10.10625379               79.18376060                0.38525475               -0.02539829               -0.06684314                0.13590481               -0.03877371                0.10729209               -0.40605320
              18.09782195                9.60527834               78.73591487                0.00010000               -0.23030698               -0.21776397                0.31881207               -0.91244072                3.17386163               -1.68097798
              19.09363761                9.08799555               78.34770531                0.00010000                0.03944686               -0.50055194               -0.53875414               -1.93342189                6.03246727               -1.22577374
              20.09861089                8.56646623               77.95866618                0.00010000                0.93437356               -0.88524301               -1.33758274               -2.59353547                5.87917169               -0.82556862
              21.11232508                8.03690209               77.57052359                0.00010000                1.67063840               -1.09896483               -2.11228484               -3.84330631                5.68544302               -0.55095965
              22.13202365                7.49650045               77.18268105                0.00010000                1.97830982               -0.70539858               -2.84086957               -5.25711509                5.24322007               -0.48239699
              23.15189128                6.94853526               76.79246055                0.00010000                1.76546841                0.43102471               -3.45945346               -5.92724454                4.42703095               -0.71140815
              24.16733302                6.40390483               76.39548712                0.00010000                1.26161170                1.71161994               -3.86852850               -5.07389738                3.19229426               -1.17012542
              25.17712351                5.87526313               75.98625120                0.00010000                0.82928617                2.51811114               -4.01562614               -2.86000549                1.64638378               -1.85445058
              26.18391875                5.37033558               75.56074613                0.41356833                0.67952319                2.50832015               -4.02565664               -1.24619814                0.85138860               -2.78867235
              16.59886518               11.60671904               79.49527163                1.00000000                0.00111010                0.05129521               -0.11119657               -0.00011835                0.00072481                0.62343826
              17.59887628               11.10562105               79.04052961                0.41585550               -0.02643895               -0.05880100                0.11303564               -0.05065097                0.03193162               -0.38403703
              18.59833640               10.60332089               78.58632941                0.00010000               -0.26396719               -0.17990603                0.33973089               -0.96492585                3.61176970               -1.44804120
              19.59359693               10.08405908               78.20343555                0.00010000               -0.06886115               -0.24853609               -0.71316158               -2.09798838                7.00481479               -1.36286228
              20.59695917                9.56079669               77.81945725                0.00010000                0.69010373               -0.28913469               -1.68999740               -2.79306961                6.70572568               -1.14306140
              21.60739901                9.03132148               77.43401009                0.00010000                1.28153972               -0.17672819               -2.61652827               -3.72788108                6.25530659               -0.93857874
              22.62258997                8.49549437               77.04564156                0.00010000                1.58814838                0.27647154               -3.47234999               -4.56056133                5.55489793               -0.80402818
              23.63916198                7.95676362               76.65170287                0.00010000                1.57620163                1.06696183               -4.19437644               -4.75353011                4.54440977               -0.77321190
              24.65411400                7.42208719               76.24866724                0.00010000                1.36870559                1.89227191               -4.70435509               -3.95673187                3.23271086               -0.89715107
              25.66653609                6.89930557               75.83291964                0.00010000                1.17622904                2.36714550               -4.95095931               -2.22313010                1.69551971               -1.25974054
              26.67763858                6.39414189               75.40174826                0.41463310                1.11024944                2.27287543               -4.89988787               -0.94593859                0.85738844               -2.03375851
              17.10052353               12.60730957               79.35736122                1.00000000                0.01053522                0.06582462               -0.15914336                0.00127220                0.00251283                0.65714951
              18.10062888               12.10507777               78.89749773                0.44394369               -0.02190629               -0.04953137                0.09277623               -0.04769719                0.03309115               -0.38566380
              19.10008540               11.60168022               78.43822847                0.00010000               -0.32134145               -0.15676235                0.34939530               -0.86897178                4.04022683               -1.38452876
              20.09420205               11.08302483               78.05882281                0.00010000               -0.22991519                0.02970490               -0.83200051               -1.90864880                7.83298593               -1.32045161
              21.09548710               10.56068354               77.67844395                0.00010000                0.44338659                0.20217669               -1.93575120               -2.51874231                7.46416060               -1.18017690
              22.10306978               10.03336753               77.29535887                0.00010000                0.99415951                0.45361258               -2.97815255               -3.19986894                6.88316911               -1.00432325
              23.11537029                9.50202988               76.90766547                0.00010000                1.35790375                0.87317884               -3.93928766               -3.66136226                6.05781639               -0.84388131
              24.13022786                8.96987450               76.51272078                0.00010000                1.51430717                1.43993487               -4.76154398               -3.61464513                4.94886269               -0.74209534
              25.14565643                8.44175027               76.10736338                0.00010000                1.51891735                1.98671282               -5.36423866               -2.89641889                3.55100389               -0.76989932
              26.16060620                7.92260604               75.68836014                0.00010000                1.48354466                2.27310540               -5.66311843               -1.59496219                1.88448529               -1.04518764
              27.17532732                7.41579309               75.25277708                0.41569649                1.47211203                2.07223043               -5.59412538               -0.65945706                0.91559273               -1.72493974
              17.60335421               13.60803553               79.21955792                1.00000000                0.01974694                0.07791537               -0.20795058                0.00205010                0.00799292                0.65674714
              18.60355168               13.10463042               78.75441081                0.47823979               -0.01721510               -0.04035778                0.07778609               -0.04064358                0.06344024               -0.41631410
              19.60300991               12.60018564               78.29042026                0.00010000               -0.35655206               -0.14315907                0.36045355               -0.63174060                4.55200933               -1.18998690
              20.59642064               12.08465318               77.91543932                0.00010000               -0.33841421                0.26694496               -0.92061888               -1.41453446                8.68987031               -1.13470362
              21.59624163               11.56484022               77.53820376                0.00010000                0.28173235                0.55869088               -2.11292966               -1.93881297                8.19009994               -0.98776679
              22.60205529               11.04039373               77.15752566                0.00010000                0.83070634                0.84713576               -3.23992373               -2.41126652                7.51480577               -0.83356965
              23.61285575               10.51295794               76.77123868                0.00010000                1.25466971                1.21038477               -4.28112904               -2.64714627                6.60854751               -0.68895076
              24.62714868                9.98556231               76.37671553                0.00010000                1.52991669                1.62559561               -5.17948760               -2.49442429                5.42516404               -0.58778986
              25.64345409                9.46182144               75.97078393                0.00010000                1.67226749                1.99471710               -5.84671265               -1.90205258                3.92469785               -0.60074512
              26.66059403                8.94476768               75.54998839                0.00010000                1.73106272                2.16523061               -6.17976227               -0.98960987                2.09888681               -0.83776888
              27.67807534                8.43558650               75.11106668                0.41646877                1.74813096                1.93419891               -6.08670207               -0.36974651                1.00898346               -1.41892761
              18.10737475               14.60886788               79.08147310                0.96659579                0.02911459                0.08825982               -0.25162168                0.00167335                0.02655443                0.56835136
              19.10766589               14.10427062               78.61098538                0.39042549                0.00265428               -0.03204509                0.06363887               -0.03095264                0.33501879               -0.42286563
              20.10742783               13.59881704               78.14678158                0.00010000               -0.32045539               -0.13898348                0.33475590               -0.29193789                5.22412750               -0.96053134
              21.10125679               13.08836373               77.77463506                0.00010000               -0.32287728                0.44100802               -1.00246066               -0.71990993                9.46931502               -0.70891901
              22.10097029               12.57185736               77.40085647                0.00010000                0.27349716                0.74509150               -2.26283376               -1.09979103                8.86921843               -0.57652397
              23.10672673               12.05031024               77.02257203                0.00010000                0.81442444                1.05548830               -3.44972845               -1.36701160                8.08250073               -0.47678778
              24.11725878               11.52623758               76.63803095                0.00010000                1.23745709                1.39389845               -4.54852267               -1.45807956                7.11689405               -0.38284448
              25.13147587               11.00238641               76.24467888                0.00010000                1.55756193                1.73084488               -5.50218065               -1.32279930                5.88478431               -0.31374851
              26.14841002               10.48164461               75.83927354                0.00010000                1.77865379                1.99975094               -6.21731781               -0.94625175                4.30428427               -0.31739189
              27.16704895                9.96591065               75.41793468                0.00010000                1.89423642                2.10955562               -6.57492256               -0.44315831                2.31680185               -0.46744481
              28.18629474                9.45447706               74.97654069                0.41751948                1.92457969                1.92813614               -6.45616964               -0.11518851                1.10900394               -0.88725438
              18.61258220               15.60980073               78.94179239                0.96290643                0.04012684                0.09328498               -0.30547735               -0.06037584                0.27103960                0.49065159
              19.61298347               15.10398952               78.46804049                0.65561665                0.02479245               -0.02810989                0.04891846               -0.08798044                0.75555001               -0.41563407
              20.61307805               14.59740598               78.00416201                0.36856485               -0.20006699               -0.14110656                0.31442223                0.03921217                6.16769780               -0.93869551
              21.60898213               14.09347334               77.63943270                0.36304211               -0.03893794                0.51096126               -1.12301299               -0.11066230               10.29628061               -0.32085952
              22.61229929               13.57974205               77.26814380                0.36095644                0.56763550                0.78846927               -2.42663454               -0.46559226                9.36019188               -0.28394797
              23.62033484               13.06150349               76.89190591                0.36244445                0.96593533                1.11932502               -3.65432535               -0.58449626                8.49910874               -0.24630591
              24.63161799               12.54083591               76.50899585                0.36720780                1.24754109                1.45983344               -4.79232945               -0.63029240                7.49327496               -0.21970139
              25.64528566               12.02017921               76.11707900                0.37527241                1.46934104                1.77927996               -5.78636387               -0.56999384                6.26231637               -0.20764855
              26.66100481               11.50181646               75.71306164                0.38779964                1.68063796                2.01718462               -6.54293881               -0.40154110                4.70418918               -0.23684373
              27.67889842               10.98695879               75.29301693                0.40453478                1.88169623                2.10481416               -6.93854743               -0.19841482                2.66020155               -0.34488403
              28.69863874               10.47414922               74.85138059                0.70905968                1.97403226                1.96721612               -6.82183026               -0.04655688                1.37669600               -0.66122660
              14.03469236                5.74988208               81.32143928                1.00000000               -0.04461716               -0.00714970                0.04028336                0.03030789               -0.39386658                0.47750217
              15.03424619                5.24907346               80.89200114                1.00000000               -0.07754025               -0.06746860                0.23728527                0.03726513               -0.48521685                0.05626126
              16.03314156                4.74808300               80.46027523                1.00000000               -0.14059281               -0.12200158                0.42877393                0.03718225               -0.51418476               -0.03959108
              17.03143433                4.24676323               80.03013108                0.68339153               -0.20935002               -0.18129486                0.61888514                0.01227833               -0.47005453               -0.25605939
              18.02895456                3.74478561               79.59945280                0.49605597               -0.27584802               -0.23905170                0.80874435               -0.00141086               -0.44589487               -0.28920421
              19.02591737                3.24227738               79.17023846                0.16392358               -0.67394875               -0.31406477                1.01908807               -0.41502296                0.41939496               -0.56441998
              20.01547558                2.73142359               78.75757852                0.00010000               -1.58613123                0.17432580                0.83045378               -3.82290628                7.39719639               -1.84950500
              20.99419475                2.14772457               78.46091330                0.00010000                0.33520794               -1.04967597               -0.32709769               -3.64852548               14.17709375               -0.38616764
              22.02217974                1.54914488               78.17158579                0.00010000                4.92698282               -1.62396816               -1.42078088               -3.73812279               14.69009473               -0.21400435
              23.09273440                0.93173964               77.88385266                1.00000000                3.83354597                0.64338382               -2.24530618               -3.77954964                7.22792793                0.00394518
              24.09885066                0.39209761               77.45207983                1.00000000                0.61162541                0.50495243               -1.83454213                0.03760666               -0.02054153               -0.04694063
              14.53580406                6.74981058               81.18278583                1.00000000               -0.02856751               -0.00436963                0.00702851                0.00021275                0.01320611                0.66127830
              15.53551838                6.24839878               80.75322198                1.00000000               -0.05677812               -0.06590439                0.20586691                0.00827106                0.08292321                0.07990968
              16.53466849                5.74686298               80.32461845                1.00000000               -0.11562863               -0.12192715                0.40051123                0.00566934                0.15755690               -0.21774133
              17.53320581                5.24495028               79.89641385                0.87364341               -0.17425621               -0.18669207                0.60156647               -0.00910566                0.23521922               -0.19078606
              18.53118337                4.74239510               79.46952463                0.73295254               -0.23788283               -0.24735747                0.80056252               -0.02386856                0.23365236               -0.20875188
              19.52844815                4.23913674               79.04168300                0.40781319               -0.33302217               -0.32118252                1.02190200               -0.14546174                0.31080213               -0.39963859
              20.52452293                3.73316685               78.61705593                0.00010000                1.02003479               -0.14484150                1.27485621               -4.32261671                7.13722502               -1.12647487
              21.54884885                3.13722781               78.32622295                0.00010000                3.41340236               -2.07159166               -0.30113072               -5.82257181               13.57269651               -0.60973733
              22.59279097                2.53290520               78.02834315                0.00010000                4.23068495               -1.39109083               -1.28500856               -4.86551769               13.52227656               -1.13614423
              23.63346255                1.93817348               77.73519159                0.87061190                2.30388937                0.60702089               -1.98361940               -2.64121903                6.92700942               -0.00565208
              24.63886876                1.39714713               77.30300742                1.00000000                0.54062139                0.46579624               -1.55041979               -0.03543440                0.01657605               -0.10844212
              15.03752023                7.74979469               81.04722362                1.00000000               -0.01610164                0.00465175               -0.02667485               -0.00347652                0.14446157                0.77106403
              16.03735921                7.24775537               80.61463079                1.00000000               -0.04083953               -0.06093401                0.17612258                0.00089743                0.33138115                0.01018769
              17.03670344                6.74564445               80.18538723                0.00010000               -0.08195525               -0.11767852                0.37557536               -0.02293115                0.91302849               -0.65219967
              18.03572011                6.24302939               79.76431380                0.00010000               -0.12063537               -0.62779063                0.58481733               -0.28774326                1.25190809               -0.35701394
              19.03429073                5.73983846               79.34186665                0.00010000               -0.17418624               -1.04046488                0.78504205               -0.21014292                1.06645471                0.00285781
              20.03223638                5.23585373               78.91742839                0.00010000               -0.16792768               -1.60748871                1.02409831                0.17737913                1.14298405                0.63474729
              21.03093218                4.72852676               78.49729133                0.00010000                2.28842900               -3.32334809                1.30152899               -4.10171210                6.91174759                2.12540894
              22.07800496                4.10629273               78.19016230                0.00010000                4.64957683               -2.41221415               -0.65604938               -7.79131393               11.44670442               -0.70964401
              23.12392371                3.52132307               77.86722314                0.00010000                4.88315676               -0.86670277               -1.47116510               -6.56200573               12.71114747               -2.66941398
              24.17566810                2.94388006               77.58605961                0.00010000                2.81354790                1.30079136               -1.68370159               -5.79064815                7.54138935               -5.76392704
              25.18019467                2.40141353               77.15326560                0.40621908                0.45265741                3.00304170               -1.22496118               -4.28584419                0.07743961               -4.46633991
              15.53981315                8.74990362               80.91030268                1.00000000               -0.01265878                0.01949348               -0.05578255               -0.00024025                0.24183317                0.64480237
              16.53968656                8.24718010               80.47425338                0.51279782               -0.04386468               -0.06110734                0.15305537                0.00677047                0.40320502               -0.31844749
              17.53893586                7.74450941               80.04111329                0.00010000               -0.32148134               -0.15301404                0.34175783               -0.44987669                1.53503929               -1.14569734
              18.53325694                7.23239447               79.62772866                0.00010000               -0.23898447               -0.90733880                0.16749861               -1.07776772                2.64370846               -0.77409526
              19.53415617                6.72158580               79.21702037                0.00010000                0.50252493               -1.68490417                0.00324587               -0.98211626                2.94074974               -0.15344723
              20.54330743                6.20698696               78.81085013                0.00010000                1.89467592               -2.81982576               -0.19601009               -1.65521573                3.93668587                0.86914921
              21.57204968                5.66669989               78.42340492                0.00010000                2.84594160               -4.56552064               -0.69147556               -3.67398112                5.28529308                2.32574272
              22.60022627                5.08898352               78.05184408                0.00010000                2.59569241               -1.28931536               -1.33891283               -6.57133760                6.61698790               -0.96911090
              23.62396353                4.51557115               77.69685511                0.00010000                1.86664276                0.23178178               -1.96223027               -6.80038604                6.27622329               -3.47666036
              24.63755912                3.96418931               77.32030885                0.00010000                0.70607009                2.34573966               -2.22055003               -5.71125601                3.89354734               -8.64480475
              25.63808493                3.45720796               76.91622007                0.40658053                0.05258140                4.19296687               -2.36710651               -3.56872224                2.68828860               -7.72472736
              16.04296246                9.75018456               80.77187168                1.00000000               -0.00736381                0.03446853               -0.08449229                0.00074652                0.00033051                0.54155707
              17.04288883                9.24653323               80.32892569                0.40300016               -0.02354674               -0.06760716                0.15448354               -0.00831153                0.31878167               -0.48076297
              18.04249153                8.74258417               79.89213288                0.00010000               -0.29002307               -0.21854924                0.33161213               -0.69978308                2.21297520               -1.56804658
              19.03708836                8.22488261               79.48722011                0.00010000               -0.12178092               -0.66862102               -0.16483373               -1.41542941                3.88456501               -1.14117614
              20.04005591                7.70614038               79.08515939                0.00010000                0.84648046               -1.33015003               -0.64950471               -1.74800433                4.11380785               -0.76360057
              21.05401797                7.17945722               78.68759440                0.00010000                1.77000405               -2.11718779               -1.16221211               -2.82501225                4.36967290               -0.38883864
              22.07545599                6.63721635               78.29580473                0.00010000                2.18444889               -2.05241891               -1.71408081               -4.93996253                4.58834057               -0.62946026
              23.09770695                6.08050643               77.90947760                0.00010000                1.86271082               -0.39581643               -2.25599931               -6.12829248                4.48537899               -1.42437109
              24.11271021                5.52595870               77.52192777                0.00010000                1.10496037                1.23671889               -2.66149816               -5.58300343                3.73965951               -3.22081643
              25.11980616                4.99079485               77.12421053                0.00010000                0.50363517                2.47887443               -2.92875704               -3.37735414                2.14036843               -4.60898183
              26.12278291                4.48527287               76.70530399                0.40748529                0.29767528                2.50151876               -3.04091671               -1.57796462                1.13810801               -5.69389622
              16.54713074               10.75059299               80.63262910                1.00000000               -0.00100230                0.04786677               -0.11464642               -0.00032539                0.00392713                0.54085535
              17.54712071               10.24582795               80.18515857                0.41224096               -0.02699640               -0.06947935                0.14207957               -0.04018518                0.10010365               -0.38417442
              18.54659081                9.74013843               79.73946147                0.00010000               -0.28642863               -0.22681097                0.38237973               -0.87076122                2.64073571               -1.58693125
              19.54139214                9.21902205               79.34300781                0.00010000               -0.09846671               -0.48022871               -0.41322424               -1.82388107                4.97792037               -1.38812866
              20.54462147                8.69498280               78.94637539                0.00010000                0.71695380               -0.81235240               -1.14444509               -2.36172621                4.84230623               -1.21204853
              21.55573122                8.16464321               78.55094879                0.00010000                1.37898762               -0.98126672               -1.84634037               -3.40855878                4.67757999               -1.13819336
              22.57220123                7.62565151               78.15629859                0.00010000                1.65934235               -0.61111749               -2.50677347               -4.57160895                4.33997686               -1.25518618
              23.58891806                7.08106720               77.76033659                0.00010000                1.49069056                0.39582521               -3.06935784               -5.07545841                3.74155872               -1.68097880
              24.60201504                6.54030553               77.35941641                0.00010000                1.08899045                1.50344349               -3.46583608               -4.27497473                2.79616465               -2.36230984
              25.61069787                6.01376680               76.94842831                0.00010000                0.77772868                2.16336454               -3.65049427               -2.35308571                1.49692509               -3.19741927
              26.61756961                5.50723834               76.52306789                0.40830754                0.68717388                2.04736620               -3.63117484               -0.97296529                0.79907104               -3.94349486
              17.05248603               11.75114189               80.49395039                1.00000000                0.00536576                0.06174782               -0.15098799                0.00071606                0.00092307                0.59623151
              18.05253968               11.24514364               80.04175277                0.44406833               -0.03019090               -0.06542707                0.12940190               -0.04783584                0.03328740               -0.35959858
              19.05188221               10.73804795               79.59011609                0.00010000               -0.33866556               -0.19798248                0.41024711               -0.89427118                2.97649807               -1.36432184
              20.04576637               10.21527804               79.19698865                0.00010000               -0.23409897               -0.23434842               -0.58794084               -1.92789777                5.73437445               -1.44048139
              21.04720023                9.68989333               78.80359476                0.00010000                0.47058555               -0.24432029               -1.50330683               -2.49377793                5.46824706               -1.37957096
              22.05517808                9.15983189               78.40934439                0.00010000                1.01997977               -0.12557001               -2.35674350               -3.26110955                5.06254274               -1.33163578
              23.06759982                8.62499400               78.01297803                0.00010000                1.31828434                0.27851932               -3.13040355               -3.91773144                4.47066257               -1.36134768
              24.08154377                8.08842293               77.61240135                0.00010000                1.34556446                0.95327610               -3.77252970               -4.00155105                3.66022064               -1.51116772
              25.09451111                7.55602757               77.20478605                0.00010000                1.21339301                1.63003643               -4.21605227               -3.24589964                2.62505207               -1.81837116
              26.10581163                7.03406214               76.78702639                0.00010000                1.09347028                1.98000014               -4.40788232               -1.77052678                1.38445264               -2.29363291
              27.11638052                6.52622019               76.35637912                0.40939894                1.05688886                1.82624455               -4.33507531               -0.72613530                0.70641340               -2.99961208
              17.55914156               12.75182794               80.35560850                1.00000000                0.01163750                0.07414058               -0.18924312                0.00214210                0.00258489                0.62669224
              18.55925793               12.24451941               79.89856851                0.47516124               -0.02852863               -0.05842894                0.11824437               -0.04326210                0.03520563               -0.35593835
              19.55857099               11.73617878               79.44215387                0.00010000               -0.41345628               -0.18104588                0.42660415               -0.77315137                3.32405280               -1.29927979
              20.55098881               11.21433508               79.05114381                0.00010000               -0.41894579                0.03680612               -0.71269851               -1.69936787                6.40143647               -1.33640557
              21.55019207               10.69009639               78.66001970                0.00010000                0.22097738                0.23018386               -1.76390139               -2.20508529                6.06915083               -1.29987980
              22.55540836               10.16213181               78.26693702                0.00010000                0.75317409                0.47078258               -2.73782217               -2.77055529                5.53392087               -1.23573345
              23.56525555                9.63122190               77.87019391                0.00010000                1.12225577                0.83386891               -3.61488288               -3.12447412                4.80858016               -1.19730314
              24.57785347                9.10013272               77.46768417                0.00010000                1.31011401                1.30069902               -4.34305498               -3.02730830                3.88748024               -1.22635206
              25.59145783                8.57290625               77.05696720                0.00010000                1.36206235                1.72557299               -4.85207957               -2.37239217                2.77249052               -1.37379562
              26.60509472                8.05336680               76.63549914                0.00010000                1.36364882                1.91242360               -5.07382614               -1.27555038                1.47060715               -1.71009145
              27.61873081                7.54376323               76.20090856                0.41029847                1.36360904                1.70947206               -4.95695858               -0.50739949                0.73383626               -2.32094185
              18.06714593               13.75262470               80.21736717                1.00000000                0.01776758                0.08376071               -0.22825759                0.00290371                0.00997877                0.62622957
              19.06732361               13.24397506               79.75538318                0.51196326               -0.02712110               -0.05118527                0.11223120               -0.03589695                0.06395466               -0.38068311
              20.06660351               12.73442704               79.29450874                0.00010000               -0.47311043               -0.16901888                0.44515350               -0.51413266                3.76292318               -1.11513581
              21.05786140               12.21601416               78.90682047                0.00010000               -0.56508572                0.28163629               -0.80833564               -1.18587120                7.12769612               -1.11191263
              22.05530180               11.69449701               78.51788117                0.00010000                0.03900350                0.59413165               -1.95887400               -1.65987431                6.67201662               -1.02842347
              23.05864147               11.16924754               78.12629871                0.00010000                0.59038169                0.85942950               -3.02577985               -2.07299194                6.04030545               -0.94442374
              24.06710943               10.64167138               77.73012250                0.00010000                1.03358890                1.16775609               -3.98735327               -2.25535329                5.22798498               -0.87773475
              25.07931325               10.11443691               77.32726638                0.00010000                1.33598789                1.50242460               -4.79015430               -2.09099086                4.22919396               -0.85676573
              26.09382919                9.59053903               76.91535752                0.00010000                1.50651988                1.78139111               -5.35629189               -1.56283721                3.02821202               -0.93514974
              27.10944365                9.07231062               76.49183868                0.00010000                1.58052385                1.88520463               -5.59996070               -0.79597893                1.61305310               -1.18999999
              28.12543967                8.56040963               76.05418778                0.41100746                1.59960196                1.66329250               -5.45089362               -0.28403829                0.79104076               -1.70468917
              18.57649892               14.75350316               80.07889847                0.98997925                0.02387462                0.09100350               -0.26090660                0.00152457                0.02061176                0.53245800
              19.57673766               14.24349571               79.61187374                0.42291477               -0.01248411               -0.04528378                0.10772290               -0.02614167                0.30701705               -0.38270932
              20.57624923               13.73279840               79.15066394                0.00010000               -0.47681245               -0.16498278                0.42951208               -0.14301181                4.36110564               -0.89259042
              21.56720141               13.21996781               78.76516786                0.00010000               -0.62440116                0.51037784               -0.89318015               -0.53083039                7.80733179               -0.68177857
              22.56376121               12.70197902               78.37893657                0.00010000               -0.02136330                0.80246188               -2.12098810               -0.91861242                7.25084657               -0.57905119
              23.56677415               12.17932040               77.98909357                0.00010000                0.55989510                1.07704083               -3.25533077               -1.17409256                6.51054374               -0.51412505
              24.57495911               11.65457702               77.59404215                0.00010000                1.01959274                1.36135543               -4.28020890               -1.24304487                5.63538028               -0.45889337
              25.58716600               11.13018121               77.19177607                0.00010000                1.36841359                1.63226389               -5.14108559               -1.11038487                4.58630451               -0.42851299
              26.60232738               10.60853408               76.77991276                0.00010000                1.60692692                1.83433674               -5.75397595               -0.77940273                3.31626992               -0.46088674
              27.61930454               10.09107089               76.35561963                0.00010000                1.72623120                1.89578852               -6.01849831               -0.35731063                1.77548710               -0.61194855
              28.63685201                9.57702908               75.91576788                0.41177589                1.75474681                1.71789237               -5.84204917               -0.08388380                0.86315361               -0.97433435
              19.08719133               15.75444477               79.93873141                0.97436248                0.03142056                0.09416144               -0.30091529               -0.06829720                0.25838239                0.44678533
              20.08750554               15.24306939               79.46883623                0.66924434                0.00399225               -0.04263198                0.10051564               -0.08908219                0.69942771               -0.37060005
              21.08727117               14.73112738               79.00791173                0.36778440               -0.47206837               -0.16710181                0.41888763                0.25981080                5.20957593               -0.85937465
              22.07806417               14.22622172               78.62877328                0.36282150               -0.48471080                0.62539119               -1.00766117                0.05721885                8.52295607               -0.29542291
              23.07757696               13.71054625               78.24458207                0.36106781                0.22487279                0.85672223               -2.28083052               -0.39009338                7.66748610               -0.27017774
              24.08256162               13.19078835               77.85636887                0.36220447                0.69053812                1.14679561               -3.45642940               -0.50364016                6.85698148               -0.24708752
              25.09138772               12.66889849               77.46255752                0.36663095                1.02934360                1.43214681               -4.51982104               -0.54244727                5.94010431               -0.23454478
              26.10314850               12.14708219               77.06133455                0.37422271                1.29818656                1.69009793               -5.41900537               -0.48538656                4.88652297               -0.23457139
              27.11735145               11.62722577               76.65046851                0.38506375                1.53269668                1.86916916               -6.06964656               -0.34038325                3.63462205               -0.26949086
              28.13380243               11.11022639               76.22712918                0.40000851                1.72470798                1.91554946               -6.36660247               -0.17312535                2.05174118               -0.36887787
              29.15184561               10.59476748               75.78702312                0.70614956                1.80431827                1.77384003               -6.19081036               -0.04653008                1.08080955               -0.63715435
              14.45918008                5.89346618               82.32131769                1.00000000               -0.02257069                0.02048394               -0.05968960                0.04102773               -0.39913249                0.47626209
              15.45895438                5.38857827               81.89410794                1.00000000               -0.06362966               -0.05349546                0.18544797                0.04722269               -0.49620649                0.05807390
              16.45790749                4.88350653               81.46454153                1.00000000               -0.14164360               -0.12026876                0.42185755                0.04649069               -0.53034113               -0.03485044
              17.45612151                4.37806119               81.03654749                0.68898211               -0.22426716               -0.19492354                0.65844454                0.01812685               -0.48707851               -0.24616570
              18.45342215                3.87190317               80.60799569                0.50852878               -0.30358762               -0.26954481                0.89146935                0.00503571               -0.45008077               -0.27953061
              19.45004975                3.36517119               80.18118415                0.19041451               -0.53969652               -0.36149046                1.15713050               -0.26810066                0.25319572               -0.56566606
              20.44262822                2.85291781               79.76734604                0.00010000               -1.13998536               -0.11225504                1.13051849               -3.36955092                6.39658437               -1.56810615
              21.42725005                2.27763007               79.45879422                0.00010000                0.65274815               -1.19573015               -0.11069428               -3.15522185               12.61171370               -0.51014635
              22.45568318                1.68895479               79.15831778                0.00010000                4.76661845               -1.65337637               -1.25611107               -3.28246499               13.23742108               -0.26301651
              23.52258242                1.07914667               78.86192590                1.00000000                3.63493637                0.64358977               -2.19372310               -3.38912643                6.53928522               -0.10545947
              24.52838191                0.53938130               78.43482871                1.00000000                0.57994932                0.46532651               -1.67504661                0.07647210               -0.01429178               -0.11441940
              14.96447827                6.89367102               82.18237991                1.00000000               -0.00718412                0.01995113               -0.08402667                0.00381656                0.00833095                0.65655562
              15.96440643                6.38804332               81.75506482                1.00000000               -0.04236631               -0.05405498                0.16336380                0.01125845                0.07475779                0.08204199
              16.96363094                5.88230385               81.32865921                1.00000000               -0.11509853               -0.12230469                0.40419387                0.00632314                0.15199045               -0.20867809
              17.96210446                5.37611195               80.90271516                0.88449510               -0.18567192               -0.20465516                0.65234397               -0.00956753                0.23807106               -0.17659100
              18.95991750                4.86920772               80.47810586                0.74959739               -0.26215146               -0.28347432                0.90758709               -0.02412620                0.25942938               -0.19865479
              19.95686143                4.36155629               80.05281522                0.44282535               -0.36071175               -0.37661507                1.19361984               -0.11684913                0.37715302               -0.39697985
              20.95270327                3.85179526               79.63109642                0.00010000                1.04089554               -0.32591518                1.51019668               -3.77620204                6.26465559               -0.96857621
              21.97767934                3.26567277               79.32401461                0.00010000                3.46984833               -2.09379969               -0.21155568               -5.00021154               11.97962871               -0.83692160
              23.02210023                2.67242103               79.01588603                0.00010000                4.28992806               -1.49379606               -1.17214842               -4.17962897               12.23402302               -1.28272280
              24.06347790                2.08558256               78.71418467                0.92290181                2.34058823                0.62501267               -2.04640954               -2.23262186                6.30709313               -0.12537042
              25.06891200                1.54403456               78.28709938                1.00000000                0.54341004                0.43883176               -1.49700719               -0.01287261                0.00303940               -0.16682614
              15.47051182                7.89386520               82.04653429                1.00000000                0.00349022                0.02252124               -0.10757309               -0.00156285                0.13882293                0.76441128
              16.47054672                7.38749717               81.61623008                1.00000000               -0.02732470               -0.05200935                0.14381039                0.00023751                0.32419671                0.01580479
              17.46996532                6.88106044               81.18923855                0.00010000               -0.07602192               -0.12098930                0.39073777               -0.03528198                0.91277553               -0.64379488
              18.46902628                6.37396808               80.77050530                0.00010000               -0.12350164               -0.64020952                0.64653188               -0.31739957                1.27023519               -0.53847018
              19.46749529                5.86623368               80.35040481                0.00010000               -0.19505230               -1.03869224                0.91350258               -0.26995509                1.12516964               -0.37326938
              20.46512523                5.35763889               79.92874275                0.00010000               -0.22537980               -1.55331278                1.22904458                0.08480738                1.26548482                0.02170835
              21.46298769                4.84639951               79.51183414                0.00010000                2.07474077               -3.06973916                1.58436502               -3.55645351                5.90511655                1.06377600
              22.50662005                4.23575408               79.18430334                0.00010000                4.45965584               -2.34047324               -0.55819818               -6.80334223                9.81585528               -1.24283541
              23.55218081                3.65907887               78.85331031                0.00010000                4.98481985               -1.01508544               -1.29714955               -5.71995771               11.74760482               -3.14169432
              24.60631645                3.09164692               78.56621801                0.00010000                2.95198259                1.03809179               -1.85812561               -5.40596200                7.10157329               -6.10768446
              25.61122046                2.54815793               78.13916060                0.40103122                0.49040159                2.84267320               -1.26576831               -4.36969117                0.05649436               -5.02900107
              15.97718307                8.89412144               81.90938157                1.00000000                0.00328697                0.03221061               -0.12519751               -0.00095564                0.23167652                0.63623031
              16.97721594                8.38700313               81.47567968                0.53375822               -0.03643377               -0.05298559                0.13192390               -0.00116148                0.38246139               -0.29669412
              17.97645439                7.87988406               81.04467719                0.00010000               -0.33163582               -0.15466905                0.36719241               -0.46843185                1.32648322               -1.12461594
              18.97058322                7.36330776               80.62987527                0.00010000               -0.28033986               -0.90003203                0.25001771               -1.11792056                2.25300405               -1.12400916
              19.97084759                6.84843388               80.21783801                0.00010000                0.39042656               -1.61795835                0.14194677               -1.03373629                2.54099137               -0.86576905
              20.97839175                6.33049003               79.80999623                0.00010000                1.63057072               -2.61067725               -0.00274828               -1.60555813                3.36901113               -0.25553706
              22.00345901                5.79040048               79.41763186                0.00010000                2.52706894               -4.11400223               -0.48061348               -3.26826848                4.46671362                0.76307056
              23.02893313                5.21886331               79.03932650                0.00010000                2.41746158               -1.22954416               -1.19244539               -5.81027075                5.74467897               -1.79446704
              24.05180824                4.65211932               78.67795465                0.00010000                1.86732340                0.08991449               -1.79534366               -6.11598208                5.64324898               -4.27396081
              25.06627960                4.10634440               78.29933261                0.00010000                0.83439559                1.84986637               -2.03637072               -5.39748298                3.56709964               -9.45945405
              26.06849615                3.60088803               77.89525359                0.40176678                0.22165537                3.75459084               -1.98757486               -3.44252639                2.48199265               -8.96352293
              16.48472933                9.89450941               81.77072617                1.00000000                0.00315440                0.04503131               -0.14163411                0.00112708                0.00432165                0.52838801
              17.48476087                9.38643746               81.33043584                0.42918478               -0.02186353               -0.06299524                0.14685640               -0.01724162                0.29064904               -0.45186781
              18.48429205                8.87796706               80.89567076                0.00010000               -0.33214095               -0.21637778                0.37098186               -0.70684923                1.81983705               -1.49777163
              19.47811805                8.35596744               80.48610393                0.00010000               -0.23268812               -0.64216632               -0.07198836               -1.41968316                3.14225905               -1.40568423
              20.47963829                7.83387452               80.07949748                0.00010000                0.64647102               -1.23219921               -0.50603164               -1.69368287                3.34855884               -1.33138131
              21.49104747                7.30542534               79.67706725                0.00010000                1.48053777               -1.90508974               -0.97584105               -2.60966613                3.55959145               -1.23442257
              22.50924905                6.76411946               79.27987543                0.00010000                1.88241605               -1.80885253               -1.51168658               -4.41428834                3.76918884               -1.58440057
              23.52869579                6.21116320               78.88803044                0.00010000                1.65655138               -0.34356831               -2.06337963               -5.42854007                3.78373701               -2.39495372
              24.54238007                5.66087716               78.49632656                0.00010000                1.04511444                1.08405162               -2.49488945               -4.95812990                3.25455624               -4.19822194
              25.54959808                5.12864425               78.09614601                0.00010000                0.54513035                2.10772408               -2.73400994               -3.02482362                1.90759586               -5.66361772
              26.55328268                4.62324975               77.67706879                0.40259507                0.36846017                1.97512619               -2.70171760               -1.43320683                1.04553462               -6.73485008
              16.99334951               10.89502207               81.63124174                1.00000000                0.00639448                0.05774286               -0.15993239               -0.00040692                0.00435641                0.52097581
              17.99341346               10.38574323               81.18660219                0.44049931               -0.02810436               -0.07091619                0.14499444               -0.04250535                0.09151489               -0.36230799
              18.99278743                9.87555651               80.74356247                0.00010000               -0.35656793               -0.23125030                0.43117005               -0.84701812                2.10912515               -1.49464305
              19.98628210                9.35046443               80.33944083                0.00010000               -0.26356955               -0.44269975               -0.31407078               -1.75394527                3.93431617               -1.56247147
              20.98751603                8.82378989               79.93577727                0.00010000                0.48356923               -0.71567829               -0.99834070               -2.18730572                3.81954432               -1.61598214
              21.99595348                8.29238824               79.53359678                0.00010000                1.09596782               -0.83624100               -1.66177031               -3.06736725                3.67664327               -1.73686754
              23.00943539                7.75422343               79.13254558                0.00010000                1.38255740               -0.48736865               -2.29827560               -4.03495426                3.41844904               -2.00721899
              24.02360463                7.21199194               78.73107340                0.00010000                1.28646003                0.40147385               -2.85693705               -4.42802515                2.98744185               -2.55167058
              25.03516459                6.67380035               78.32617040                0.00010000                0.99029534                1.36459041               -3.26742690               -3.69415660                2.28460490               -3.34014641
              26.04341054                6.14849888               77.91324131                0.00010000                0.77282106                1.88589157               -3.46164864               -2.01879077                1.25522928               -4.20818796
              27.05062101                5.64039055               77.48812264                0.40335231                0.72104743                1.65296155               -3.40411359               -0.82189828                0.69747532               -4.88835968
              17.50327887               11.89566427               81.49225187                1.00000000                0.00974539                0.07022802               -0.18591309                0.00077093                0.00085990                0.56992615
              18.50337632               11.38501914               81.04311765                0.47458904               -0.03241936               -0.07073137                0.14090716               -0.04740255                0.03273018               -0.33680170
              19.50263048               10.87334205               80.59453435                0.00010000               -0.42852847               -0.21272633                0.46397189               -0.83509793                2.33933090               -1.28736123
              20.49480576               10.34711345               80.19167673                0.00010000               -0.43310544               -0.19997742               -0.48648311               -1.78491272                4.46805468               -1.53685843
              21.49396838                9.81956095               79.78939111                0.00010000                0.22304184               -0.16951839               -1.35805683               -2.24260248                4.24128739               -1.64267905
              22.49926659                9.28870053               79.38687522                0.00010000                0.74889416               -0.03448514               -2.17356203               -2.87841760                3.88332361               -1.75057589
              23.50894626                8.75437209               78.98303349                0.00010000                1.06458857                0.33579576               -2.91829690               -3.40742524                3.39350711               -1.92678340
              24.52055836                8.21919267               78.57625228                0.00010000                1.15218719                0.92452446               -3.54356950               -3.43017926                2.76697536               -2.21495657
              25.53199000                7.68816897               78.16434619                0.00010000                1.10368521                1.49512684               -3.98100160               -2.73519561                1.99358766               -2.63518328
              26.54263207                7.16636208               77.74476200                0.00010000                1.05356893                1.75465152               -4.16567519               -1.45967684                1.06280559               -3.15744556
              27.55306138                6.65630898               77.31504675                0.40412859                1.04293127                1.55875231               -4.05705207               -0.57709975                0.56833338               -3.76996799
              18.01465520               12.89642663               81.35357636                1.00000000                0.01324251                0.08029428               -0.21472227                0.00234228                0.00222677                0.59713501
              19.01478762               12.38432860               80.89986262                0.50754369               -0.03320206               -0.06538003                0.13703431               -0.04058806                0.03459189               -0.32876380
              20.01399116               11.87130198               80.44676055                0.00010000               -0.52113383               -0.19845977                0.48473911               -0.68315588                2.60187430               -1.22209373
              21.00436495               11.34646489               80.04456884                0.00010000               -0.64571246                0.06387177               -0.61182283               -1.50530405                4.96554376               -1.37486336
              22.00107691               10.82039953               79.64316592                0.00010000               -0.03954763                0.28969639               -1.62238206               -1.92655027                4.67687495               -1.45286852
              23.00357399               10.29169853               79.24060243                0.00010000                0.48589154                0.53240908               -2.56003110               -2.40533546                4.19493117               -1.50562365
              24.01079474                9.76093934               78.83536781                0.00010000                0.88150871                0.85914596               -3.40598178               -2.68572867                3.57533796               -1.58548350
              25.02120417                9.23048243               78.42585968                0.00010000                1.12482679                1.25712140               -4.10819521               -2.56486385                2.84414194               -1.72787760
              26.03329127                8.70370289               78.01032179                0.00010000                1.24364118                1.60019582               -4.59410874               -1.97172503                2.01151816               -1.96498116
              27.04607699                8.18359191               77.58688362                0.00010000                1.29469710                1.72425574               -4.79014821               -1.03722608                1.06673568               -2.32954171
              28.05918522                7.67156560               77.15363791                0.40498401                1.31082246                1.51622106               -4.64154410               -0.39580212                0.55462851               -2.86223306
              18.52752178               13.89727016               81.21499277                1.00000000                0.01674368                0.08630889               -0.24428363                0.00320037                0.01181217                0.59798906
              19.52768921               13.38371154               80.75665544                0.54805811               -0.03453487               -0.05826069                0.13738323               -0.03220785                0.06145798               -0.34799152
              20.52683108               12.86937286               80.29932333                0.00010000               -0.60435433               -0.18698702                0.50603522               -0.39779913                2.96428106               -1.04609565
              21.51560213               12.34839088               79.89927260                0.00010000               -0.83136788                0.31552338               -0.70753528               -0.96260679                5.55241513               -1.11045514
              22.51020372               11.82535488               79.49902628                0.00010000               -0.24910300                0.65879525               -1.82136166               -1.40287871                5.14616789               -1.10129886
              23.51062007               11.29934871               79.09701006                0.00010000                0.31220335                0.91295266               -2.85472497               -1.77709166                4.56668406               -1.09598755
              24.51644779               10.77155501               78.69149161                0.00010000                0.79387368                1.18426745               -3.78574326               -1.92622325                3.85886563               -1.11155230
              25.52649754               10.24433510               78.28091244                0.00010000                1.14991154                1.46327753               -4.55925666               -1.76274743                3.05409895               -1.16880733
              26.53944602                9.72017289               77.86365809                0.00010000                1.37636497                1.68065029               -5.09540461               -1.29436611                2.15556256               -1.30426300
              27.55402484                9.20084719               77.43798918                0.00010000                1.48759756                1.73946349               -5.30716669               -0.64564494                1.14396004               -1.56692437
              28.56919797                8.68663340               77.00204881                0.40565323                1.51731309                1.52947209               -5.12308761               -0.21757433                0.58301743               -2.00793242
              19.04183644               14.89815281               81.07625497                1.00000000                0.02043190                0.09002002               -0.26861700                0.00197909                0.01469861                0.50341831
              20.04204076               14.38316338               80.61313984                0.45662533               -0.02403084               -0.05294997                0.14045877               -0.02440429                0.27944766               -0.34779337
              21.04135583               13.86756224               80.15537182                0.00010000               -0.64549871               -0.18249789                0.49884467                0.00567032                3.48794356               -0.83068861
              22.02913079               13.35277535               79.75677146                0.00010000               -0.96471590                0.59815793               -0.78947946               -0.34090150                6.12462101               -0.66773472
              23.02206151               12.83357543               79.35843671                0.00010000               -0.36493789                0.88463064               -1.98237143               -0.74840349                5.61670888               -0.60215365
              24.02183203               12.30995759               78.95746541                0.00010000                0.26111847                1.13312181               -3.08533354               -1.00358933                4.93072466               -0.57874073
              25.02728388               11.78462469               78.55242677                0.00010000                0.77496562                1.37796301               -4.08112751               -1.06014969                4.15784512               -0.56741767
              26.03733134               11.25974798               78.14185717                0.00010000                1.18039905                1.60178657               -4.91275291               -0.93506041                3.30422046               -0.57838262
              27.05089186               10.73731589               77.72419402                0.00010000                1.46861172                1.75711366               -5.49406123               -0.64550972                2.35167397               -0.63892338
              28.06670358               10.21838118               77.29756472                0.00010000                1.61847274                1.78574667               -5.72415569               -0.29035326                1.25211725               -0.78801283
              29.08326131                9.70215504               76.85969971                0.40643343                1.65577369                1.61311298               -5.51172622               -0.05916017                0.62888925               -1.09380451
              19.55754020               15.89907056               80.93577408                0.98683993                0.02514941                0.09177496               -0.29405553               -0.07142611                0.23894214                0.41498235
              20.55779170               15.38265254               80.47005080                0.68475198               -0.01038421               -0.05108479                0.13677337               -0.09228945                0.64462607               -0.33396174
              21.55733252               14.86572290               80.01253976                0.36715004               -0.75103961               -0.18393377                0.49394659                0.48274430                4.24739266               -0.78842675
              22.54277090               14.36035404               79.61927948                0.36253168               -0.96395496                0.75786884               -0.89296152                0.23024114                6.73157401               -0.27418212
              23.53805342               13.84304749               79.22252719                0.36074174               -0.16359418                0.94720615               -2.13025984               -0.31795399                5.95976861               -0.26557991
              24.53949902               13.32201114               78.82277732                0.36209678                0.37004916                1.20535563               -3.27356937               -0.42996220                5.20805138               -0.26066911
              25.54545440               12.79911427               78.41859943                0.36573520                0.78030546                1.44895782               -4.30751793               -0.46496321                4.39196430               -0.26539878
              26.55510513               12.27637083               78.00869889                0.37255154                1.12241113                1.66228524               -5.17733989               -0.41257692                3.52893149               -0.27983401
              27.56790262               11.75531516               77.59166871                0.38240614                1.41367517                1.79992639               -5.79620428               -0.28935883                2.59174723               -0.32155324
              28.58337863               11.23656213               77.16568488                0.39582960                1.62822162                1.81809453               -6.05836251               -0.15346938                1.46558011               -0.41264701
              29.60046706               10.71889566               76.72756439                0.70341328                1.70884237                1.67406232               -5.84632220               -0.04607243                0.80262124               -0.63678710
              14.88112922                6.03728290               83.32024548                1.00000000               -0.00309995                0.04422064               -0.14819519                0.05098950               -0.40799933                0.47619657
              15.88109822                5.52832117               82.89571010                1.00000000               -0.05170174               -0.04036952                0.13705177                0.05698879               -0.51333262                0.06045500
              16.88009519                5.01915064               82.46871238                1.00000000               -0.14298076               -0.11582405                0.40952530                0.05544768               -0.55361274               -0.02995473
              17.87823861                4.50950457               82.04329997                0.69248700               -0.23894525               -0.20439149                0.68532842                0.01939822               -0.51129379               -0.23825772
              18.87531628                3.99897466               81.61728218                0.52273499               -0.33038324               -0.29617871                0.95949951                0.00542969               -0.45725936               -0.26496810
              19.87163094                3.48770192               81.19338107                0.22748103               -0.47595415               -0.40633897                1.27276808               -0.18372716                0.15624400               -0.56130761
              20.86579720                2.97256070               80.78018889                0.00010000               -0.80868346               -0.32534745                1.40772596               -2.74910937                5.38669404               -1.42724030
              21.85545727                2.40708084               80.45869941                0.00010000                0.89996394               -1.21005958                0.08987829               -2.37117866               11.01524936               -0.60133773
              22.88379648                1.82874806               80.14646357                0.00010000                4.57759582               -1.64898306               -1.24514069               -2.74790610               11.48195450               -0.04647626
              23.94700919                1.22511292               79.83997819                1.00000000                3.44813665                0.62610453               -2.20510511               -3.03582268                5.74745141               -0.13386181
              24.95275921                0.68526786               79.41857890                1.00000000                0.57500215                0.42108562               -1.58922744                0.04958470               -0.00946464               -0.11499546
              15.39060084                7.03772510               83.18110529                1.00000000                0.01333962                0.03991751               -0.16529246                0.00803129                0.00086857                0.65283484
              16.39073424                6.52791748               82.75648926                1.00000000               -0.02714378               -0.04322779                0.12256939                0.01539775                0.06205065                0.08488149
              17.39005797                6.01799240               82.33270232                1.00000000               -0.11068295               -0.12000338                0.39992974                0.00658594                0.14213470               -0.19855458
              18.38852058                5.50746065               81.90946073                0.89414715               -0.18930318               -0.22023445                0.68781253               -0.01297923                0.24510894               -0.16380229
              19.38627190                4.99601288               81.48767637                0.76800470               -0.27599637               -0.31668680                0.99396960               -0.02908698                0.30428163               -0.18478237
              20.38300065                4.48363853               81.06555540                0.48841757               -0.38276295               -0.42975136                1.34276909               -0.11099180                0.46854010               -0.39083157
              21.37861664                3.96930723               80.64725986                0.06636333                1.03255788               -0.46469287                1.71650651               -3.04907803                5.29670057               -0.88669291
              22.40365181                3.39498025               80.32199184                0.00010000                3.43423688               -2.04783529               -0.65809205               -3.98301886                9.70755832               -0.42161554
              23.44730138                2.81225822               80.00490018                0.00010000                4.23696256               -1.61637426               -0.89772989               -3.52208110               10.66604093               -1.29957085
              24.48839106                2.23137396               79.69426340                0.99311248                2.28993669                0.57327534               -1.89908027               -1.89697127                5.58116455               -0.13293260
              25.49310011                1.68947872               79.27306728                1.00000000                0.47090544                0.37057236               -1.28860199               -0.05551606                0.00000701               -0.13836114
              15.90090510                8.03808125               83.04507216                1.00000000                0.02337794                0.03556180               -0.18010488                0.00001818                0.13063840                0.75979110
              16.90113888                7.52745662               82.61750699                1.00000000               -0.01106851               -0.04385129                0.11174553               -0.00123696                0.31334677                0.02300287
              17.90068373                7.01675057               82.19320198                0.00010000               -0.05901658               -0.12037588                0.39652084               -0.05723870                0.90927169               -0.63362645
              18.89995855                6.50509988               81.77724443                0.00010000               -0.10635329               -0.65725003                0.68950109               -0.37370141                1.30148140               -0.71816254
              19.89855666                5.99264093               81.36013670                0.00010000               -0.19208964               -1.04175637                1.01332206               -0.37049248                1.22389627               -0.75551644
              20.89611675                5.47910689               80.94200928                0.00010000               -0.25413719               -1.50433999                1.40436925               -0.07404657                1.44548892               -0.62091558
              21.89347392                4.96326684               80.52897863                0.00010000                1.83645709               -2.76936073                1.82009212               -2.97728572                4.84348242               -0.07850048
              22.93284590                4.36612414               80.17899834                0.00010000                4.17436111               -2.28065837               -0.19421903               -5.78505103                7.90902385               -0.63879582
              23.97696114                3.79642057               79.84128015                0.00010000                4.95016879               -1.25912734               -0.99556310               -5.00123486               10.60384297               -3.68143402
              25.03184927                3.23657842               79.54889709                0.00010000                2.92391195                0.68491318               -1.57329151               -5.02650755                6.55122288               -6.36726315
              26.03543938                2.69267931               79.12795024                0.39666002                0.35901088                2.52752960               -0.96821512               -4.25077526                0.04167413               -5.50544149
              16.41185047                9.03843634               82.90779873                1.00000000                0.01897048                0.04054505               -0.18714363               -0.00336612                0.21881262                0.63114979
              17.41204017                8.52704045               82.47689186                0.55564256               -0.02902687               -0.04416306                0.11022337               -0.01165599                0.35761265               -0.27187709
              18.41126993                8.01558488               82.04845714                0.00010000               -0.34419869               -0.15035548                0.38423530               -0.50941742                1.11590257               -1.09991979
              19.40515620                7.49431565               81.63272901                0.00010000               -0.32074459               -0.89482532                0.30635982               -1.21294296                1.86985069               -1.47056547
              20.40485504                6.97517775               81.21985931                0.00010000                0.28688025               -1.55337198                0.23992225               -1.16284060                2.15295672               -1.58744670
              21.41089380                6.45355173               80.81079517                0.00010000                1.35993227               -2.39693401                0.13761216               -1.62713161                2.80017146               -1.42828602
              22.43205368                5.91392001               80.41379265                0.00010000                2.19516292               -3.63261131               -0.27727590               -2.88909997                3.49765431               -0.79573732
              23.45479706                5.34936708               80.02799518                0.00010000                2.23843577               -1.26318414               -0.94367469               -5.13798360                4.79541250               -2.43311845
              24.47682240                4.78707568               79.66094824                0.00010000                1.84025555               -0.13210298               -1.57173224               -5.57851153                4.94554916               -5.07738856
              25.49160217                4.24507223               79.27958143                0.00010000                0.95302217                1.35176891               -1.93073997               -5.08399002                3.09552178              -10.23296028
              26.49588284                3.74002931               78.87646857                0.39704993                0.42806698                3.25137545               -1.83255043               -3.18385910                2.23160923              -10.07188805
              16.92362955               10.03889215               82.76903900                1.00000000                0.01276616                0.05252301               -0.19184370                0.00044507                0.00789035                0.51965965
              17.92375722                9.52657336               82.33186282                0.45686932               -0.02046867               -0.05702355                0.13765646               -0.02792857                0.26012976               -0.42097287
              18.92322018                9.01374346               81.89955251                0.00010000               -0.38251959               -0.21014531                0.39934537               -0.73526164                1.42488348               -1.42757131
              19.91610682                8.48720337               81.48578034                0.00010000               -0.35782039               -0.60579172               -0.00630855               -1.47312596                2.40176355               -1.67088198
              20.91606377                7.96157349               81.07503875                0.00010000                0.43625175               -1.12041103               -0.40697970               -1.70168953                2.57939619               -1.90628423
              21.92483186                7.43116821               80.66807758                0.00010000                1.19063987               -1.67269268               -0.85078140               -2.46784499                2.71499201               -2.08781967
              22.93987657                6.89061462               80.26557099                0.00010000                1.60493497               -1.57854733               -1.37475652               -3.96339242                2.89086281               -2.54387070
              23.95693056                6.34086046               79.86821001                0.00010000                1.49045986               -0.37775650               -1.93385561               -4.82955411                2.97198800               -3.32880844
              24.96968577                5.79377851               79.47202998                0.00010000                1.01426419                0.92036440               -2.41349089               -4.42649160                2.62938411               -5.13703720
              25.97721584                5.26361380               79.06953033                0.00010000                0.60811334                1.79574113               -2.66210597               -2.69118233                1.57164525               -6.63034014
              26.98184803                4.75770682               78.65126964                0.39782182                0.46321923                1.57319395               -2.56455718               -1.29701742                0.89210174               -7.76284895
              17.43649695               11.03948680               82.62943045                1.00000000                0.01333298                0.06568234               -0.19857842               -0.00157645                0.00444433                0.50510746
              18.43663028               10.52589998               82.18805846                0.47063505               -0.02811374               -0.07130868                0.14434226               -0.04751132                0.08088040               -0.34140353
              19.43593468               10.01138198               81.74808487                0.00010000               -0.43833141               -0.23204115                0.46527719               -0.84052982                1.57641483               -1.41042514
              20.42786366                9.48219982               81.33672639                0.00010000               -0.45391368               -0.38952559               -0.24063762               -1.72242843                2.89036539               -1.74086037
              21.42685641                8.95276953               80.92640857                0.00010000                0.23160582               -0.59611932               -0.89446466               -2.06691140                2.78431462               -2.02417189
              22.43249577                8.42009788               80.51771338                0.00010000                0.81185928               -0.66767469               -1.54510814               -2.80250749                2.64167954               -2.34032977
              23.44309359                7.88234907               80.11033308                0.00010000                1.12731565               -0.34892565               -2.18946855               -3.60347913                2.42701940               -2.75446230
              24.45504209                7.34181195               79.70319785                0.00010000                1.12228145                0.42385278               -2.78042296               -3.91130389                2.12401757               -3.39294549
              25.46553922                6.80548297               79.29406787                0.00010000                0.94040673                1.26970030               -3.23197224               -3.23187631                1.64715170               -4.23604424
              26.47385022                6.28098705               78.87919534                0.00010000                0.81086220                1.68285605               -3.43739811               -1.74192205                0.92499061               -5.12081651
              27.48175646                5.77149319               78.45498561                0.39848036                0.79062447                1.37993740               -3.33068428               -0.68290403                0.55688137               -5.77313806
              17.95077166               12.04020580               82.49023213                1.00000000                0.01401480                0.07714721               -0.21457533               -0.00003051                0.00046643                0.54664816
              18.95091181               11.52514718               82.04457091                0.50638628               -0.03309585               -0.07468156                0.14674823               -0.04839316                0.02882810               -0.31644873
              19.95010975               11.00910264               81.59939553                0.00010000               -0.53205533               -0.22170300                0.49943792               -0.78833731                1.70143554               -1.21872358
              20.94027071               10.47941286               81.18725898                0.00010000               -0.66411308               -0.14789373               -0.40675590               -1.67104419                3.20208236               -1.64177543
              21.93682749                9.94965110               80.77643362                0.00010000               -0.05342669               -0.06828391               -1.24866438               -2.03792849                3.00099290               -1.91434732
              22.93920217                9.41781472               80.36587315                0.00010000                0.46327144                0.08933099               -2.05574619               -2.57028394                2.66956571               -2.17578184
              23.94609291                8.88363610               79.95461209                0.00010000                0.81842040                0.43525223               -2.81580659               -3.00328721                2.25615706               -2.48820028
              24.95557058                8.34933751               79.54152996                0.00010000                0.98901153                0.95515250               -3.47519979               -2.98616703                1.79143879               -2.88851707
              25.96587314                7.81917252               79.12516602                0.00010000                1.03983002                1.44058809               -3.95091268               -2.34707762                1.27771600               -3.38497838
              26.97636718                7.29727092               78.70371288                0.00010000                1.06522656                1.62808690               -4.15585699               -1.23019283                0.68550653               -3.92806280
              27.98717768                6.78530556               78.27523808                0.39925023                1.08104959                1.40116645               -4.02274487               -0.46861866                0.40501226               -4.47597543
              18.46661357               13.04102974               82.35131405                1.00000000                0.01520036                0.08500369               -0.23470287                0.00191953                0.00161640                0.57048520
              19.46676558               12.52440635               81.90130920                0.54122725               -0.03556584               -0.07045871                0.14827019               -0.03857152                0.03081467               -0.30494737
              20.46590225               12.00694792               81.45184865                0.00010000               -0.64356311               -0.21043921                0.52241164               -0.60010921                1.87961249               -1.15452332
              21.45389431               11.47924194               81.03890736                0.00010000               -0.91031387                0.10947867               -0.52711594               -1.33040090                3.53051707               -1.42469155
              22.44769598               10.95140385               80.62757206                0.00010000               -0.33946116                0.37745726               -1.50680801               -1.68486168                3.27087126               -1.61861866
              23.44710509               10.42188450               80.21573640                0.00010000                0.19045389                0.63250414               -2.43754905               -2.10210454                2.82304567               -1.78773172
              24.45150506                9.89105411               79.80207427                0.00010000                0.63386214                0.93726366               -3.30050739               -2.33390233                2.29087843               -1.97975762
              25.45978233                9.36091500               79.38552027                0.00010000                0.95796012                1.28628835               -4.03664587               -2.20506080                1.73875330               -2.22116087
              26.47066426                8.83429473               78.96508503                0.00010000                1.16654917                1.57045148               -4.55974642               -1.66878284                1.19170904               -2.52734203
              27.48311332                8.31354879               78.53969618                0.00010000                1.28252755                1.65100546               -4.77657258               -0.86066289                0.62742050               -2.90485850
              28.49631481                7.79951652               78.10807768                0.40011185                1.32014926                1.44418103               -4.61003774               -0.31307313                0.36231343               -3.36123901
              18.98405684               14.04190587               82.21248150                1.00000000                0.01653639                0.08802338               -0.25585566                0.00369259                0.01194138                0.57166871
              19.98422221               13.52373801               81.75813084                0.58541439               -0.03924379               -0.06309385                0.15286698               -0.02839104                0.05447740               -0.31817196
              20.98327197               13.00489386               81.30462944                0.00010000               -0.75077265               -0.19898604                0.54491022               -0.28306718                2.16770058               -0.98601397
              21.96920676               12.48160243               80.89266977                0.00010000               -1.13921356                0.36821478               -0.61681805               -0.74794913                3.97994240               -1.12014959
              22.96048770               11.95720025               80.48145394                0.00010000               -0.58484675                0.75155956               -1.69800567               -1.17160859                3.60607827               -1.18769192
              23.95750982               11.43046480               80.06920421                0.00010000               -0.00516669                1.00469129               -2.72458772               -1.52626895                3.06006542               -1.26238783
              24.96038436               10.90238138               79.65440764                0.00010000                0.53594626                1.25333718               -3.67363882               -1.65911618                2.44157126               -1.35867729
              25.96822875               10.37506328               79.23608124                0.00010000                0.97396700                1.49560536               -4.48174799               -1.50495010                1.82443614               -1.48851246
              26.97986370                9.85058155               78.81344943                0.00010000                1.28516943                1.67251342               -5.05474200               -1.08915952                1.23440479               -1.67248456
              27.99393213                9.33029103               78.38569535                0.00010000                1.45585252                1.70330710               -5.28702241               -0.53322414                0.64552475               -1.93494638
              29.00898075                8.81418918               77.95172602                0.40073859                1.50486196                1.50604477               -5.08766518               -0.16793444                0.36215515               -2.30058986
              19.50302315               15.04279021               82.07352613                1.00000000                0.01866198                0.09001619               -0.27639742                0.00342045                0.01399048                0.48020398
              20.50320977               14.52314447               81.61468291                0.49224981               -0.03233307               -0.05848911                0.16266033               -0.02059230                0.25273482               -0.31832662
              21.50237649               14.00296820               81.16064083                0.00010000               -0.82904122               -0.19354498                0.54244866                0.15900771                2.62033515               -0.77544694
              22.48662894               13.48660624               80.74937827                0.00010000               -1.34875239                0.70598060               -0.68984322               -0.15158458                4.44690630               -0.66098452
              23.47540144               12.96643504               80.33928914                0.00010000               -0.76151813                0.99267192               -1.84684844               -0.59205627                3.96931385               -0.63405910
              24.47139858               12.44197832               79.92738690                0.00010000               -0.08385911                1.22431756               -2.94244027               -0.85867954                3.31714682               -0.65366961
              25.47372426               11.91612085               79.51241960                0.00010000                0.50422914                1.44319113               -3.95731632               -0.91150703                2.63110745               -0.68640877
              26.48148316               11.39082711               79.09352101                0.00010000                0.99645295                1.63693956               -4.82539782               -0.79733791                1.96727838               -0.73716084
              27.49365331               10.86774500               78.67003154                0.00010000                1.36790163                1.76318892               -5.44561381               -0.54377413                1.33871992               -0.82288960
              28.50884119               10.34761493               78.24113651                0.00010000                1.57532500                1.77210411               -5.69778082               -0.24106837                0.69977977               -0.96688373
              29.52515981                9.82963741               77.80553335                0.40147151                1.63186194                1.60565978               -5.46883602               -0.03983777                0.38210222               -1.21233874
              20.02341673               16.04370619               81.93285030                1.00000000                0.02156452                0.09159810               -0.29360275               -0.07443816                0.22562297                0.39439023
              21.02363238               15.52256823               81.47157170                0.70044798               -0.02131881               -0.05762470                0.16334170               -0.09190063                0.59753759               -0.30666187
              22.02299036               15.00102296               81.01779066                0.36625542               -1.04620790               -0.19452387                0.54190034                0.71907814                3.30083487               -0.72441742
              23.00270822               14.49572205               80.61091405                0.36242726               -1.48579345                0.91158069               -0.77835759                0.40946410                4.95295119               -0.25673462
              23.99327449               13.97705368               80.20197688                0.36112786               -0.60289015                1.06186438               -1.97609872               -0.25123962                4.24262603               -0.26609098
              24.99065042               13.45495115               79.79089748                0.36186151                0.00154750                1.29728300               -3.11094118               -0.36524047                3.52594910               -0.28012696
              25.99330544               12.93124520               79.37640716                0.36550034                0.50037139                1.51243467               -4.16553159               -0.39933596                2.79237788               -0.30201111
              27.00065784               12.40780207               78.95778775                0.37115668                0.94474821                1.69749610               -5.07546700               -0.35252554                2.11221158               -0.32985488
              28.01220040               11.88584532               78.53454442                0.37964875                1.32802536                1.81003282               -5.73820391               -0.24873906                1.49521719               -0.37668318
              29.02721835               11.36573311               78.10596193                0.39189088                1.59693151                1.81181858               -6.02791892               -0.13943153                0.84557954               -0.45750668
              30.04413903               10.84630238               77.67009667                0.70086847                1.69206802                1.66649688               -5.80050031               -0.04515162                0.50711022               -0.63336808
              15.30009086                6.18127049               84.31835379                1.00000000                0.01299668                0.06305508               -0.22116370                0.05954297               -0.42146326                0.47713191
              16.30022083                5.66822907               83.89684898                1.00000000               -0.04227438               -0.02850101                0.09377916                0.06581182               -0.53813283                0.06307201
              17.29924537                5.15492756               83.47273204                1.00000000               -0.14474982               -0.10844043                0.39160277                0.06295201               -0.58438830               -0.02608811
              18.29732583                4.64097452               83.05025406                0.69687928               -0.25247555               -0.20830761                0.69669090                0.01506919               -0.53662041               -0.23201752
              19.29419586                4.12581543               82.62718568                0.53988297               -0.35289493               -0.31578709                1.00386205                0.00235337               -0.45614391               -0.24622279
              20.29026793                3.60959638               82.20663951                0.27313997               -0.45760528               -0.44849345                1.36388066               -0.14113792                0.12171420               -0.53901026
              21.28504375                3.09023106               81.79550055                0.00010000               -0.44937889               -0.49593971                1.61070639               -1.81318637                4.45175679               -1.32221595
              22.28128035                2.53901848               81.46059178                0.00010000                0.94998683               -0.20769400                0.10071430               -2.66296709                9.28218621               -1.93737758
              23.30404349                1.97115205               81.13341497                0.00010000                4.20678784               -1.95390168               -1.49050532               -2.64537378                9.80477092                0.20423342
              24.36541611                1.36789901               80.81782380                1.00000000                3.34738544                0.61059998               -2.18831374               -3.00057265                4.97917659               -0.07070521
              25.37099120                0.82810463               80.40304416                1.00000000                0.55750905                0.37913701               -1.48397358                0.05188070               -0.00593389               -0.07177315
              15.81372771                7.18190104               84.17907406                1.00000000                0.03226964                0.05485468               -0.23313506                0.01250388               -0.01067891                0.64982170
              16.81405041                6.66794406               83.75751621                1.00000000               -0.01127736               -0.03372195                0.08458249                0.02025573                0.04172198                0.08807510
              17.81350217                6.15384316               83.33665780                1.00000000               -0.10089120               -0.11472304                0.38587773                0.00576655                0.12438192               -0.18810850
              18.81203259                5.63889144               82.91647141                0.90479697               -0.17968517               -0.23189852                0.70105525               -0.01951165                0.25455506               -0.15266918
              19.80990846                5.12265756               82.49798525                0.78949707               -0.26919228               -0.34375044                1.04394963               -0.03837442                0.37413808               -0.16771844
              20.80664874                4.60511145               82.07967060                0.54336513               -0.38538096               -0.48077845                1.45778547               -0.12303773                0.61184104               -0.37094012
              21.80220084                4.08527166               81.66542655                0.18340257                0.37707238               -0.59671720                1.93249152               -1.51726918                3.83215570               -0.83461643
              22.81419019                3.53694154               81.31085277                0.00010000                3.04743212               -1.10218266               -0.62186818               -3.12199888                7.77341292               -0.68993111
              23.86314949                2.95161303               80.99793144                0.00010000                4.63719511               -2.08749572               -0.43293779               -3.63105512                9.69505127               -1.18610777
              24.90693409                2.37400501               80.67620306                1.00000000                2.40774506                0.55423074               -1.82031698               -1.72311598                4.67036004               -0.06967344
              25.91130439                1.83189600               80.26132734                1.00000000                0.43702973                0.32715886               -1.13374312               -0.06307818               -0.00192554               -0.09948714
              16.32825491                8.18236758               84.04293219                1.00000000                0.04289193                0.04382762               -0.24123776                0.00097189                0.11803418                0.75759612
              17.32868383                7.66755463               83.61846499                1.00000000                0.00792052               -0.03671458                0.08045356               -0.00375545                0.29511083                0.03210173
              18.32841332                7.15263310               83.19716897                0.00010000               -0.02813175               -0.11540099                0.39016711               -0.08924777                0.89559159               -0.61993005
              19.32812119                6.63633655               82.78429532                0.00010000               -0.06024749               -0.67654480                0.70231311               -0.45735989                1.33287277               -0.89506948
              20.32720837                6.11894042               82.37067125                0.00010000               -0.14640561               -1.04373358                1.05962720               -0.52118121                1.35507073               -1.13961714
              21.32519308                5.59998081               81.95683014                0.00010000               -0.21700430               -1.46277165                1.51461368               -0.34153067                1.69163830               -1.28179971
              22.32286828                5.07829671               81.54823598                0.00010000                1.36529635               -2.36891447                2.00922861               -1.44973733                4.09865404               -1.25060552
              23.35249901                4.51697482               81.18041896                0.00010000                3.57453161               -2.79761347                0.83773583               -4.26994889                5.89297844               -0.36823732
              24.39435891                3.92940213               80.83339905                0.00010000                4.90859051               -1.58956521               -0.25238117               -5.10038581                9.35601192               -4.56023763
              25.45067082                3.37898363               80.53475218                0.00010000                2.97943711                0.35234727               -1.47075522               -4.45093552                5.85164361               -6.68290569
              26.45394766                2.83464781               80.11979629                0.39240608                0.32768397                2.21174299               -0.80225072               -4.03109813                0.03736695               -6.10024937
              16.84337306                9.18277759               83.90563870                1.00000000                0.03367207                0.04516500               -0.23902352               -0.00755348                0.20197570                0.63100663
              17.84370979                8.66720976               83.47788414                0.57904883               -0.02188870               -0.03516134                0.08808627               -0.02381659                0.32714929               -0.24339963
              18.84293529                8.15153514               83.05236189                0.00010000               -0.35658608               -0.14225993                0.39096676               -0.56951657                0.89692484               -1.07105462
              19.83657806                7.62536055               82.63600246                0.00010000               -0.35473584               -0.88920639                0.33259955               -1.36031789                1.47975075               -1.80666986
              20.83584057                7.10178289               82.22263645                0.00010000                0.19418870               -1.48704288                0.28761173               -1.38919614                1.76511602               -2.30541463
              21.84046184                6.57585601               81.81274847                0.00010000                1.01857559               -2.16150370                0.21357691               -1.71337644                2.27675867               -2.62898704
              22.85621209                6.03789337               81.41208634                0.00010000                1.86119765               -3.07975443               -0.10861177               -2.54005784                2.69643019               -2.48663046
              23.87768579                5.48098927               81.02045301                0.00010000                2.14604401               -2.37952327               -0.58131107               -4.44470405                3.95204190               -3.64558640
              24.89913297                4.91982172               80.64652000                0.00010000                1.74919551               -0.21926734               -1.44093485               -5.03243936                4.07104898               -6.19351654
              25.91266970                4.38105196               80.26071781                0.00010000                1.01105467                0.87199568               -1.87832310               -4.62851788                2.55268154              -11.03952495
              26.91935406                3.87613086               79.85860258                0.39265711                0.66843584                2.74139588               -1.80838624               -2.80718744                1.95604169              -11.24040881
              17.35923950               10.18327088               83.76688929                1.00000000                0.02104569                0.05767488               -0.23280518               -0.00148250                0.01059357                0.51760942
              18.35944995                9.66685140               83.33318897                0.48746186               -0.01836452               -0.05013525                0.12641788               -0.04080596                0.22632922               -0.38848943
              19.35887220                9.14978790               82.90365767                0.00010000               -0.43914364               -0.20150734                0.41378033               -0.77932413                1.02433842               -1.35929952
              20.35066708                8.61855242               82.48597776                0.00010000               -0.49716141               -0.55959822                0.03462928               -1.57003488                1.65292650               -1.92536912
              21.34892898                8.08919957               82.07135789                0.00010000                0.20739954               -0.99356488               -0.34785425               -1.77134573                1.79321057               -2.46929840
              22.35481507                7.55675074               81.66005162                0.00010000                0.90024470               -1.40349704               -0.78746678               -2.40486037                1.84974883               -2.95497417
              23.36693387                7.01670162               81.25238030                0.00010000                1.34307498               -1.39001405               -1.30780462               -3.55435762                1.96998388               -3.60833530
              24.38167657                6.46938436               80.84935333                0.00010000                1.33567826               -0.50880921               -1.90625871               -4.35102216                2.03238014               -4.47027326
              25.39364744                5.92501678               80.44805674                0.00010000                1.00573753                0.80608504               -2.47029838               -3.99918246                1.85298819               -6.17483018
              26.40179132                5.39642354               80.04290389                0.00010000                0.69993307                1.54240201               -2.75256733               -2.36090753                1.15724421               -7.60227663
              27.40764610                4.88947573               79.62577765                0.39320158                0.58547769                1.24142426               -2.62003191               -1.15358006                0.72882601               -8.77371443
              17.87618238               11.18393109               83.62727017                1.00000000                0.01942678                0.07213736               -0.22869243               -0.00384678                0.00406921                0.49565832
              18.87637665               10.66620706               83.18948904                0.50290675               -0.02672965               -0.07059883                0.13946910               -0.05432837                0.06749181               -0.32234578
              19.87564779               10.14750499               82.75286801                0.00010000               -0.53054742               -0.22920506                0.48129586               -0.84697791                1.04328136               -1.33395029
              20.86576570                9.61416858               82.33462807                0.00010000               -0.67162239               -0.32277220               -0.18575422               -1.72255832                1.84338330               -1.91136077
              21.86221534                9.08191159               81.91788798                0.00010000               -0.04515642               -0.45445236               -0.82122076               -1.99687072                1.72296373               -2.42013724
              22.86486257                8.54778607               81.50269462                0.00010000                0.51379861               -0.47944344               -1.48221083               -2.60770684                1.54656825               -2.94278441
              23.87249131                8.01009309               81.08875621                0.00010000                0.87438070               -0.19173682               -2.16952666               -3.27471365                1.33087926               -3.52112989
              24.88235019                7.47081308               80.67546494                0.00010000                0.98094102                0.48577748               -2.83219835               -3.49965123                1.12164091               -4.25775497
              25.89211013                6.93594343               80.26153095                0.00010000                0.93212103                1.22177304               -3.35548159               -2.85995631                0.87726867               -5.13828371
              26.90099261                6.41190000               79.84449335                0.00010000                0.90339756                1.54382208               -3.60489924               -1.52526313                0.51551820               -6.03815998
              27.91017808                5.90095935               79.42150895                0.39400495                0.91854775                1.21108409               -3.48644850               -0.57080828                0.38278768               -6.68112793
              18.39461062               12.18471363               83.48796037                1.00000000                0.01788640                0.08279324               -0.23555875               -0.00167811               -0.00022554                0.52849961
              19.39478949               11.66543942               83.04605262                0.54010930               -0.03197489               -0.07686696                0.14626322               -0.05085812                0.02216006               -0.29914649
              20.39397113               11.14520380               82.60452311                0.00010000               -0.64900886               -0.22636957                0.51588279               -0.75024947                1.06909623               -1.16093261
              21.38180931               10.61209698               82.18354161                0.00010000               -0.92985272               -0.08041561               -0.34003615               -1.58035526                1.94107630               -1.74280327
              22.37537407               10.08011052               81.76441782                0.00010000               -0.36649365                0.05476202               -1.15958335               -1.87425785                1.73362034               -2.17671198
              23.37447944                9.54716187               81.34576030                0.00010000                0.15192582                0.24133801               -1.98483848               -2.32867547                1.38637570               -2.59205210
              24.37841259                9.01286689               80.92671736                0.00010000                0.56768857                0.57277766               -2.80334370               -2.68624197                1.00937831               -3.04222894
              25.38583321                8.47909991               80.50674828                0.00010000                0.84744039                1.03474226               -3.54841818               -2.63981751                0.68397104               -3.55149802
              26.39536140                7.94945225               80.08532794                0.00010000                1.02184635                1.44646061               -4.11428645               -2.04802560                0.43789340               -4.11909906
              27.40627014                7.42729998               79.66164486                0.00010000                1.13749184                1.58061398               -4.38031740               -1.05573457                0.23003196               -4.69103342
              28.41811123                6.91369741               79.23459186                0.39462883                1.18410964                1.34467629               -4.24608446               -0.38573728                0.20750414               -5.19235914
              18.91469723               13.18558696               83.34888230                1.00000000                0.01720846                0.08889127               -0.24807066                0.00084121                0.00077744                0.54792981
              19.91486932               12.66466972               82.90282802                0.57723417               -0.03559933               -0.07325199                0.15123376               -0.03840114                0.02442058               -0.28450566
              20.91398525               12.14297760               82.45720879                0.00010000               -0.78087210               -0.21717012                0.53824895               -0.52172055                1.16821968               -1.09604419
              21.89925188               11.61256027               82.03402652                0.00010000               -1.21599786                0.17100031               -0.44892927               -1.17017995                2.10888807               -1.47422883
              22.88966529               11.08300683               81.61302976                0.00010000               -0.68595911                0.48867201               -1.40131031               -1.47653315                1.84190362               -1.77926676
              23.88553269               10.55261283               81.19185145                0.00010000               -0.14184275                0.76442922               -2.35203003               -1.85349751                1.38376305               -2.06317152
              24.88682844               10.02154864               80.76935767                0.00010000                0.37178917                1.05846269               -3.28025653               -2.05576540                0.90034150               -2.36609571
              25.89296848                9.49150793               80.34512677                0.00010000                0.80605555                1.37321011               -4.11275775               -1.92823717                0.50686179               -2.70402492
              26.90294955                8.96487264               79.91912686                0.00010000                1.13321370                1.61622187               -4.73781980               -1.44185189                0.25438310               -3.07760859
              27.91563275                8.44351228               79.49135217                0.00010000                1.33594695                1.67039748               -5.02906036               -0.73155791                0.11504900               -3.46953802
              28.92966849                7.92785287               79.06143715                0.39537410                1.40357336                1.47342599               -4.87303838               -0.25251575                0.13713042               -3.85988719
              19.43646192               14.18649146               83.20987566                1.00000000                0.01689042                0.09005679               -0.26272688                0.00356516                0.01099656                0.54673268
              20.43663082               13.66397438               82.75971278                0.62471312               -0.04078763               -0.06568596                0.15858371               -0.02598127                0.04507384               -0.29031327
              21.43564617               13.14086040               82.31022154                0.00010000               -0.91271734               -0.20427601                0.56057192               -0.16877378                1.38798856               -0.93253036
              22.41837648               12.61551698               81.88693624                0.00010000               -1.49276611                0.43755590               -0.52629797               -0.54038563                2.43011897               -1.13109238
              23.40579084               12.08988396               81.46506617                0.00010000               -0.97543993                0.86822392               -1.57382196               -0.96463310                2.04886448               -1.27220617
              24.39886768               11.56245045               81.04251831                0.00010000               -0.36943301                1.12890472               -2.61947931               -1.31679990                1.48921988               -1.42574379
              25.39840218               11.03403614               80.61801884                0.00010000                0.25383960                1.36741751               -3.63776792               -1.44714345                0.92011392               -1.60173652
              26.40394447               10.50656411               80.19127748                0.00010000                0.80589122                1.58951646               -4.54934095               -1.30814849                0.47016700               -1.80268563
              27.41452001                9.98177668               79.76256325                0.00010000                1.23571358                1.74452369               -5.23291792               -0.93774829                0.19759658               -2.03331120
              28.42865874                9.46070793               79.33224873                0.00010000                1.49298584                1.76323255               -5.54718201               -0.45230728                0.07541495               -2.29443832
              29.44437972                8.94316593               78.90029550                0.39604577                1.57209836                1.58423708               -5.36254554               -0.13214071                0.10853035               -2.58330503
              19.95980268               15.18738809               83.07072702                1.00000000                0.01780704                0.09092832               -0.27999295                0.00418806                0.01806129                0.45650171
              20.95998075               14.66335600               82.61639305                0.52966774               -0.03677540               -0.06163257                0.17278831               -0.01623784                0.22556999               -0.28905550
              21.95906717               14.13889208               82.16622079                0.00010000               -1.02800752               -0.19627519                0.56038143                0.31580422                1.77457605               -0.72593023
              22.93942060               13.62131139               81.74297460                0.00010000               -1.78140090                0.83154058               -0.58426691                0.03732348                2.80196293               -0.65447287
              23.92343916               13.10037131               81.32149974                0.00010000               -1.21880440                1.12331244               -1.69975823               -0.44943999                2.31131767               -0.66564864
              24.91504451               12.57519093               80.89861660                0.00010000               -0.48336231                1.34684919               -2.81244709               -0.73771393                1.64155655               -0.72743703
              25.91377191               12.04889699               80.47328044                0.00010000                0.20102258                1.55313891               -3.89915177               -0.79415818                0.99887769               -0.80332745
              26.91906497               11.52329826               80.04534921                0.00010000                0.81394239                1.73380774               -4.87674550               -0.69331253                0.50185472               -0.89262930
              27.93005076               10.99976311               79.61528174                0.00010000                1.30661971                1.84895248               -5.61526500               -0.47042745                0.20503213               -1.00220432
              28.94519736               10.47877693               79.18360910                0.00010000                1.60294596                1.85266147               -5.95571080               -0.20731317                0.07177226               -1.13935831
              29.96210968                9.95953761               78.75032299                0.39669021                1.69123171                1.69678661               -5.74042648               -0.02592888                0.09895424               -1.31705838
              20.48460986               16.18831002               82.92990203                1.00000000                0.01922195                0.09219312               -0.29312629               -0.07611119                0.21869836                0.37231849
              21.48480208               15.66274173               82.47331764                0.71742477               -0.03014981               -0.06142686                0.17847956               -0.08662373                0.54904484               -0.27839564
              22.48400687               15.13693489               82.02337777                0.36549549               -1.35791842               -0.19571841                0.56109833                0.96427206                2.38251157               -0.66553743
              23.45764371               14.63214779               81.60371232                0.36212097               -2.05421806                1.08364065               -0.65192398                0.59307667                3.22213954               -0.24211052
              24.44292250               14.11235021               81.18300522                0.36076731               -1.10279971                1.19788965               -1.80154043               -0.18968307                2.52095524               -0.26948034
              25.43558772               13.58938744               80.76055850                0.36189130               -0.42554071                1.41965102               -2.95183119               -0.30824410                1.78110796               -0.30159485
              26.43441169               13.06509892               80.33528879                0.36472255                0.18121908                1.62019269               -4.08182333               -0.34338072                1.08006865               -0.33905281
              27.43921210               12.54124026               79.90718955                0.36987795                0.76105491                1.79420068               -5.10898108               -0.30244600                0.55482517               -0.37810598
              28.44963279               12.01875573               79.47690463                0.37775366                1.27629371                1.89926211               -5.90040250               -0.21575219                0.26249211               -0.42735621
              29.46473797               11.49776116               79.04512651                0.38827063                1.63534930                1.89842328               -6.28970495               -0.12864224                0.13558107               -0.49484529
              30.48233977               10.97710166               78.61155438                0.69867278                1.76018001                1.75640458               -6.07845724               -0.04294041                0.16179854               -0.61109264
              15.71570959                6.32538500               85.31582221                1.00000000                0.02477294                0.07581382               -0.27319788                0.06565040               -0.43999052                0.47851962
              16.71595732                5.80824814               84.89758569                1.00000000               -0.03536236               -0.01851745                0.05798111                0.07237924               -0.57112991                0.06543861
              17.71500234                5.29077736               84.47654444                1.00000000               -0.14523797               -0.09840534                0.36794896                0.06787452               -0.62257888               -0.02482487
              18.71305256                4.77242950               84.05723379                0.69877868               -0.25971945               -0.20634972                0.69007666                0.00685277               -0.56446701               -0.22845050
              19.70980795                4.25245107               83.63735943                0.55911287               -0.36511033               -0.32781337                1.01559093               -0.00374605               -0.43611796               -0.21622751
              20.70575035                3.73085953               83.22065868                0.32805583               -0.44639453               -0.48304361                1.41797283               -0.10475173                0.14669535               -0.47173106
              21.70088006                3.20626439               82.81240302                0.00010000               -0.12818855               -0.63849164                1.71402956               -0.83265871                3.42122827               -1.08129431
              22.70318658                2.66781131               82.46071370                0.00010000                1.08899097               -0.64568649                0.16481937               -2.78036969                7.31978425               -2.75358920
              23.72265988                2.10379979               82.11665346                0.00010000                3.68884777               -1.52477976               -1.22474303               -2.72432780                7.80690984                0.51995939
              24.77696354                1.50694028               81.79621192                1.00000000                2.97699665                0.61118282               -2.12205582               -2.68280689                4.37076582               -0.06794984
              25.78219981                0.96726602               81.38889943                1.00000000                0.52362776                0.34708145               -1.34621194                0.09389616               -0.00662705               -0.06737233
              16.23350295                7.32614314               85.17644259                1.00000000                0.04819787                0.06417631               -0.28247723                0.01651211               -0.02771422                0.64691119
              17.23398493                6.80806297               84.75818091                1.00000000                0.00437246               -0.02587110                0.05130486                0.02485795                0.01067358                0.09111245
              18.23359040                6.28979330               84.34041988                1.00000000               -0.08503514               -0.10647379                0.36092997                0.00329667                0.09264106               -0.17845953
              19.23228423                5.77036601               83.92348183                0.91639163               -0.15174634               -0.23810338                0.68608265               -0.02796058                0.25507776               -0.14540438
              20.23055548                5.24917293               83.50855537                0.81557801               -0.22440293               -0.36268417                1.03923075               -0.05108028                0.46280371               -0.14438868
              21.22779617                4.72602910               83.09471111                0.60862282               -0.32389464               -0.52332511                1.49844675               -0.13295064                0.85223893               -0.31971643
              22.22407758                4.19987947               82.68590969                0.31733353               -0.05904952               -0.73347245                2.10026043               -0.68482654                2.88141159               -0.71089430
              23.22661518                3.66135445               82.30955447                0.00327086                2.58872661               -0.93260764                0.79298862               -2.44858291                7.30860213               -1.45006575
              24.27585212                3.08855200               81.99624142                0.09089802                4.58935857               -2.35862698               -0.29060453               -3.06070259               10.15349868               -1.57806412
              25.31840235                2.51305211               81.65785706                1.00000000                2.34804605                0.57326366               -1.86899505               -1.61469003                3.45728791               -0.07270525
              26.32281304                1.97073684               81.25039242                1.00000000                0.44106844                0.30665324               -1.06531562               -0.03659387                0.00392917               -0.09123064
              16.75220018                8.32666853               85.04024740                1.00000000                0.06041344                0.04781121               -0.28651297                0.00102552                0.09920284                0.75801815
              17.75280431                7.80773072               84.61911607                1.00000000                0.02825259               -0.03072436                0.05125435               -0.00728111                0.26541580                0.04331120
              18.75276523                7.28864788               84.20100533                0.00010000                0.01547007               -0.10591051                0.36972568               -0.12817896                0.85995290               -0.60074427
              19.75311372                6.76766744               83.79129070                0.00010000                0.01790120               -0.69330966                0.67542832               -0.56290364                1.33665255               -1.06310704
              20.75312326                6.24519738               83.38132924                0.00010000               -0.03644600               -1.03950547                1.02756290               -0.72092642                1.47712189               -1.50787850
              21.75238480                5.72039303               82.97230155                0.00010000               -0.06325385               -1.41392915                1.49548991               -0.72097638                1.98667291               -1.92374073
              22.75185818                5.19159494               82.56916320                0.00010000                0.65788015               -1.99181937                2.05731394               -0.85168530                4.04921289               -2.36526230
              23.76554240                4.64915916               82.19575306                0.00010000                2.89449919               -2.69167317                1.52043241               -3.10893133                5.45511646               -2.59956575
              24.80974816                4.05662725               81.83623253                0.00010000                4.84712479               -2.00021728                1.35340374               -4.43135745                9.72629734               -4.75199773
              25.86248489                3.51840556               81.51948199                0.00010000                2.81751624                0.15389517               -1.61943011               -3.55286480                4.56044730               -6.98746706
              26.86609849                2.97339909               81.11190522                0.38826830                0.36135930                1.92514699               -0.78655925               -3.67959157                0.04180223               -6.75416177
              17.27139909                9.32709937               84.90301826                1.00000000                0.04608734                0.04721682               -0.27715725               -0.01299396                0.18014729                0.63717154
              18.27185996                8.80744848               84.47865358                0.60339966               -0.01544907               -0.02660224                0.06606147               -0.03565809                0.28995037               -0.21083189
              19.27109011                8.28767509               84.05627647                0.00010000               -0.36916528               -0.12982598                0.38512612               -0.63978690                0.66488174               -1.03809361
              20.26447665                7.75649981               83.63938100                0.00010000               -0.38393756               -0.87985271                0.33040729               -1.54704265                1.06347416               -2.11319772
              21.26341135                7.22838282               83.22561154                0.00010000                0.12512151               -1.41306956                0.28129612               -1.70092154                1.34100436               -2.98200754
              22.26697909                6.69775051               82.81506670                0.00010000                0.74331973               -1.91352245                0.19124125               -1.99600526                1.76258681               -3.77829832
              23.27827775                6.16004309               82.41162041                0.00010000                1.62125781               -2.49084494               -0.11373960               -2.60565880                2.18739096               -4.39230929
              24.29940424                5.60752098               82.01636895                0.00010000                1.98504099               -2.63580493               -0.50780790               -3.75680603                2.94131956               -5.93034014
              25.31797857                5.04854765               81.63212954                0.00010000                1.55844917               -0.06781503               -1.64570240               -4.39720793                2.63608563               -7.56668445
              26.33057322                4.51613001               81.24201497                0.00010000                1.06277892                0.46935890               -1.90464793               -3.95764762                2.12992359              -11.61424657
              27.33923415                4.00923977               80.84030085                0.38848709                0.86609228                2.29635341               -1.89851791               -2.46009675                1.60841049              -12.57560700
              17.79124208               10.32761287               84.76438290                1.00000000                0.02733515                0.06147650               -0.26170640               -0.00434356                0.01201078                0.52424858
              18.79151543                9.80719867               84.33439118                0.51979469               -0.01619581               -0.04295305                0.11271363               -0.05195927                0.18847458               -0.35472057
              19.79091816                9.28605136               83.90782812                0.00010000               -0.50251469               -0.19187794                0.41300712               -0.82785621                0.62045389               -1.29581346
              20.78146513                8.75007038               83.48647292                0.00010000               -0.65320164               -0.50455330                0.06035938               -1.69403370                0.89184913               -2.14882166
              21.77785413                8.21693599               83.06808167                0.00010000               -0.03303527               -0.85379863               -0.31710643               -1.90550096                0.96636117               -2.98090839
              22.78080443                7.68212258               82.65232824                0.00010000                0.60602035               -1.11085031               -0.78570118               -2.47890647                0.94099641               -3.80169617
              23.78997453                7.14177804               82.23941490                0.00010000                1.05486434               -1.12268421               -1.34950534               -3.35082066                0.93871796               -4.74875923
              24.80190171                6.59644306               81.83008484                0.00010000                1.16102197               -0.41295400               -2.03733524               -4.06055840                0.89966893               -5.78681220
              25.81319497                6.05527095               81.42262401                0.00010000                1.03690515                0.84492232               -2.65856082               -3.62863564                0.94556825               -7.26878778
              26.82263982                5.52779273               81.01447898                0.00010000                0.87410300                1.26764326               -3.00905691               -2.11677189                0.66913780               -8.68318618
              27.83067703                5.01932615               80.59886900                0.38934727                0.80372152                0.99083240               -2.86297643               -1.03931487                0.60598148               -9.86625677
              18.31214060               11.32832890               84.62485660                1.00000000                0.02416801                0.07753962               -0.24828101               -0.00691905                0.00312580                0.49452019
              19.31238228               10.80658942               84.19084784                0.53842011               -0.02396641               -0.06867022                0.12981550               -0.06072585                0.05055788               -0.30528052
              20.31166127               10.28383753               83.75771079                0.00010000               -0.63354653               -0.22540738                0.47769127               -0.85480772                0.51874870               -1.26500398
              21.29971135                9.74640875               83.33301131                0.00010000               -0.92060680               -0.24560155               -0.13490160               -1.73991502                0.80230582               -2.05631979
              22.29324914                9.21130685               82.90998416                0.00010000               -0.35762228               -0.29804562               -0.75648654               -1.97240808                0.62592937               -2.77708302
              23.29255890                8.67553351               82.48806916                0.00010000                0.18458603               -0.26528666               -1.45343633               -2.49458654                0.35895002               -3.51305929
              24.29694086                8.13758940               82.06694254                0.00010000                0.60706285                0.02060158               -2.22798125               -3.04768186                0.08982586               -4.28441965
              25.30470016                7.59926190               81.64655388                0.00010000                0.85576623                0.61013310               -3.00699393               -3.17027978               -0.04317342               -5.14512817
              26.31405618                7.06544610               81.22695824                0.00010000                0.97412123                1.19618374               -3.65509696               -2.56197806               -0.04470497               -6.07753176
              27.32418259                6.54148288               80.80709735                0.00010000                1.06624150                1.43993494               -3.99534391               -1.36627950                0.01446045               -7.03631157
              28.33538101                6.02905642               80.38525664                0.38957075                1.11984253                1.11020141               -3.89990190               -0.50480918                0.15868226               -7.70804217
              18.83458265               12.32916366               84.48552095                1.00000000                0.02096221                0.08720760               -0.24745356               -0.00398520               -0.00119828                0.51699923
              19.83479227               11.80582527               84.04749618                0.57700126               -0.02899879               -0.07666710                0.13909113               -0.05376133                0.01337557               -0.28461366
              20.83400267               11.28154321               83.60971318                0.00010000               -0.77973781               -0.22544650                0.51009082               -0.71300183                0.45653129               -1.11088416
              21.81919752               10.74515835               83.18045826                0.00010000               -1.23607343               -0.00230042               -0.26866001               -1.50141938                0.70404981               -1.82649514
              22.80928121               10.21097508               82.75324195                0.00010000               -0.72836855                0.19316594               -1.06436340               -1.74407598                0.43527177               -2.40908002
              23.80463015                9.67681685               82.32617638                0.00010000               -0.19943531                0.41647773               -1.93288466               -2.14457305                0.00713108               -2.98022359
              24.80529250                9.14219007               81.89854521                0.00010000                0.30046395                0.74206599               -2.85717578               -2.44377088               -0.38796665               -3.58066025
              25.81063942                8.60864572               81.47056159                0.00010000                0.72209675                1.15217000               -3.75156878               -2.37726179               -0.60316603               -4.21786309
              26.81973443                8.07919463               81.04288029                0.00010000                1.05322383                1.50305716               -4.47676064               -1.82919773               -0.56667849               -4.88823705
              27.83170390                7.55659143               80.61610654                0.00010000                1.28496642                1.60356378               -4.86940751               -0.93715130               -0.32811341               -5.51842231
              28.84543376                7.04153018               80.19031639                0.39032866                1.37298624                1.37793509               -4.77976674               -0.33080309               -0.03364373               -5.99482267
              19.35873768               13.33007305               84.34635264                1.00000000                0.01898246                0.09160705               -0.25382172               -0.00070283               -0.00031274                0.53025219
              20.35892750               12.80505608               83.90433388                0.61459528               -0.03347609               -0.07292765                0.14588637               -0.03794550                0.01607566               -0.26689005
              21.35806815               12.27932860               83.46261363                0.00010000               -0.93382015               -0.21559843                0.53150315               -0.44438673                0.48728830               -1.04629721
              22.34025110               11.74636274               83.02992877                0.00010000               -1.56795167                0.24370778               -0.35905844               -1.01957231                0.72855138               -1.51219343
              23.32670912               11.21517017               82.59954586                0.00010000               -1.08993241                0.61555334               -1.27798529               -1.29489807                0.39161968               -1.91968392
              24.31845245               10.68386306               82.16869580                0.00010000               -0.52362773                0.91839599               -2.27390672               -1.65140214               -0.14888082               -2.31846304
              25.31623657               10.15243072               81.73646914                0.00010000                0.08489613                1.21168981               -3.32136413               -1.84113955               -0.64483869               -2.73963585
              26.32015037                9.62230530               81.30326512                0.00010000                0.66449752                1.50706986               -4.32486344               -1.72376196               -0.91145045               -3.18778603
              27.32952652                9.09550724               80.87032863                0.00010000                1.14768175                1.72829075               -5.13518588               -1.28205977               -0.85760350               -3.64498829
              28.34310401                8.57355416               80.43911497                0.00010000                1.46804686                1.77769501               -5.57629220               -0.64439158               -0.50674202               -4.06974335
              29.35888745                8.05661512               80.01061691                0.39066231                1.57834466                1.60535336               -5.47984216               -0.21270069               -0.13840272               -4.40783129
              19.88460254               14.33099580               84.20722696                1.00000000                0.01752694                0.09104141               -0.26363875                0.00282398                0.00978575                0.52455775
              20.88477781               13.80436672               83.76130252                0.66431790               -0.03971307               -0.06487868                0.15465554               -0.02323295                0.03355832               -0.26462896
              21.88380828               13.27723124               83.31584088                0.00010000               -1.09066511               -0.20176220                0.55300387               -0.05579523                0.64880348               -0.88599339
              22.86296450               12.75003251               82.88214381                0.00010000               -1.89626768                0.51889799               -0.41731342               -0.34034719                0.93917811               -1.13497621
              23.84588292               12.22328615               82.44997750                0.00010000               -1.43114776                1.00064246               -1.42054606               -0.77855387                0.48084857               -1.34396048
              24.83434155               11.69518477               82.01681463                0.00010000               -0.79277279                1.27631658               -2.51028293               -1.14328583               -0.17100114               -1.57599294
              25.83002747               11.16642387               81.58165228                0.00010000               -0.06269412                1.51768125               -3.65575842               -1.28325065               -0.75798892               -1.83531182
              26.83308767               10.63878712               81.14509442                0.00010000                0.64084600                1.73785759               -4.75301460               -1.16474199               -1.07719804               -2.11382692
              27.84284439               10.11376044               80.70879107                0.00010000                1.23102584                1.89261481               -5.63935836               -0.83371168               -1.02161073               -2.39941970
              28.85770818                9.59214533               80.27475171                0.00010000                1.61067120                1.91979147               -6.11873452               -0.39959029               -0.60958622               -2.66574564
              29.87505781                9.07363725               79.84447511                0.39158410                1.73496271                1.77111213               -6.00093724               -0.10962466               -0.19902199               -2.87719543
              20.41205232               15.33189388               84.06792627                1.00000000                0.01750749                0.09033752               -0.27698754                0.00430985                0.02228572                0.43316911
              21.41222740               14.80375850               83.61813868                0.56632654               -0.03829318               -0.06077919                0.17063268               -0.01203949                0.19717204               -0.26016608
              22.41128646               14.27529336               83.17184846                0.00010000               -1.24190722               -0.19164951                0.55454783                0.47099117                0.97936712               -0.68248005
              23.38738925               13.75674070               82.73769293                0.00010000               -2.26503381                0.96859366               -0.45324995                0.22243588                1.23319435               -0.64365276
              24.36598578               13.23518302               82.30529398                0.00010000               -1.74701220                1.26834898               -1.51133648               -0.31934042                0.65414742               -0.69105590
              25.35244901               12.70938939               81.87113795                0.00010000               -0.95082904                1.49253539               -2.66496404               -0.63756108               -0.12000782               -0.79432664
              26.34696920               12.18278435               81.43443656                0.00010000               -0.14650250                1.70117863               -3.88370438               -0.70393239               -0.79421273               -0.91397660
              27.34951896               11.65706245               80.99598610                0.00010000                0.62624334                1.88860798               -5.05801780               -0.61869821               -1.16669694               -1.04367429
              28.35949407               11.13335954               80.55772624                0.00010000                1.28582183                2.01459914               -6.01344846               -0.42217850               -1.12373268               -1.17949836
              29.37523539               10.61194999               80.12202230                0.00010000                1.71085305                2.03280332               -6.53065115               -0.18750653               -0.68019763               -1.31082473
              30.39371113               10.09203737               79.69072482                0.39196846                1.84757343                1.89902456               -6.38175632               -0.01818962               -0.24452008               -1.41034833
              20.94095948               16.33280255               83.92698777                1.00000000                0.01780520                0.09086740               -0.28697997               -0.07442575                0.21164239                0.34907517
              21.94113753               15.80315113               83.47514129                0.73522143               -0.03567896               -0.06073699                0.17922987               -0.07920109                0.49676784               -0.24924434
              22.94024590               15.27339825               83.02901263                0.36504097               -1.68069851               -0.18951054                0.55471829                1.20860683                1.52763037               -0.61522630
              23.90752356               14.76940438               82.59787557                0.36200703               -2.66992409                1.26636808               -0.49085178                0.77617469                1.59224900               -0.23058951
              24.88684742               14.24865312               82.16594607                0.36086953               -1.67672822                1.34701069               -1.57159189               -0.13228137                0.81076993               -0.27597314
              25.87398900               13.72503548               81.73186086                0.36164912               -0.92858316                1.56460824               -2.75962837               -0.25628504               -0.05066651               -0.32484523
              26.86827576               13.20044744               81.29477069                0.36425467               -0.19252430                1.76630955               -4.02671167               -0.29315423               -0.80481198               -0.37600705
              27.87013851               12.67655928               80.85560813                0.36858188                0.56187647                1.94968238               -5.26215339               -0.25779529               -1.22572764               -0.42405042
              28.87951329               12.15405243               80.41653637                0.37545406                1.25708541                2.06928901               -6.28620677               -0.18597208               -1.19065802               -0.47307005
              29.89528022               11.63280140               79.98016783                0.38464227                1.75029835                2.08514150               -6.86927649               -0.11725160               -0.72165159               -0.52329884
              30.91451925               11.11161774               79.54852753                0.69620598                1.92390322                1.95803728               -6.72866442               -0.03755350               -0.26483081               -0.56271673
              16.12776410                6.46960012               86.31288983                1.00000000                0.03119032                0.08139553               -0.29841777                0.06799863               -0.46272952                0.47944967
              17.12807600                5.94834740               85.89800860                1.00000000               -0.03092010               -0.01114736                0.03256107                0.07506295               -0.61132284                0.06700477
              18.12714569                5.42668018               85.48009102                1.00000000               -0.14272479               -0.08671059                0.33961583                0.06893787               -0.66633461               -0.02742562
              19.12522150                4.90390942               85.06405559                0.69917940               -0.25485442               -0.19829735                0.66391798               -0.00134416               -0.59276590               -0.23120946
              20.12204860                4.37909900               84.64749750                0.57874228               -0.35316273               -0.32990313                0.98695490               -0.00396017               -0.39719809               -0.18959365
              21.11815825                3.85205691               84.23499896                0.38796653               -0.43176510               -0.49826602                1.40743472               -0.05726504                0.21439605               -0.37247831
              22.11341330                3.32159181               83.82978115                0.12172519                0.26336717               -0.72982306                1.77894032               -0.13234703                2.61601390               -0.63349149
              23.12342559                2.78626515               83.46388817                0.00010000                0.56350833               -1.33642832                0.54601232               -2.30033445                5.18534751               -2.32598672
              24.12468347                2.22237531               83.10892011                0.00010000                2.85799329               -2.19026300               -0.16647449                2.17256870                8.26377453               -0.54843131
              25.18058546                1.64324973               82.77538268                1.00000000                3.04000838                0.60311096               -2.00399696               -1.79586517                3.30567421               -0.10685509
              26.18548364                1.10377121               82.37611992                1.00000000                0.48981797                0.32943835               -1.25128926                0.13501123               -0.00979261               -0.04147602
              16.64969680                7.47041407               86.17342451                1.00000000                0.05897944                0.06760798               -0.30754231                0.01906216               -0.05064985                0.64329474
              17.65028660                6.94823593               85.75854231                1.00000000                0.01786308               -0.01996133                0.02549188                0.02786120               -0.03289815                0.09349204
              18.65005406                6.42581308               85.34387640                1.00000000               -0.06439711               -0.09592819                0.32617472               -0.00087137                0.04151872               -0.17051969
              19.64899865                5.90192645               84.93019307                0.93034929               -0.10594016               -0.23670921                0.64133538               -0.03521436                0.22981735               -0.14610411
              20.64793526                5.37579997               84.51876987                0.84556880               -0.13297308               -0.36861615                0.96978712               -0.05804279                0.52706264               -0.12477400
              21.64633919                4.84707425               84.10963953                0.68225831               -0.14747734               -0.54532533                1.41614730               -0.12860293                1.12124647               -0.24907665
              22.64498571                4.31429358               83.70743176                0.46587015                0.18456542               -0.81555348                2.00698915               -0.35928243                2.83161388               -0.44906792
              23.65003050                3.77290087               83.32671254                0.24818188                3.64655778               -1.40480617                1.79545462               -2.13572424                6.69057337               -1.34696296
              24.71791687                3.20047268               82.99211935                0.39329756                3.59491773               -1.19506259               -0.63855521                0.84262134                7.32241901               -0.30332366
              25.72192885                2.64928084               82.63882316                1.00000000                0.41976980                0.59133257               -1.90794285               -0.38927375                2.31656460               -0.13529813
              26.72631226                2.10706560               82.24002103                1.00000000                0.43834094                0.29424657               -1.01967049                0.00115571                0.02862666               -0.03758025
              17.17250163                8.47095228               86.03720193                1.00000000                0.07325836                0.04857275               -0.31071994                0.00001764                0.07335029                0.76080349
              18.17323422                7.94794817               85.61949008                1.00000000                0.04680559               -0.02589549                0.02643194               -0.01133350                0.22148723                0.05661658
              19.17343775                7.42476162               85.20456348                0.00010000                0.06480533               -0.09313044                0.33552061               -0.16607463                0.79055643               -0.57427827
              20.17453032                6.89917524               84.79780388                0.00010000                0.11511005               -0.70060419                0.60819619               -0.67605592                1.27612926               -1.21009609
              21.17573995                6.37172668               84.39122251                0.00010000                0.12811258               -1.02048285                0.91073560               -0.94925670                1.50090582               -1.83209601
              22.17709258                5.84115040               83.98673994                0.00010000                0.23305446               -1.34054449                1.30806097               -1.15402120                2.16677913               -2.49462069
              23.18040104                5.30528074               83.58938226                0.00010000                0.87197176               -1.72490490                1.76478473               -1.46547164                3.84387110               -3.32801539
              24.19453201                4.75816903               83.21082761                0.00010000                4.23774448               -2.24250910                1.33657890               -2.04170663                6.39422863               -4.60129201
              25.26515593                4.19847406               82.86046712                0.00010000                3.58375274               -0.91880623                0.87297136               -4.74004272                6.79428043               -5.35333628
              26.26620707                3.65507638               82.50236358                0.00010000                0.23906530                0.22445976               -1.75986419               -3.18249505                2.04943576               -7.29305437
              27.26993723                3.10965614               82.10406511                0.38427260                0.37301660                1.52946739               -0.77623020               -3.11011074                0.03611877               -7.39861639
              17.69570536                9.47138553               85.90009555                1.00000000                0.05452187                0.04826170               -0.29740536               -0.01867540                0.15316418                0.65015445
              18.69625058                8.94771802               85.47920537                0.62944048               -0.00999282               -0.01927216                0.04526113               -0.04475275                0.24617343               -0.17416536
              19.69550551                8.42395047               85.06006442                0.00010000               -0.38690527               -0.11621521                0.36495750               -0.70209323                0.42222458               -0.99983031
              20.68851248                7.88791436               84.64261061                0.00010000               -0.42652743               -0.86147785                0.31413449               -1.74199845                0.60852027               -2.36094595
              21.68697496                7.35539031               84.22826237                0.00010000                0.05961118               -1.32589492                0.24187467               -2.04950344                0.81893291               -3.55629727
              22.68970470                6.82026336               83.81657329                0.00010000                0.58413482               -1.67180232                0.07904673               -2.51928190                1.07910853               -4.77606923
              23.69865766                6.27979549               83.40981155                0.00010000                1.31491766               -1.94382171               -0.30677599               -3.23310374                1.42938851               -6.13871781
              24.71600305                5.72805068               83.01029685                0.00010000                1.37755030               -1.73529183               -0.87141364               -3.78850500                1.41302774               -7.77017379
              25.72620866                5.18209656               82.61360595                0.00010000                1.55469066               -0.68308637               -1.69502529               -5.56359633                1.51097146               -9.91253060
              26.74709687                4.65377003               82.22262486                0.00010000                1.43709281                0.13005288               -2.07994678               -3.58597974                1.49081553              -12.59719613
              27.75495052                4.13765494               81.82063222                0.38469292                0.78536501                1.87693251               -2.12662143               -2.55908584                1.03915841              -14.09982048
              18.21946315               10.47191751               85.76165517                1.00000000                0.03110702                0.06489559               -0.27575992               -0.00762546                0.01191530                0.54043166
              19.21977422                9.94756273               85.33544324                0.55408540               -0.01318080               -0.03607847                0.09642598               -0.05985762                0.14849307               -0.31981331
              20.21919954                9.42243732               84.91191781                0.00010000               -0.57618547               -0.18153117                0.39596996               -0.86316313                0.22705815               -1.24043469
              21.20825051                8.88194568               84.48718495                0.00010000               -0.83993266               -0.44287570                0.09299419               -1.81012848                0.12859085               -2.31435838
              22.20240088                8.34520878               84.06501576                0.00010000               -0.29743735               -0.70903319               -0.28197146               -2.07651034                0.07360359               -3.39329157
              23.20230177                7.80771436               83.64433759                0.00010000                0.27753766               -0.82933033               -0.80734791               -2.67129902               -0.10279195               -4.52509228
              24.20795164                7.26640431               83.22539019                0.00010000                0.70795383               -0.72605511               -1.48322721               -3.35528527               -0.29790059               -5.74119177
              25.21646084                6.72346319               82.80860663                0.00010000                1.01065082               -0.03084617               -2.28201733               -3.80620067               -0.33425733               -7.02918473
              26.22816465                6.18481233               82.39488553                0.00010000                1.12341202                0.60199767               -3.00545456               -3.06609273               -0.11892535               -8.34416832
              27.23892908                5.65767744               81.98272275                0.00010000                1.14105194                0.78880912               -3.44691948               -2.08654961                0.09525029              -10.03315093
              28.25098569                5.14719479               81.56851812                0.38497908                1.20566084                0.88480852               -3.36352197               -0.94413275                0.37069446              -11.31672498
              18.74426242               11.47268344               85.62230455                1.00000000                0.02712062                0.08200332               -0.25576633               -0.01004683                0.00160619                0.50256498
              19.74453363               10.94699645               85.19208535                0.57504929               -0.02015617               -0.06508055                0.11542459               -0.06365238                0.03123536               -0.28954727
              20.74385930               10.42031985               84.76242183                0.00010000               -0.74975906               -0.21770226                0.45660960               -0.84997324                0.02435179               -1.20846950
              21.72953844                9.87905685               84.33193004                0.00010000               -1.20916106               -0.16480341               -0.06316648               -1.74995865               -0.20410858               -2.15505258
              22.71967608                9.34120965               83.90275825                0.00010000               -0.72276274               -0.14207792               -0.66104733               -1.97097940               -0.50913640               -3.05993053
              23.71508319                8.80367675               83.47362589                0.00010000               -0.19364797               -0.03917967               -1.41881215               -2.44591173               -0.94892134               -4.00122599
              24.71580312                8.26527438               83.04419659                0.00010000                0.31939154                0.26613854               -2.32830038               -2.89632953               -1.32002004               -4.99576419
              25.72147102                7.72743376               82.61532506                0.00010000                0.74347223                0.72841096               -3.28763481               -2.90819526               -1.41483499               -6.03473861
              26.73067256                7.19413651               82.18842902                0.00010000                1.07561954                1.17523905               -4.13530248               -2.37846580               -1.14483188               -7.14550749
              27.74298341                6.66954621               81.76458647                0.00010000                1.31802926                1.36182410               -4.65327655               -1.27213559               -0.60308419               -8.23203579
              28.75703315                6.15535111               81.34351091                0.38549674                1.40497341                1.06229483               -4.63599347               -0.51786221               -0.10303380               -8.99329842
              19.27063620               12.47355758               85.48301129                1.00000000                0.02285656                0.09012729               -0.24938733               -0.00634137               -0.00248956                0.51292989
              20.27086477               11.94626112               85.04883444                0.61562781               -0.02482667               -0.07354339                0.12580277               -0.05390449                0.00207209               -0.27163560
              21.27013967               11.41808327               84.61472492                0.00010000               -0.92516157               -0.21979453                0.48498304               -0.66673444               -0.10915601               -1.06846341
              22.25236154               10.87864961               84.17816841                0.00010000               -1.58891391                0.07870013               -0.16580333               -1.41819074               -0.46746792               -1.87836827
              23.23836139               10.34236722               83.74313055                0.00010000               -1.15213702                0.33339783               -0.92279062               -1.63321327               -0.88301590               -2.59110682
              24.22931880                9.80693076               83.30710261                0.00010000               -0.60466775                0.59642850               -1.85753505               -2.00457695               -1.48359040               -3.32276180
              25.22626804                9.27172708               82.86957385                0.00010000                0.00580077                0.91872382               -2.94442824               -2.26700617               -1.97504930               -4.09846995
              26.22943481                8.73803141               82.43171690                0.00010000                0.61074234                1.28928088               -4.07174804               -2.20005055               -2.11808283               -4.91399216
              27.23848288                8.20831711               81.99579273                0.00010000                1.14184764                1.59627905               -5.05565008               -1.69212149               -1.78951694               -5.73993452
              28.25227176                7.68491392               81.56425671                0.00010000                1.52678816                1.69630119               -5.67273875               -0.88250986               -1.02391673               -6.48767702
              29.26901865                7.16844069               81.13899652                0.38622147                1.67468814                1.50932064               -5.70122652               -0.30415228               -0.34047292               -6.98380625
              19.79872851               13.47448599               85.34380586                1.00000000                0.02013313                0.09257029               -0.25133603               -0.00252466               -0.00164115                0.51816911
              20.79892984               12.94552558               84.90574575                0.65471918               -0.02961977               -0.06920588                0.13323848               -0.03693618                0.00675069               -0.25083441
              21.79813612               12.41592396               84.46783885                0.00010000               -1.10195817               -0.20887869                0.50343354               -0.36267262               -0.13230754               -1.00136556
              22.77689068               11.88063085               84.02684535                0.00010000               -1.97027292                0.32018453               -0.22941654               -0.86922348               -0.56145928               -1.52963967
              23.75873066               11.34787761               83.58747006                0.00010000               -1.56294444                0.74447014               -1.09582835               -1.13249604               -1.06283773               -2.02852437
              24.74563179               10.81560532               83.14637331                0.00010000               -0.96841563                1.07788384               -2.16131845               -1.48873327               -1.79128332               -2.54680438
              25.73936235               10.28364886               82.70293038                0.00010000               -0.23759057                1.38177022               -3.39248208               -1.68456856               -2.38886183               -3.10559617
              26.74087998                9.75321938               82.25862950                0.00010000                0.52926379                1.67675872               -4.66258635               -1.58799335               -2.57898186               -3.69354938
              27.74994762                9.22606209               81.81642314                0.00010000                1.21648276                1.90367846               -5.77088833               -1.18997579               -2.20752379               -4.27113307
              28.76520963                8.70347224               81.37982633                0.00010000                1.69744663                1.97858880               -6.47175777               -0.60066758               -1.28061723               -4.76152453
              29.78389655                8.18553753               80.95184031                0.38676942                1.86869191                1.85367081               -6.51573983               -0.19677950               -0.48414741               -5.06937875
              20.32850652               14.47540898               85.20460288                1.00000000                0.01815504                0.09023409               -0.25765166                0.00155490                0.00817077                0.50649037
              21.32868808               13.94487700               84.76280589                0.70615879               -0.03627898               -0.06058336                0.14217963               -0.02155647                0.02225882               -0.24062164
              22.32778095               13.41390570               84.32128161                0.00010000               -1.28323287               -0.19266150                0.52348769                0.05702249               -0.01475761               -0.84353667
              23.30302342               12.88505330               83.87858997                0.00010000               -2.35219728                0.60378624               -0.26094766               -0.14503908               -0.43727065               -1.12649390
              24.28073700               12.35725662               83.43665525                0.00010000               -1.96252706                1.13520091               -1.19614197               -0.61092202               -1.07616042               -1.39685836
              25.26377288               11.82848844               82.99231265                0.00010000               -1.28871956                1.43264211               -2.35447101               -1.00120762               -1.93642856               -1.71057793
              26.25496261               11.29936249               82.54490367                0.00010000               -0.42555806                1.69250917               -3.69620452               -1.16223467               -2.64126963               -2.06356262
              27.25526172               10.77156658               82.09621719                0.00010000                0.47339497                1.93458446               -5.08285363               -1.07052181               -2.88680722               -2.43597782
              28.26443051               10.24639068               81.64977609                0.00010000                1.27606301                2.11828770               -6.29412818               -0.77442993               -2.49429751               -2.79520248
              29.28078298                9.72448569               81.20987404                0.00010000                1.82609851                2.18360380               -7.05677141               -0.37456913               -1.45683964               -3.08247082
              30.30095248                9.20551411               80.78027676                0.38707387                2.01695021                2.08703538               -7.09228351               -0.10127523               -0.58368158               -3.21959161
              20.85982358               15.47629067               85.06518727                1.00000000                0.01784242                0.08797690               -0.26783027                0.00378189                0.02583644                0.41276675
              21.86000200               14.94431391               84.61980570                0.60340987               -0.03616548               -0.05626860                0.15806159               -0.00977193                0.17058559               -0.23286053
              22.85910027               14.41207073               84.17731175                0.00010000               -1.46815145               -0.18018326                0.52560692                0.62184564                0.27518599               -0.64419772
              23.83063897               13.89270658               83.73390960                0.00010000               -2.80115935                1.10587145               -0.26572907                0.40213663               -0.19522390               -0.62552227
              24.80307708               13.37058162               83.29127301                0.00010000               -2.35685973                1.41349712               -1.23650183               -0.20163992               -0.97431758               -0.70827345
              25.78350178               12.84425816               82.84531732                0.00010000               -1.50187861                1.64781455               -2.45401555               -0.55528473               -1.98177462               -0.85375958
              26.77303951               12.31749904               82.39560636                0.00010000               -0.55302144                1.87740128               -3.87616740               -0.63707627               -2.79915322               -1.02070963
              27.77244135               11.79191107               81.94418886                0.00010000                0.42502022                2.09743124               -5.35614823               -0.57005230               -3.11331588               -1.19679380
              28.78153991               11.26842784               81.49501277                0.00010000                1.30767388                2.26416936               -6.65743841               -0.39686679               -2.72521863               -1.36608221
              29.79859483               10.74714431               81.05299608                0.00010000                1.91371554                2.32592122               -7.47570488               -0.18093984               -1.60798433               -1.49619254
              30.81981422               10.22727823               80.62268786                0.38764554                2.12193969                2.23639056               -7.48214367               -0.01804366               -0.67380488               -1.50604916
              21.39253568               16.47716852               84.92416243                1.00000000                0.01769030                0.08778543               -0.27583101               -0.07047938                0.20556516                0.32844167
              22.39271258               15.94375163               84.47690224                0.75186726               -0.03552410               -0.05622823                0.16724781               -0.07226668                0.44726959               -0.22203889
              23.39182519               15.41030203               84.03447214                0.36434336               -2.00786632               -0.17686935                0.52488520                1.44344772                0.78420264               -0.57244849
              24.35255525               14.90717073               83.59389529                0.36176086               -3.33362907                1.44641540               -0.25874541                0.95285479                0.14241627               -0.22534651
              25.32515261               14.38552657               83.15157338                0.36097664               -2.34027450                1.49449429               -1.23362254               -0.07874674               -0.85228575               -0.28906230
              26.30574976               13.86144473               82.70536593                0.36162159               -1.52922165                1.71865655               -2.47948623               -0.20600424               -1.98178923               -0.35343555
              27.29456818               13.33691051               82.25475456                0.36359785               -0.64089464                1.94114679               -3.95596482               -0.24360890               -2.91662666               -0.41656077
              28.29293187               12.81351521               81.80194648                0.36737526                0.33458731                2.16041403               -5.51236304               -0.21277006               -3.31147914               -0.47175507
              29.30125993               12.29167407               81.35118049                0.37338357                1.26909590                2.32462245               -6.90345865               -0.15355313               -2.95129464               -0.51805333
              30.31831379               11.77100412               80.90774098                0.38131550                1.95319187                2.38598042               -7.81063019               -0.09971133               -1.78643028               -0.54652834
              31.34032376               11.25024192               80.47698109                0.69395026                2.20099754                2.29636835               -7.83194489               -0.02526597               -0.80516840               -0.48657397
              16.53621747                6.61390464               87.30985385                1.00000000                0.03122065                0.07923035               -0.29235600                0.06530721               -0.48669352                0.47862924
              17.53652968                6.08852081               86.89823691                1.00000000               -0.02944059               -0.00694852                0.02039255                0.07221273               -0.65417443                0.06746216
              18.53562866                5.56265808               86.48333676                1.00000000               -0.13694581               -0.07476337                0.30981982                0.06461388               -0.71156390               -0.03448898
              19.53379076                5.03553036               86.07051215                0.69833318               -0.23540215               -0.18347329                0.61851480               -0.00754572               -0.62642820               -0.24222188
              20.53092061                4.50611446               85.65709852                0.59890115               -0.30180673               -0.31620211                0.90871048                0.00288787               -0.36615816               -0.17646522
              21.52775462                3.97412883               85.24880738                0.45098004               -0.33047400               -0.48222370                1.29040998               -0.01059798                0.34562078               -0.29274550
              22.52431113                3.43829333               84.84798182                0.25500922               -0.00000296               -0.69963303                1.70423186                0.00827168                2.12633916               -0.36429329
              23.52775457                2.89564283               84.47163395                0.07447733                2.60648623               -0.81670792                0.93482514               -0.79458219                4.06628869               -1.22349731
              24.57644086                2.32643270               84.11332397                0.25165843                2.40613236                0.45058167               -0.05540194               -2.51112808                6.12343202               -1.19261042
              25.57587721                1.77792222               83.75613198                1.00000000                0.20443138                0.54430317               -1.81628625               -0.29444666                1.73373185               -0.21625646
              26.58052949                1.23863427               83.36387365                1.00000000                0.46522738                0.34057672               -1.24898761                0.11723905               -0.05076577                0.02821821
              17.06225437                7.61469694               87.17029175                1.00000000                0.06207169                0.06544606               -0.30364606                0.01910979               -0.07785059                0.63799269
              18.06287508                7.08845133               86.75869074                1.00000000                0.02578281               -0.01604145                0.01025527                0.02781670               -0.08683407                0.09500594
              19.06277002                6.56191044               86.34694337                1.00000000               -0.04439850               -0.08418903                0.28627344               -0.00609017               -0.03005431               -0.16496344
              20.06198711                6.03369563               85.93630854                0.94965194               -0.05598804               -0.22411965                0.57072557               -0.03857482                0.16218907               -0.15643465
              21.06165026                5.50295244               85.52795111                0.88089510               -0.02139525               -0.35257527                0.84210783               -0.05521674                0.50370937               -0.11376345
              22.06155921                4.96930659               85.12303406                0.76263407                0.09932952               -0.52809846                1.20335967               -0.09247124                1.19201858               -0.19270508
              23.06363685                4.43129700               84.72604948                0.62163742                0.70899273               -0.78192461                1.58379071               -0.07470234                2.64555821               -0.27106642
              24.07573906                3.88747575               84.34546356                0.49961986                2.32765144               -1.10469053                1.39782348               -0.28854725                4.61321589               -0.72077996
              25.11018988                3.33093851               83.98347032                0.69523280                2.05464483                0.08206127               -0.66660385               -1.32267735                2.78502376               -0.01983161
              26.11683196                2.78336525               83.61969821                1.00000000                0.53999734                0.54102762               -1.76742735               -0.24500331                1.45893824               -0.24885816
              27.12098983                2.24204004               83.22999901                1.00000000                0.41578684                0.30906492               -1.04242205                0.01189410                0.14292779                0.05729577
              17.58909089                8.61521356               87.03403300                1.00000000                0.07816149                0.04761374               -0.30947535               -0.00193933                0.04192866                0.76492182
              18.58987251                8.08819998               86.61964470                1.00000000                0.05858309               -0.02196614                0.00889295               -0.01498893                0.16449821                0.07154183
              19.59026255                7.56097430               86.20771574                0.00010000                0.10523824               -0.07931437                0.29174300               -0.18963380                0.68295589               -0.54021904
              20.59197727                7.03104797               85.80345462                0.00010000                0.19713833               -0.68978984                0.51110437               -0.77246773                1.12503749               -1.31496728
              21.59420532                6.49906295               85.39954396                0.00010000                0.27916816               -0.97444034                0.73534137               -1.16520211                1.34816903               -2.07464800
              22.59756063                5.96356686               84.99846277                0.00010000                0.52213054               -1.23375581                1.00237355               -1.54776199                1.97154546               -2.93818212
              23.60464793                5.42265484               84.60445890                0.00010000                1.23907380               -1.50181021                1.20351539               -2.02563641                3.10738174               -3.99667265
              24.62234211                4.87354902               84.22248463                0.00010000                2.47249375               -1.65686282                0.82303584               -2.32247931                4.21595227               -5.22427844
              25.65409780                4.32807392               83.85369196                0.00010000                1.87667555               -0.75299406               -0.56469315               -2.95630657                1.88756701               -6.26737333
              26.65987562                3.78874277               83.48428471                0.00010000                0.46599961                0.02308319               -1.61293246               -2.33635212                1.07680108               -7.75288145
              27.66341780                3.24481557               83.09638062                0.38040847                0.35421763                1.03751570               -0.83985258               -2.24208237                0.14252792               -8.14702319
              18.11624273                9.61564922               86.89707015                1.00000000                0.05718367                0.04994719               -0.29645691               -0.02305408                0.12232212                0.66885277
              19.11681456                9.08801201               86.47955881                0.65752472               -0.00566837               -0.01387756                0.02733559               -0.04874599                0.19792594               -0.13422109
              20.11612936                8.56032416               86.06357562                0.00010000               -0.41827311               -0.10445244                0.33001166               -0.73285542                0.18616055               -0.95634419
              21.10844910                8.01989983               85.64566369                0.00010000               -0.51510151               -0.82920921                0.31341999               -1.89493988                0.13501727               -2.51182616
              22.10582733                7.48346363               85.23044903                0.00010000               -0.07185117               -1.22443341                0.22162714               -2.36500637                0.18227587               -3.96325981
              23.10701208                6.94463147               84.81664764                0.00010000                0.36573172               -1.44993592               -0.03084390               -3.06946531                0.15965340               -5.54085049
              24.11314196                6.40126080               84.40548489                0.00010000                0.84291577               -1.50428357               -0.51471351               -3.75967124                0.17446677               -7.34302444
              25.12387039                5.85433849               83.99894068                0.00010000                1.13640126               -1.13589299               -1.22822940               -4.10015229                0.12942504               -9.12813308
              26.13586999                5.31587863               83.59822904                0.00010000                1.47464365               -0.72546988               -1.82618916               -4.39545187                0.58424354              -11.45250471
              27.15336327                4.78382692               83.20041604                0.00010000                1.40662985               -0.17873362               -2.49642814               -3.10258367                0.24749359              -14.16177991
              28.16400259                4.26279035               82.79776842                0.38095093                1.06393193                1.26486953               -2.60757204               -1.94953725                0.36728318              -15.95945230
              18.64390423               10.61621250               86.75886770                1.00000000                0.03184141                0.06874256               -0.27301263               -0.01058707                0.01032760                0.56487372
              19.64422264               10.08792243               86.33631970                0.59181500               -0.00933067               -0.03023655                0.07800595               -0.06260579                0.10825873               -0.28334390
              20.64371762                9.55888525               85.91574752                0.00010000               -0.66418221               -0.17315636                0.36165140               -0.86421965               -0.12643825               -1.18779137
              21.63093900                9.01446379               85.48833281                0.00010000               -1.07720330               -0.37878015                0.16718792               -1.87336520               -0.59070123               -2.39599519
              22.62217355                8.47457428               85.06244224                0.00010000               -0.62824206               -0.57350923               -0.18496280               -2.21762088               -0.86690656               -3.66949526
              23.61837416                7.93456814               84.63618128                0.00010000               -0.12130315               -0.59437496               -0.77700981               -2.84375271               -1.31057300               -5.05989016
              24.61974749                7.39256917               84.20975036                0.00010000                0.36735356               -0.38851689               -1.60800985               -3.40188300               -1.70093759               -6.54813647
              25.62572123                6.85083116               83.78444449                0.00010000                0.84764264                0.05591815               -2.56768452               -3.53520027               -1.72664932               -8.15391957
              26.63670034                6.31356452               83.36251492                0.00010000                1.25954981                0.28750579               -3.49348531               -2.98174563               -1.34020407               -9.92458532
              27.65091223                5.78516810               82.94554059                0.00010000                1.48999199                0.57406456               -4.15133784               -1.98879139               -0.60364483              -11.78863475
              28.66650018                5.27011296               82.53159856                0.38132564                1.55879539                0.79608516               -4.23593468               -0.93207102               -0.03087776              -13.23304783
              19.17261113               11.61702407               86.61974128                1.00000000                0.02785766                0.08542188               -0.25039201               -0.01256241               -0.00039414                0.51879451
              20.17288970               11.08740727               86.19315634                0.61511620               -0.01537551               -0.05951384                0.09715370               -0.06327981                0.01269014               -0.27298506
              21.17230362               10.55686103               85.76684298                0.00010000               -0.87984698               -0.20641596                0.41823471               -0.81575411               -0.40274194               -1.15719024
              22.15529276               10.01232423               85.33174798                0.00010000               -1.54665285               -0.08940530                0.06597471               -1.71820292               -1.11482961               -2.19108421
              23.14137056                9.47199345               84.89676321                0.00010000               -1.15753118               -0.00665750               -0.48004393               -1.95335561               -1.65451247               -3.24433546
              24.13214214                8.93274397               84.45969292                0.00010000               -0.62646353                0.15230258               -1.31619638               -2.41810498               -2.37165043               -4.39383684
              25.12884129                8.39349046               84.02037653                0.00010000                0.00144475                0.44588550               -2.41542654               -2.79286966               -2.92433971               -5.65533800
              26.13217103                7.85545685               83.58080118                0.00010000                0.65284215                0.81151423               -3.65073684               -2.77620276               -3.02030917               -6.99460486
              27.14189813                7.32162875               83.14425219                0.00010000                1.24339845                1.14186421               -4.81511402               -2.27223468               -2.48256123               -8.39289515
              28.15703900                6.79530821               82.71403182                0.00010000                1.67866587                1.32149684               -5.63731759               -1.29035746               -1.39032591               -9.74055071
              29.17547145                6.27871206               82.29253678                0.38167499                1.84324450                1.17058512               -5.81225888               -0.52739035               -0.43746206              -10.65360024
              19.70288657               12.61792094               86.48053320                1.00000000                0.02335173                0.09103865               -0.24127447               -0.00818055               -0.00395871                0.51603741
              20.70312009               12.08673216               86.05001223                0.65519541               -0.02004941               -0.06696680                0.10793045               -0.05120920               -0.00822815               -0.25801428
              21.70248558               11.55475693               85.61941284                0.00010000               -1.08387793               -0.20582150                0.44477715               -0.60188448               -0.58591988               -1.03362255
              22.68144253               11.01267568               85.17714219                0.00010000               -1.98994427                0.15120788                0.00525448               -1.31089281               -1.50445602               -1.88579541
              23.66268669               10.47444113               84.73478614                0.00010000               -1.64637413                0.45407716               -0.68108850               -1.52538230               -2.18565716               -2.71120687
              24.64851504                9.93761419               84.28902568                0.00010000               -1.07547395                0.74864800               -1.70319773               -1.89649686               -3.08764590               -3.61620470
              25.64117722                9.40148688               83.83965665                0.00010000               -0.32280780                1.07492580               -3.02377224               -2.15954477               -3.78388317               -4.61375607
              26.64205889                8.86706144               83.38912663                0.00010000                0.51135384                1.42385895               -4.49454126               -2.10890670               -3.92053221               -5.68042908
              27.65140429                8.33640181               82.94176729                0.00010000                1.29814406                1.72362341               -5.87532237               -1.65911608               -3.29665376               -6.75148162
              28.66802177                7.81159804               82.50265176                0.00010000                1.88701929                1.86990636               -6.86036842               -0.89208257               -1.90572519               -7.68663131
              29.68914468                7.29352466               82.07629186                0.38235463                2.11229087                1.76176285               -7.12083963               -0.32208302               -0.73639536               -8.26457627
              20.23482508               13.61884484               86.34132592                1.00000000                0.02044461                0.09116296               -0.24078343               -0.00402145               -0.00326389                0.51207380
              21.23502953               13.08606794               85.90699864                0.69507781               -0.02513398               -0.06189129                0.11544704               -0.03380366               -0.00290290               -0.23470500
              22.23432240               12.55274460               85.47268230                0.00010000               -1.28194134               -0.19346596                0.46000995               -0.27380460               -0.64442213               -0.96293233
              23.20939070               12.01534839               85.02534044                0.00010000               -2.41990013                0.38813503               -0.02251901               -0.71333393               -1.68273857               -1.51868553
              24.18592440               11.48107499               84.57762929                0.00010000               -2.11121227                0.85524450               -0.80084739               -0.98405540               -2.48342861               -2.09998170
              25.16716646               10.94771693               84.12546943                0.00010000               -1.48606289                1.22075032               -1.96023685               -1.36182499               -3.54581978               -2.75039590
              26.15620314               10.41498898               83.66861950                0.00010000               -0.60442426                1.54948823               -3.45416481               -1.58312923               -4.37071739               -3.47915001
              27.15507797                9.88393403               83.21001339                0.00010000                0.39880339                1.87233817               -5.11498289               -1.52337734               -4.55971994               -4.25427106
              28.16417921                9.35610122               82.75491087                0.00010000                1.34982629                2.14324788               -6.67372702               -1.16652012               -3.86725598               -5.00506877
              29.18207450                8.83270634               82.30967982                0.00010000                2.04986639                2.28640632               -7.79108347               -0.60524767               -2.25748350               -5.61256617
              30.20517654                8.31394731               81.88030211                0.38293610                2.31020412                2.24366013               -8.10302364               -0.20419925               -0.92550026               -5.92846494
              20.76835994               14.61974420               86.20207393                1.00000000                0.01843095                0.08724122               -0.24498056                0.00036843                0.00594472                0.49355396
              21.76854425               14.08549433               85.76414611                0.74682416               -0.03154517               -0.05314970                0.12360931               -0.01857438                0.01060608               -0.21759012
              22.76772904               13.55088761               85.32631063                0.00010000               -1.48493963               -0.17628584                0.47629697                0.16539636               -0.55240431               -0.80496920
              23.73884546               13.02043838               84.87692486                0.00010000               -2.85459999                0.67882759               -0.01798340                0.03956112               -1.61211479               -1.10206947
              24.71063704               12.49154602               84.42605466                0.00010000               -2.57404517                1.25122134               -0.84499782               -0.46209405               -2.57939593               -1.42951891
              25.68736456               11.96202920               83.96972521                0.00010000               -1.86697536                1.57719934               -2.09630119               -0.88778331               -3.80804407               -1.83341273
              26.67329753               11.43247664               83.50772819                0.00010000               -0.84427271                1.87651419               -3.71849120               -1.08047667               -4.77008234               -2.29844152
              27.67047910               10.90450820               83.04343735                0.00010000                0.30020271                2.17316274               -5.52718564               -1.02208134               -5.02672787               -2.79128048
              28.67930159               10.37926677               82.58290851                0.00010000                1.37958085                2.42661350               -7.22664961               -0.75893883               -4.29565157               -3.25488266
              29.69807072                9.85732616               82.13361628                0.00010000                2.16385757                2.57264308               -8.44027036               -0.37713894               -2.51897637               -3.58987539
              30.72257874                9.33839787               81.70262944                0.38321076                2.45080189                2.56323694               -8.76637851               -0.10908349               -1.07114624               -3.66530010
              21.30333219               15.62058967               86.06256966                1.00000000                0.01824407                0.08384336               -0.25313958                0.00308949                0.02832730                0.39658813
              22.30351463               15.08500494               85.62129991                0.63843591               -0.03229541               -0.04885221                0.13777168               -0.00709072                0.14524131               -0.20740815
              23.30268628               14.54921888               85.18236060                0.00010000               -1.69955598               -0.16295503                0.47798425                0.75639286               -0.28160300               -0.61027012
              24.26952351               14.02892494               84.73237835                0.00010000               -3.37972896                1.22438443                0.02003378                0.56528587               -1.38529594               -0.59855005
              25.23509170               13.50609942               84.28056394                0.00010000               -3.05216702                1.53625590               -0.81525367               -0.09849964               -2.52330247               -0.71871317
              26.20848017               12.97926092               83.82205764                0.00010000               -2.14885496                1.79201801               -2.11886909               -0.48863392               -3.94110600               -0.90952412
              27.19211460               12.45251926               83.35691321                0.00010000               -1.03169738                2.06715861               -3.83072080               -0.58992476               -5.05684514               -1.13068147
              28.18784622               11.92739729               82.88886314                0.00010000                0.20339349                2.35503632               -5.75460510               -0.54409398               -5.40936731               -1.36374458
              29.19618247               11.40463349               82.42457747                0.00010000                1.37771981                2.60445758               -7.57264723               -0.39233892               -4.67912039               -1.57902791
              30.21540062               10.88415920               81.97250820                0.00010000                2.23344971                2.75274370               -8.86751621               -0.18705682               -2.76722259               -1.71780183
              31.24085147               10.36521205               81.54108195                0.38370297                2.54508479                2.74509664               -9.17205528               -0.02686874               -1.21624934               -1.62855169
              21.83959117               16.62142107               85.92147115                1.00000000                0.01820464                0.08314022               -0.26056669               -0.06447978                0.20083887                0.31152587
              22.83977322               16.08451729               85.47848624                0.76774031               -0.03271353               -0.04876583                0.14565025               -0.06376901                0.40204929               -0.19746361
              23.83893690               15.54762851               85.03951033                0.36371825               -2.32512871               -0.15903735                0.47582263                1.64550112                0.21820073               -0.53564819
              24.79327065               15.04492607               84.59270066                0.36177069               -4.03029186                1.60011292                0.09295961                1.10684500               -1.00842648               -0.23275505
              25.75833107               14.52227114               84.14127362                0.36108721               -3.10493061                1.61717269               -0.71820634               -0.02888932               -2.40569517               -0.31601926
              26.73117203               13.99786956               83.68227113                0.36137984               -2.24841971                1.86086363               -2.03993032               -0.15338011               -4.00568750               -0.39482192
              27.71336267               13.47381982               83.21565140                0.36316644               -1.18445177                2.13005557               -3.81267509               -0.18822462               -5.29844716               -0.46819905
              28.70748300               12.95160893               82.74536087                0.36654488                0.06651136                2.42116429               -5.83212686               -0.15951753               -5.78023672               -0.52889516
              29.71469290               12.43135592               82.27846720                0.37122011                1.31340098                2.67224318               -7.76704825               -0.11035207               -5.10797401               -0.57018822
              30.73375102               11.91238104               81.82395523                0.37813572                2.26213777                2.82218417               -9.18059583               -0.06776624               -3.12257408               -0.57200345
              31.75993565               11.39329980               81.39188863                0.69207737                2.61846368                2.80877466               -9.50999096                0.00029457               -1.49338999               -0.38546491
              16.94126412                6.75829692               88.30704271                1.00000000                0.02454908                0.06978591               -0.25464038                0.05697257               -0.50628572                0.47458826
              17.94150961                6.22878897               87.89841645                1.00000000               -0.03124706               -0.00607232                0.02285964                0.06288037               -0.69072058                0.06692496
              18.94063918                5.69877717               87.48628741                1.00000000               -0.12892190               -0.06423435                0.28251492                0.05376175               -0.74886843               -0.04416194
              19.93893117                5.16747220               87.07642588                0.69716112               -0.21044831               -0.16169172                0.55832689               -0.01527944               -0.66530165               -0.26040655
              20.93643021                4.63386453               86.66567171                0.62000486               -0.23719025               -0.27852580                0.79207083               -0.00080580               -0.38599785               -0.17759048
              21.93418737                4.09774864               86.26080716                0.51476989               -0.16583470               -0.41838920                1.07460689                0.00468858                0.37161639               -0.25073517
              22.93311352                3.55817064               85.86386578                0.38714950                0.26109248               -0.57754620                1.33849915                0.05475121                1.70721799               -0.32585719
              23.93940922                3.01413597               85.48258467                0.29293043                1.47702799               -0.65013881                0.81103175               -0.45053582                2.84680760               -0.75377867
              24.96265408                2.45823041               85.10781207                0.51535193                1.26506028                0.14776573               -0.41615828               -1.44432877                1.42272193                0.19537294
              25.96471042                1.91179214               84.73905696                1.00000000                0.31654574                0.43588026               -1.57142620               -0.32042668                0.93695893               -0.23984206
              26.96898499                1.37208485               84.35114017                1.00000000                0.42745706                0.36196838               -1.30417029               -0.01230648               -0.05841854                0.02768450
              17.47134179                7.75899478               88.16735159                1.00000000                0.05564943                0.05876930               -0.26983153                0.01598108               -0.10504531                0.62998054
              18.47189829                7.22872825               87.75874741                1.00000000                0.02466941               -0.01390124                0.00777432                0.02359429               -0.14299014                0.09574968
              19.47183518                6.69813483               87.34960187                1.00000000               -0.03317944               -0.07260901                0.24816872               -0.01125974               -0.11365467               -0.16098901
              20.47123470                6.16585528               86.94160758                0.97365752               -0.02756256               -0.19757309                0.48588406               -0.03919363                0.05362485               -0.17462034
              21.47128393                5.63107927               86.53561202                0.92183060                0.04232484               -0.30643676                0.68703898               -0.05127828                0.36850719               -0.10989803
              22.47208120                5.09356475               86.13370673                0.84764527                0.20917184               -0.44877343                0.92348818               -0.06314577                0.96850181               -0.15581612
              23.47546737                4.55239518               85.73910757                0.77819978                0.63963894               -0.61293835                1.05458020               -0.02584394                1.84556744               -0.21267849
              24.48487397                4.00763458               85.35466901                0.74371594                1.19576669               -0.69648140                0.67696162               -0.12391649                2.38935346               -0.48861612
              25.49938270                3.45970806               84.97878727                0.97711419                0.98524785                0.00687340               -0.37962958               -0.65152578                1.33808064               -0.03762061
              26.50457893                2.91615095               84.60347461                1.00000000                0.45932590                0.37543878               -1.32772243               -0.18297627                0.75341298               -0.25322963
              27.50856922                2.37570454               84.21917259                1.00000000                0.39902875                0.34307080               -1.16093282               -0.06409251                0.27604939                0.04495404
              18.00211680                8.75947231               88.03101242                1.00000000                0.07246439                0.04665542               -0.28155253               -0.00450065                0.00906710                0.76834642
              19.00284145                8.22851095               87.61966794                1.00000000                0.05850735               -0.01848227                0.00116966               -0.01709842                0.10175384                0.08685782
              20.00328695                7.69732499               87.21039834                0.00010000                0.11807051               -0.06715111                0.24562931               -0.18507793                0.54737418               -0.50113508
              21.00520286                7.16352074               86.80802597                0.00010000                0.22041123               -0.65278154                0.40573182               -0.82422442                0.89718634               -1.35027080
              22.00769517                6.62773579               86.40592934                0.00010000                0.32028424               -0.89262186                0.55475984               -1.31974811                1.03963554               -2.19882606
              23.01160854                6.08877318               86.00678741                0.00010000                0.54158177               -1.09184570                0.69625090               -1.80216026                1.44672269               -3.22153589
              24.01852681                5.54591187               85.61345257                0.00010000                0.90047293               -1.23758202                0.70937013               -2.20901268                1.93709908               -4.42542473
              25.02961800                5.00020634               85.22728833                0.00010000                1.12901919               -1.20532063                0.36974163               -2.32852801                2.02214939               -5.60751249
              26.04110719                4.45836787               84.84917326                0.00010000                0.77182113               -0.77422826               -0.37073772               -2.19349715                0.91098954               -7.04467103
              27.04505442                3.91930092               84.47010493                0.00010000                0.37443844               -0.34362013               -1.08365380               -1.57465903                0.48210854               -8.51538837
              28.04859596                3.37894627               84.08726806                0.37707586                0.35415398                0.37717090               -1.00713700               -1.08435533                0.26485427               -9.27275439
              18.53317450                9.75992789               87.89416641                1.00000000                0.05291341                0.05357779               -0.27352769               -0.02448327                0.09057646                0.69020803
              19.53370363                9.22835860               87.47975209                0.68724211               -0.00253335               -0.01063117                0.01406570               -0.04589763                0.14923826               -0.09322094
              20.53312383                8.69679181               87.06666465                0.00010000               -0.46821125               -0.09554295                0.28219772               -0.70941218               -0.00645788               -0.90926113
              21.52433941                8.15279965               86.64887901                0.00010000               -0.67436520               -0.77896252                0.36505729               -1.95130321               -0.28533691               -2.52391006
              22.51963653                7.61322683               86.23269492                0.00010000               -0.32387502               -1.11155478                0.28329949               -2.57763556               -0.49062898               -4.15546296
              23.51786191                7.07172784               85.81595642                0.00010000                0.01087095               -1.26509523               -0.03836046               -3.42048245               -0.85719371               -6.05310018
              24.51985395                6.52764354               85.39951728                0.00010000                0.39927520               -1.26809665               -0.61590128               -4.05284009               -1.14269217               -8.23540268
              25.52584741                5.98352817               84.98573226                0.00010000                0.82821147               -1.08410215               -1.40849376               -4.19373715               -1.16478752              -10.59749669
              26.53641818                5.44422350               84.57708217                0.00010000                1.33299717               -0.90352023               -2.31911913               -3.75461758               -0.82532745              -13.47458417
              27.55250736                4.90927854               84.17269629                0.00010000                1.55866187               -0.55059827               -3.10931588               -2.41287135               -0.64295458              -16.12295067
              28.56759141                4.38324795               83.76848078                0.37756347                1.50840586                0.44096060               -3.37799433               -1.12024718               -0.09927095              -18.33358316
              19.06476571               10.76054386               87.75619491                1.00000000                0.02938687                0.07329681               -0.25345224               -0.01205783                0.00750329                0.59406093
              20.06505958               10.22829832               87.33700336                0.63114734               -0.00540244               -0.02571978                0.05883911               -0.05738179                0.07054611               -0.24510509
              21.06465766                9.69541413               86.91915084                0.00010000               -0.76589053               -0.16405443                0.31378099               -0.81339292               -0.38941258               -1.13642019
              22.04974177                9.14794149               86.49052871                0.00010000               -1.37216917               -0.31869364                0.32281818               -1.84636136               -1.17295756               -2.37098355
              23.03721428                8.60550470               86.06131650                0.00010000               -1.04797895               -0.46238958                0.03695090               -2.27329295               -1.77893172               -3.79215697
              24.02878219                8.06347127               85.62879740                0.00010000               -0.57722988               -0.43861073               -0.62447402               -2.93899033               -2.59742381               -5.44692136
              25.02566968                7.52054994               85.19322999                0.00010000                0.01905546               -0.26911026               -1.64187032               -3.42964308               -3.23179011               -7.33105238
              26.02916330                6.97852430               84.75725294                0.00010000                0.72973933               -0.03343242               -2.87971226               -3.44553509               -3.31519089               -9.44500090
              27.04026446                6.44029747               84.32501582                0.00010000                1.43046218                0.14013679               -4.14271486               -2.94314118               -2.74382425              -11.74700563
              28.05777254                5.90828896               83.89969600                0.00010000                1.89938671                0.41727440               -5.18287046               -1.90735187               -1.53914044              -13.97439070
              29.07825220                5.38776548               83.48379943                0.37775706                2.04796592                0.71689280               -5.56388625               -0.86821832               -0.47014637              -15.57216852
              19.59742442               11.76139382               87.61729671                1.00000000                0.02613064                0.08749107               -0.23273326               -0.01329864               -0.00273046                0.54037026
              20.59768573               11.22784421               87.19402842                0.65679849               -0.01058050               -0.05198997                0.07686605               -0.05610584               -0.00429314               -0.25286153
              21.59721281               10.69351072               86.77078653                0.00010000               -1.01820553               -0.19213177                0.36650115               -0.73923888               -0.70606239               -1.10593557
              22.57732162               10.14642578               86.33324953                0.00010000               -1.92859632               -0.03001226                0.29500959               -1.61871612               -1.82747966               -2.14941925
              23.55864089                9.60397904               85.89315737                0.00010000               -1.66423797                0.08861557               -0.15224245               -1.89598316               -2.74308672               -3.32354977
              24.54403686                9.06295562               85.44730196                0.00010000               -1.12164129                0.26794440               -1.07938336               -2.39022633               -3.87906145               -4.71389735
              25.53620806                8.52226133               84.99588806                0.00010000               -0.34238385                0.53295266               -2.44156333               -2.76381839               -4.74156967               -6.32374878
              26.53718918                7.98285952               84.54231032                0.00010000                0.57913182                0.83431619               -4.07756934               -2.77424331               -4.91533277               -8.10241953
              27.54779070                7.44702623               84.09212673                0.00010000                1.48515632                1.11656667               -5.72417612               -2.32376358               -4.13715424               -9.95856134
              28.56689231                6.91762403               83.65184012                0.00010000                2.17416501                1.36221713               -7.02186077               -1.37901383               -2.39550748              -11.64614826
              29.59127400                6.39758581               83.22726574                0.37829788                2.43816885                1.38091735               -7.54624746               -0.56590524               -0.90218243              -12.77349559
              20.13159897               12.76229368               87.47818580                1.00000000                0.02215978                0.08964555               -0.22388487               -0.00884783               -0.00556733                0.52462878
              21.13182057               12.22725852               87.05099305                0.69736508               -0.01538289               -0.05733031                0.08772419               -0.04462554               -0.01653857               -0.24083833
              22.13129131               11.69157150               86.62362047                0.00010000               -1.24607235               -0.18715990                0.39164601               -0.51121093               -0.91388579               -0.99694209
              23.10689912               11.14734124               86.17827350                0.00010000               -2.42632724                0.20243501                0.28944010               -1.16635931               -2.29915131               -1.83945299
              24.08276477               10.60727701               85.72950878                0.00010000               -2.21018759                0.53152046               -0.27593307               -1.41094351               -3.40951076               -2.76395355
              25.06269537               10.06883016               85.27303865                0.00010000               -1.61376762                0.84711250               -1.40683015               -1.81898453               -4.78761720               -3.86969713
              26.05048941                9.53120899               84.80909840                0.00010000               -0.68909201                1.18664941               -3.04844928               -2.12117790               -5.83862102               -5.15706824
              27.04891353                8.99521062               84.34182608                0.00010000                0.42676326                1.54818605               -5.00655454               -2.11875778               -6.06881749               -6.57000486
              28.05902468                8.46262880               83.87828628                0.00010000                1.53595795                1.88966299               -6.96697301               -1.72659726               -5.16108820               -7.98891716
              29.07963269                7.93553330               83.42704934                0.00010000                2.39929295                2.13161812               -8.51738115               -0.97342830               -3.03417575               -9.21396941
              30.10701054                7.41538383               82.99657973                0.37856403                2.73778513                2.15224184               -9.18277850               -0.37154910               -1.24706551               -9.95048115
              20.66731779               13.76318674               87.33899020                1.00000000                0.01976188                0.08713187               -0.22299005               -0.00480897               -0.00497337                0.51142736
              21.66751540               13.22669760               86.90805469                0.73466448               -0.02059546               -0.05172955                0.09517622               -0.02881442               -0.01023685               -0.21654735
              22.66690588               12.68976752               86.47703905                0.00010000               -1.46132418               -0.17217413                0.40646381               -0.17801608               -0.98586101               -0.92698530
              23.63828892               12.15047448               86.02639497                0.00010000               -2.89863894                0.43163824                0.30820184               -0.55100475               -2.52260474               -1.47353955
              24.60893310               11.61460945               85.57145311                0.00010000               -2.72818694                0.92272914               -0.32783945               -0.84963199               -3.80378573               -2.13164694
              25.58372518               11.07989787               85.10716857                0.00010000               -2.07645292                1.32009059               -1.60586131               -1.26860149               -5.39388749               -2.93645426
              26.56740404               10.54599432               84.63384709                0.00010000               -1.01654832                1.69454748               -3.45939908               -1.53576153               -6.61546640               -3.88105908
              27.56339422               10.01382324               84.15632984                0.00010000                0.27660175                2.08403011               -5.66872830               -1.52707584               -6.91243003               -4.90811601
              28.57293607                9.48481949               83.68294860                0.00010000                1.56372507                2.44988088               -7.87939091               -1.21264893               -5.91058768               -5.90737874
              29.59466872                8.96025640               83.22400466                0.00010000                2.56029395                2.71632527               -9.63096101               -0.65695102               -3.49236108               -6.70474832
              30.62414195                8.44063065               82.78977984                0.37911086                2.94732360                2.80222204              -10.40432299               -0.23794019               -1.49092010               -7.09489669
              21.20448106               14.76403632               87.19970327                1.00000000                0.01824368                0.08192383               -0.22653431               -0.00064678                0.00337059                0.48605889
              22.20466350               14.22622393               86.76527807                0.78598132               -0.02634724               -0.04359921                0.10213673               -0.01539109                0.00058871               -0.19490351
              23.20395411               13.68812801               86.33080755                0.00010000               -1.68132006               -0.15509479                0.41986195                0.26169827               -0.89626433               -0.77114649
              24.17103709               13.15597401               85.87823030                0.00010000               -3.38026911                0.72426480                0.35970754                0.20221823               -2.46352242               -1.05972620
              25.13634873               12.62573159               85.41975529                0.00010000               -3.25493132                1.31894763               -0.29914370               -0.33716993               -3.95572354               -1.44382333
              26.10593847               12.09523197               84.95038662                0.00010000               -2.52499574                1.68119416               -1.66807353               -0.80132214               -5.76254254               -1.95266909
              27.08584882               11.56509994               84.47053384                0.00010000               -1.31958150                2.04839414               -3.67287586               -1.03238382               -7.16649346               -2.55653617
              28.07954684               11.03689122               83.98567348                0.00010000                0.12448646                2.44447102               -6.07140176               -1.01389975               -7.55423708               -3.20752028
              29.08833855               10.51162642               83.50524310                0.00010000                1.55678378                2.82345499               -8.47402290               -0.78275252               -6.49824588               -3.82006678
              30.11068251                9.98985980               83.04106863                0.00010000                2.65823420                3.10964688              -10.37225751               -0.40604863               -3.85081621               -4.24670093
              31.14150323                9.47142827               82.60494919                0.37943039                3.08207163                3.24086835              -11.19943953               -0.13316439               -1.68835556               -4.29143842
              21.74292963               15.76482521               87.06012448                1.00000000                0.01862624                0.07798722               -0.23389135                0.00210090                0.02983234                0.38513139
              22.74311589               15.22582562               86.62256114                0.67052499               -0.02699287               -0.03971206                0.11325462               -0.00543514                0.12371109               -0.18399763
              23.74238977               14.68666562               86.18687143                0.00010000               -1.91930900               -0.14192059                0.41970407                0.85774184               -0.61544036               -0.58182515
              24.70472971               14.16495977               85.73431027                0.00010000               -3.97290175                1.29485017                0.45545598                0.69545615               -2.20220324               -0.56252413
              25.66293173               13.64098840               85.27496794                0.00010000               -3.81996611                1.60276206               -0.17454552               -0.01592569               -3.90832875               -0.72676769
              26.62833039               13.11352176               84.80293994                0.00010000               -2.89173123                1.89446728               -1.58586838               -0.43532173               -5.96795592               -0.96874504
              27.60509711               12.58696220               84.31899194                0.00010000               -1.58703220                2.24851087               -3.69159127               -0.55742055               -7.58663881               -1.25436265
              28.59658974               12.06271266               83.82909675                0.00010000               -0.03923328                2.65253131               -6.23336942               -0.53545566               -8.11241873               -1.55988896
              29.60431244               11.54128859               83.34355983                0.00010000                1.50780770                3.04322146               -8.79243295               -0.40478937               -7.05993977               -1.84045984
              30.62674590               11.02244933               82.87564575                0.00010000                2.70146451                3.34050959              -10.80829331               -0.20411084               -4.21403776               -2.00575756
              31.65834173               10.50544801               82.43924675                0.37982713                3.15958372                3.47454961              -11.63121334               -0.04583548               -1.89975880               -1.81485425
              22.28252227               16.76559607               86.91895110                1.00000000                0.01921147                0.07708536               -0.24202388               -0.05737344                0.19745380                0.29875726
              23.28271438               16.22542969               86.47981524                0.78268564               -0.02737364               -0.03959253                0.11821513               -0.05547396                0.36390618               -0.17602932
              24.28197479               15.68528960               86.04398859                0.36298336               -2.60454718               -0.13760204                0.41539702                1.78056828               -0.08005571               -0.50709612
              25.23062344               15.18187101               85.59575448                0.36159726               -4.72532793                1.69112351                0.62364034                1.21423429               -1.69541252               -0.26238371
              26.18746824               14.65778683               85.13720925                0.36107797               -3.96826028                1.67984294                0.05856687                0.01616541               -3.74909707               -0.36852783
              27.15125823               14.13312132               84.66456732                0.36111668               -3.09793670                1.95995594               -1.35533666               -0.09304906               -6.08624155               -0.46054029
              28.12550950               13.61007016               84.17850106                0.36264716               -1.83734490                2.31079569               -3.52902407               -0.11773417               -7.97076562               -0.54206318
              29.11451133               13.08994185               83.68530394                0.36550672               -0.25017076                2.72291888               -6.18979023               -0.08680641               -8.69525012               -0.60657026
              30.12050609               12.57249085               83.19583953                0.36944669                1.39647710                3.12022561               -8.89932071               -0.04422854               -7.74340135               -0.64080163
              31.14244088               12.05666999               82.72412906                0.37515854                2.70415352                3.42206620              -11.07127595               -0.00908158               -4.79398987               -0.61141569
              32.17458916               11.54091926               82.28678127                0.69015370                3.21482802                3.54712461              -11.93387864                0.04966880               -2.36404037               -0.26749934
              17.34334428                6.90277865               89.30476105                1.00000000                0.01262787                0.05481976               -0.19101165                0.04362654               -0.51502333                0.46603104
              18.34347056                6.36919738               88.89869410                1.00000000               -0.03512157               -0.00825463                0.03813927                0.04780809               -0.70997101                0.06608675
              19.34264185                5.83514593               88.48898705                1.00000000               -0.11850649               -0.05661931                0.25957841                0.03756459               -0.76593581               -0.05232899
              20.34110043                5.29995885               88.08167868                0.69530328               -0.19112373               -0.13557120                0.48914771               -0.02829316               -0.69823758               -0.27910137
              21.33881938                4.76268202               87.67293994                0.64015933               -0.20537777               -0.21851760                0.66571143               -0.02200501               -0.45022286               -0.17625990
              22.33699288                4.22331500               87.27029952                0.57492553               -0.10706958               -0.31049739                0.83528824               -0.02538913                0.22554357               -0.21739286
              23.33667799                3.68129261               86.87475181                0.50877343                0.18757755               -0.38359579                0.89352207               -0.05502870                1.02797675               -0.29533966
              24.34074443                3.13639857               86.48785458                0.48769229                0.58725135               -0.33987982                0.41988803               -0.33494166                1.40888983               -0.45254310
              25.34842301                2.58838976               86.10500081                0.73912969                0.52719346                0.04351548               -0.23793228               -0.63313717                0.66902491                0.06480532
              26.35128830                2.04429006               85.72470346                1.00000000                0.33858410                0.29626247               -1.22319431               -0.24067270                0.44227751               -0.02757225
              27.35519470                1.50312311               85.33779024                1.00000000                0.39063977                0.36881171               -1.31452431               -0.12467899                0.05360466               -0.12255428
              17.87736181                7.90332684               89.16489512                1.00000000                0.04031875                0.04935088               -0.21083011                0.00964519               -0.12629798                0.61831649
              18.87776500                7.36911484               88.75884623                1.00000000                0.01374757               -0.01324564                0.01745091                0.01519961               -0.18893622                0.09623977
              19.87763677                6.83457974               88.35190675                1.00000000               -0.03577727               -0.06285575                0.21758807               -0.01507766               -0.19011738               -0.15681946
              20.87704946                6.29860314               87.94602622                1.00000000               -0.03577560               -0.15938640                0.40288477               -0.03966633               -0.06506053               -0.19282545
              21.87692125                5.76049684               87.54169189                0.96603989                0.01921179               -0.23392421                0.54132374               -0.04879494                0.18174983               -0.10248876
              22.87743369                5.22021002               87.14150382                0.93258889                0.13323299               -0.32142719                0.66969993               -0.05306046                0.61626675               -0.12247192
              23.87958591                4.67745665               86.74714108                0.92755518                0.32063716               -0.37779847                0.64561221               -0.04996222                1.05248488               -0.15407455
              24.88384644                4.13299977               86.35900280                0.96512605                0.42799899               -0.30315238                0.32467736               -0.11558782                1.17534483               -0.20847219
              25.88814589                3.58882492               85.97587773                1.00000000                0.38342303                0.02479199               -0.26813766               -0.23345492                0.78731923               -0.01281904
              26.89151490                3.04725269               85.59314376                1.00000000                0.34844830                0.24616312               -0.89613338               -0.09394976                0.46039801               -0.09238901
              27.89511486                2.50681123               85.20678035                1.00000000                0.35999633                0.34645918               -1.19830276               -0.08444985                0.21379184               -0.11083741
              18.41196121                8.90376566               89.02840195                1.00000000                0.05604565                0.04720198               -0.23062742               -0.00726449               -0.01913550                0.76842956
              19.41252166                8.36893247               88.61966810                1.00000000                0.04453971               -0.01513374                0.00365142               -0.01703780                0.04532509                0.10058956
              20.41285200                7.83388882               88.21262832                0.00010000                0.09341686               -0.05966492                0.20479470               -0.14624184                0.41128750               -0.46245797
              21.41439000                7.29677112               87.81156926                0.00010000                0.16922966               -0.58421187                0.31500618               -0.81113191                0.65275603               -1.28746376
              22.41623659                6.75800354               87.41063915                0.00010000                0.22909316               -0.77648182                0.41345712               -1.39342874                0.70273667               -2.18076956
              23.41897186                6.21688645               87.01238779                0.00010000                0.33262008               -0.93252702                0.47998840               -1.93273738                0.90741082               -3.36167849
              24.42288899                5.67373664               86.61864630                0.00010000                0.40462721               -1.03406658                0.42711829               -2.28122842                1.06992185               -4.80411261
              25.42706441                5.13033552               86.22987947                0.00010000                0.33060004               -1.02879114                0.20657095               -2.28438587                1.02877299               -6.39176594
              26.42950100                4.58888560               85.84627720                0.00010000                0.21792922               -0.91402651               -0.26143855               -1.84343394                0.71441242               -8.18840808
              27.43142299                4.04921333               85.46261163                0.00010000                0.24438131               -0.77379266               -0.66410717               -1.06213185                0.43640547               -9.80756817
              28.43438862                3.51005229               85.07623788                0.37390367                0.29656304               -0.36119544               -1.05554795               -0.14943644                0.23698387              -10.87583590
              18.94688292                9.90427088               88.89159960                1.00000000                0.04181795                0.05988816               -0.23162765               -0.02206249                0.06176498                0.70967335
              19.94730109                9.36881216               88.47984012                0.71934596               -0.00048183               -0.00942369                0.00668238               -0.03642322                0.10503149               -0.05455874
              20.94687328                8.83338644               88.06921958                0.00010000               -0.52944986               -0.09269242                0.22591453               -0.61706205               -0.10328418               -0.86013089
              21.93671210                8.28691890               87.65296484                0.00010000               -0.89679661               -0.70487647                0.50147027               -1.87475232               -0.54182951               -2.35354079
              22.92893735                7.74496721               87.23611502                0.00010000               -0.68331278               -0.98674223                0.47313416               -2.66348925               -1.07796900               -4.09892203
              23.92304584                7.20155948               86.81588043                0.00010000               -0.42125347               -1.13011437                0.09697213               -3.63257784               -1.81094908               -6.34972968
              24.92051228                6.65677532               86.39316687                0.00010000               -0.00180428               -1.20796464               -0.61067122               -4.26841912               -2.36334844               -9.12967596
              25.92300976                6.11242395               85.97077081                0.00010000                0.59435653               -1.24912218               -1.60064915               -4.28318772               -2.48431979              -12.33550525
              26.93239941                5.57054439               85.55184665                0.00010000                1.30479050               -1.26528774               -2.77234887               -3.53836543               -2.11975746              -15.84349956
              27.94910557                5.03177684               85.13822972                0.00010000                1.90243941               -1.13384323               -3.84363760               -2.05171246               -1.38419355              -18.96370624
              28.97044820                4.49958732               84.73020853                0.37414680                2.13426296               -0.50838303               -4.41235975               -0.49386348               -0.35085474              -21.38986384
              19.48243740               10.90496343               88.75379865                1.00000000                0.02402405                0.07848489               -0.21966007               -0.01143447                0.00406905                0.62276454
              20.48267764               10.36874400               88.33749648                0.67352214               -0.00166905               -0.02259022                0.04109976               -0.04577673                0.03896240               -0.20524587
              21.48240402                9.83203497               87.92202314                0.00010000               -0.86817295               -0.15568737                0.25812658               -0.69912141               -0.49475459               -1.08061776
              22.46531418                9.28267359               87.49478917                0.00010000               -1.70388984               -0.26639257                0.59822432               -1.70530226               -1.49046042               -2.21372219
              23.44832622                8.73826869               87.06318126                0.00010000               -1.54009946               -0.38185188                0.43539029               -2.24351875               -2.56116435               -3.74297732
              24.43451219                8.19428416               86.62369180                0.00010000               -1.08350388               -0.36673545               -0.30279528               -2.99534812               -3.88039050               -5.72864381
              25.42665615                7.64957735               86.17691295                0.00010000               -0.34403048               -0.28141212               -1.57081411               -3.52209143               -4.89576241               -8.16753693
              26.42763159                7.10535308               85.72685024                0.00010000                0.63623252               -0.17943134               -3.21930803               -3.56907773               -5.16311616              -10.98384364
              27.43938080                6.56357985               85.27966062                0.00010000                1.68571120               -0.06786612               -5.01140969               -3.07953865               -4.44338242              -13.96977824
              28.46134581                6.02653646               84.84188319                0.00010000                2.47547943                0.16275312               -6.56287645               -1.94054632               -2.62937923              -16.70079251
              29.48889039                5.49988463               84.42032084                0.37469659                2.75445768                0.54372627               -7.38176045               -0.85876441               -0.96908441              -18.57019851
              20.01909309               11.90584058               88.61508661                1.00000000                0.02209302                0.08783008               -0.20494371               -0.01185594               -0.00504594                0.56329726
              21.01931402               11.36836036               88.19469366                0.70079927               -0.00659173               -0.04274364                0.05714742               -0.04454399               -0.01642031               -0.22702918
              22.01896126               10.83027269               87.77417300                0.00010000               -1.14708464               -0.17346990                0.30801754               -0.61229608               -0.81148421               -1.05150564
              22.99637233               10.28159105               87.33764817                0.00010000               -2.32524294                0.00337983                0.66855600               -1.43427610               -2.20530619               -2.00940852
              23.97245640                9.73733017               86.89371836                0.00010000               -2.22710515                0.12988167                0.38405907               -1.79805843               -3.68026273               -3.28365191
              24.95183022                9.19422477               86.43810525                0.00010000               -1.67274302                0.30347357               -0.64952925               -2.37611030               -5.42838472               -4.96707137
              25.93900154                8.65114708               85.97154527                0.00010000               -0.71022616                0.54045699               -2.36553177               -2.82141160               -6.77531979               -7.04242687
              26.93762570                8.10883532               85.49924980                0.00010000                0.53118561                0.81443743               -4.55731136               -2.90484678               -7.15257736               -9.40951985
              27.94962525                7.56918706               85.02976867                0.00010000                1.81820754                1.11108751               -6.88523702               -2.51124753               -6.16864641              -11.87162447
              28.97398985                7.03503190               84.57359461                0.00010000                2.84756581                1.43088256               -8.88101334               -1.55131126               -3.67735762              -14.07152244
              30.00657656                6.51046184               84.14161183                0.37522281                3.25867125                1.60581540               -9.95267050               -0.64439519               -1.49529641              -15.51906881
              20.55716073               12.90672003               88.47605551                1.00000000                0.01939191                0.08576692               -0.19897050               -0.00791377               -0.00714028                0.53627377
              21.55735465               12.36788912               88.05176672                0.73918280               -0.01166623               -0.04541954                0.06789768               -0.03462699               -0.02216214               -0.21809835
              22.55692741               11.82856557               87.62724576                0.00010000               -1.38917351               -0.16274425                0.33226712               -0.39221427               -1.01388195               -0.95597247
              23.52957118               11.28274119               87.18293100                0.00010000               -2.85980396                0.21648740                0.73645620               -0.97735128               -2.70394734               -1.72405800
              24.49973133               10.74086632               86.72926748                0.00010000               -2.81990502                0.54326869                0.36176016               -1.28844341               -4.45946969               -2.73669420
              25.47317308               10.20035364               86.26088907                0.00010000               -2.20569814                0.87075528               -0.90022904               -1.77076665               -6.53770564               -4.08460844
              26.45561737                9.66038649               85.77868766                0.00010000               -1.08392102                1.23926387               -2.96753859               -2.14903980               -8.14299581               -5.74647817
              27.45149466                9.12164182               85.28899554                0.00010000                0.36709502                1.65444984               -5.59022207               -2.22413688               -8.60591274               -7.62400066
              28.46295927                8.58580160               84.80242783                0.00010000                1.87750705                2.09048803               -8.36387225               -1.89101598               -7.44894568               -9.53241615
              29.48904480                8.05515411               84.33230414                0.00010000                3.10916609                2.47800901              -10.74080524               -1.11972313               -4.46057865              -11.18709482
              30.52514259                7.53200094               83.89263629                0.37531837                3.60977868                2.66090378              -12.06088301               -0.45375653               -1.90410438              -12.21600426
              21.09659663               13.90755592               88.33686612                1.00000000                0.01793124                0.08055322               -0.19925276               -0.00454463               -0.00664719                0.51480380
              22.09677594               13.36745197               87.90890217                0.77406475               -0.01658612               -0.03996536                0.07505285               -0.02205107               -0.01526589               -0.19483927
              23.09626491               12.82701781               87.48081158                0.00010000               -1.61256974               -0.14666369                0.34621943               -0.08035289               -1.07315182               -0.88811168
              24.06452455               12.28592079               87.03150448                0.00010000               -3.35949133                0.42936820                0.81642932               -0.38830849               -2.92361664               -1.38634632
              25.02907508               11.74819554               86.57107250                0.00010000               -3.38149076                0.91442023                0.39678251               -0.73229983               -4.92058489               -2.11874909
              25.99689473               11.21163988               86.09335220                0.00010000               -2.71712641                1.34254061               -1.02500060               -1.20505605               -7.28236669               -3.10878529
              26.97473255               10.67593235               85.59943152                0.00010000               -1.45834386                1.79072910               -3.35326969               -1.53260591               -9.11637468               -4.32923041
              27.96772785               10.14192432               85.09663882                0.00010000                0.17800447                2.29745288               -6.30547909               -1.58725416               -9.67106639               -5.69251451
              28.97829264                9.61099682               84.59732305                0.00010000                1.88340955                2.82263056               -9.42599066               -1.31749963               -8.39606472               -7.04229729
              30.00539605                9.08459208               84.11706060                0.00010000                3.27575687                3.27984675              -12.10659930               -0.75067030               -5.03632616               -8.14230505
              31.04380778                8.56367992               83.67221565                0.37578179                3.84117335                3.55506185              -13.62736800               -0.29581975               -2.20530063               -8.71853868
              21.63727775               14.90833109               88.19754325                1.00000000                0.01739951                0.07442746               -0.20343620               -0.00118291                0.00095766                0.48323356
              22.63745175               14.36708982               87.76618885                0.82143889               -0.02131138               -0.03320697                0.08062564               -0.01164199               -0.00655278               -0.17184063
              23.63685152               13.82563230               87.33470787                0.00010000               -1.84122350               -0.13082302                0.35861094                0.33010834               -0.95756504               -0.73827452
              24.60062728               13.29132855               86.88411901                0.00010000               -3.87426361                0.71147433                0.92786412                0.31904155               -2.82350157               -0.99843899
              25.55936625               12.75915473               86.42007179                0.00010000               -3.96460618                1.29572775                0.51813656               -0.24518619               -5.09104633               -1.44303176
              26.52133515               12.22720445               85.93636374                0.00010000               -3.23427199                1.70327220               -0.99316827               -0.73756708               -7.73615965               -2.07787349
              27.49468081               11.69620107               85.43427067                0.00010000               -1.83250216                2.17662195               -3.50154674               -1.00605509               -9.81461455               -2.85565456
              28.48468511               11.16759088               84.92200932                0.00010000               -0.03696486                2.73223620               -6.69618755               -1.03223767              -10.49575371               -3.71534823
              29.49394151               10.64225421               84.41342805                0.00010000                1.83315964                3.31155162              -10.07791829               -0.83488981               -9.15588397               -4.54074813
              30.52134830               10.12075105               83.92617113                0.00010000                3.35544992                3.81957699              -12.97875704               -0.45575683               -5.50015813               -5.12852896
              31.56105051                9.60310218               83.47864065                0.37631687                3.97022104                4.17014818              -14.62025330               -0.17256137               -2.45989573               -5.20589596
              22.17905553               15.90904447               88.05789184                1.00000000                0.01863725                0.07059435               -0.21114861                0.00104616                0.03059118                0.37801427
              23.17924190               15.36678783               87.62356500                0.69836492               -0.02135947               -0.03006630                0.08785018               -0.00405092                0.10616218               -0.16259018
              24.17862834               14.82440135               87.19075468                0.00010000               -2.09294783               -0.11900083                0.35640635                0.89537403               -0.62971169               -0.55645194
              25.13738294               14.30015028               86.74148747                0.00010000               -4.51664396                1.27307142                1.09907523                0.76116040               -2.46087752               -0.51835435
              26.08829546               13.77411010               86.27707303                0.00010000               -4.61429459                1.56316134                0.76719626                0.03625361               -4.99999384               -0.73985795
              27.04509705               13.24570532               85.79034028                0.00010000               -3.70352217                1.90997726               -0.77279530               -0.39125313               -7.98770248               -1.04110510
              28.01422502               12.71946479               85.28308139                0.00010000               -2.20335451                2.38796233               -3.39545781               -0.53031778              -10.36575670               -1.40446144
              29.00102996               12.19656904               84.76419575                0.00010000               -0.28951682                2.97361327               -6.76862952               -0.53412596              -11.24539574               -1.80340354
              30.00843468               11.67722786               84.24872881                0.00010000                1.72014882                3.58631383              -10.35617940               -0.42635902               -9.92035179               -2.17744071
              31.03543294               11.16098362               83.75634233                0.00010000                3.36098061                4.12175336              -13.42576506               -0.22818997               -5.99620052               -2.39971737
              32.07565429               10.64708288               83.30845768                0.37640910                4.02213536                4.48892991              -15.09609391               -0.07507807               -2.74867165               -2.11841508
              22.72181196               16.90974298               87.91663067                1.00000000                0.02018908                0.06985112               -0.22076863               -0.04980582                0.19515547                0.28983746
              23.72201385               16.36648849               87.48085055                0.79485165               -0.02077056               -0.02993370                0.08866296               -0.04733997                0.33318006               -0.15769721
              24.72139655               15.82325228               87.04781827                0.36249531               -2.79360600               -0.11490674                0.34880028                1.79189560                0.00153866               -0.48247380
              25.66614173               15.31678998               86.60517346                0.36132838               -5.34301331                1.66396979                1.40100173                1.23416268               -1.69466408               -0.32986035
              26.61453628               14.79041796               86.14244496                0.36088067               -4.89931674                1.63078575                1.18983555                0.05478311               -4.73286708               -0.46342282
              27.56815540               14.26540399               85.65516440                0.36135493               -4.06627729                1.96986712               -0.33118846               -0.01704762               -8.14100839               -0.56673850
              28.53321074               13.74396031               85.14507092                0.36251334               -2.59579350                2.44955219               -3.02969293               -0.01847008              -10.91101274               -0.65320625
              29.51623953               13.22706315               84.62156506                0.36434320               -0.61054906                3.04941075               -6.55007019                0.02196497              -12.08412635               -0.71967044
              30.52099976               12.71398048               84.10048078                0.36768688                1.53449748                3.67526277              -10.32879024                0.06265608              -10.91727844               -0.74564786
              31.54692948               12.20318611               83.60252971                0.37240846                3.31753322                4.22024975              -13.60035207                0.09466841               -6.85517100               -0.68210569
              32.58735042               11.69288078               83.15321106                0.68837609                4.04209446                4.57978930              -15.33185336                0.13907899               -3.44742614               -0.14865330
              17.74309754                7.04734941               90.30322248                1.00000000               -0.00133619                0.03707998               -0.11271536                0.02731024               -0.50863588                0.45245529
              18.74308418                6.50980645               89.89917923                1.00000000               -0.03808333               -0.01274012                0.06099498                0.02946497               -0.70478978                0.06538128
              19.74233588                5.97189121               89.49147898                1.00000000               -0.10353244               -0.05340370                0.23966855                0.02112927               -0.75543907               -0.05430738
              20.74101353                5.43319510               89.08620884                0.69322165               -0.17654773               -0.10868988                0.41401182               -0.03930722               -0.70680111               -0.29090180
              21.73880492                4.89283543               88.67898594                0.65796488               -0.20635802               -0.15051517                0.54868784               -0.04650543               -0.50463590               -0.17147872
              22.73688637                4.35099218               88.27751293                0.62785056               -0.13434685               -0.19651420                0.63374643               -0.06041029                0.05906467               -0.17232016
              23.73611799                3.80748530               87.88173622                0.61193483                0.02258189               -0.20661062                0.57723606               -0.12016515                0.54461593               -0.22247406
              24.73733801                3.26278868               87.49098243                0.64693041                0.15338575               -0.13484247                0.25331708               -0.25501006                0.71165476               -0.22808176
              25.73918570                2.71777267               87.10305343                0.91080493                0.17142637                0.04026180               -0.17982501               -0.24118668                0.44347013               -0.03767302
              26.74076654                2.17436010               86.71459307                1.00000000                0.23489089                0.20348974               -0.83711670               -0.09418329                0.25637058                0.02176378
              27.74388352                1.63165354               86.32484968                1.00000000                0.31169804                0.33866034               -1.17851300               -0.10181999                0.10319708               -0.17649371
              18.28091360                8.04772021               90.16313499                1.00000000                0.01943278                0.03935039               -0.13678921                0.00109702               -0.13709567                0.60254493
              19.28110793                7.50967905               89.75909643                1.00000000               -0.00303797               -0.01388003                0.03557052                0.00371792               -0.21365280                0.09653056
              20.28085284                6.97135717               89.35395363                1.00000000               -0.04797922               -0.05641013                0.19426312               -0.01475903               -0.23823289               -0.14950882
              21.28014835                6.43210820               88.94966527                1.00000000               -0.07057580               -0.11811285                0.33619445               -0.03966352               -0.15309687               -0.20559119
              22.27944133                5.89133028               88.54643850                1.00000000               -0.05955043               -0.15690847                0.43338438               -0.04773563                0.03764474               -0.09482913
              23.27895734                5.34902704               88.14710073                1.00000000               -0.02116209               -0.19145932                0.48541933               -0.05239279                0.35139446               -0.08823742
              24.27901809                4.80541919               87.75201982                1.00000000                0.03434424               -0.18407321                0.41286399               -0.06356009                0.61123505               -0.09565459
              25.27964422                4.26144025               87.36116256                1.00000000                0.09850188               -0.10928322                0.17984191               -0.10096762                0.73590179               -0.07484547
              26.28098812                3.71817529               86.97342452                1.00000000                0.16200224                0.04290583               -0.20709354               -0.07838401                0.67530140               -0.02753300
              27.28288427                3.17639499               86.58555195                1.00000000                0.22918730                0.18517505               -0.66857174               -0.00399126                0.42184799               -0.03262508
              28.28557187                2.63504015               86.19520654                1.00000000                0.26876019                0.31739125               -1.05348313               -0.02550346                0.21549978               -0.19703921
              18.81920180                9.04813641               90.02639987                1.00000000                0.03197758                0.05022243               -0.16519291               -0.00999884               -0.03788199                0.76265230
              19.81952158                8.50952885               89.61974096                1.00000000                0.02048709               -0.01199995                0.01398913               -0.01485263                0.00723099                0.11084132
              20.81961154                7.97076300               89.21449424                0.00010000                0.03627864               -0.05813975                0.17139310               -0.08077080                0.30640094               -0.43142506
              21.82024715                7.43083284               88.81432610                0.00010000                0.06599152               -0.47996414                0.25708871               -0.73033575                0.46836756               -1.09623383
              22.82093137                6.88969727               88.41419848                0.00010000                0.07512297               -0.63119982                0.32855394               -1.39748097                0.46816158               -1.99192831
              23.82174961                6.34716299               88.01638718                0.00010000                0.07510990               -0.77989033                0.35474200               -2.01298437                0.57766868               -3.37239688
              24.82243357                5.80380383               87.62199493                0.00010000                0.04064759               -0.93179111                0.29625395               -2.39407326                0.69071428               -5.19346676
              25.82256256                5.26060301               87.23141975                0.00010000                0.01148538               -1.07964832                0.13125516               -2.36680182                0.77608126               -7.34583093
              26.82266328                4.71863079               86.84394449                0.00010000                0.06296464               -1.21026000               -0.20320030               -1.84817112                0.80211068               -9.63604666
              27.82382185                4.17806360               86.45682278                0.00010000                0.17099308               -1.28310645               -0.53670980               -0.85260396                0.57504579              -11.65519092
              28.82608314                3.63800137               86.06615710                0.37132131                0.22612868               -1.18362140               -0.92634043                0.54601837                0.33658615              -13.05147865
              19.35792876               10.04872465               89.88953386                1.00000000                0.02555302                0.06878638               -0.17738300               -0.01607863                0.03930683                0.72256748
              20.35818429                9.50943905               89.47988573                0.75437493                0.00023371               -0.00944885                0.00514268               -0.02187579                0.06911273               -0.02139011
              21.35793343                8.97019437               89.07118294                0.00010000               -0.57884590               -0.09573257                0.16791241               -0.45358988               -0.04482214               -0.81247205
              22.34660737                8.42250892               88.65890842                0.00010000               -1.13859375               -0.59245676                0.74337550               -1.64803996               -0.51590595               -1.94114763
              23.33516156                7.87870629               88.24215760                0.00010000               -1.10081437               -0.83277268                0.81480823               -2.64613510               -1.48215805               -3.72787272
              24.32459108                7.33342923               87.81789586                0.00010000               -0.87324772               -1.02447118                0.38330576               -3.81149214               -2.64565525               -6.41309691
              25.31769660                6.78678337               87.38730386                0.00010000               -0.35549254               -1.24915153               -0.51771161               -4.57097642               -3.54056519               -9.99351336
              26.31748123                6.23984729               86.95371928                0.00010000                0.44337567               -1.51172884               -1.81304020               -4.61112679               -3.86684421              -14.25433845
              27.32656412                5.69397009               86.52163519                0.00010000                1.44901870               -1.78254483               -3.33768902               -3.77069123               -3.45102401              -18.75696247
              28.34646161                5.15073286               86.09582354                0.00010000                2.50262878               -1.95776902               -4.77529190               -2.09497422               -2.19377986              -22.75644202
              29.37661669                4.61136772               85.68023358                0.37142247                3.01550856               -1.65215765               -5.73616094               -0.14091115               -0.63733336              -25.65023144
              19.89745144               11.04951214               89.75180171                1.00000000                0.01629006                0.08391312               -0.17648043               -0.00819415                0.00077292                0.64553431
              20.89761434               10.50933987               89.33782536                0.71853624                0.00092173               -0.02028318                0.02703826               -0.02885716                0.01553302               -0.16453588
              21.89746987                9.96884835               88.92431337                0.00010000               -0.94199512               -0.14681972                0.20110040               -0.51304917               -0.36465553               -1.01501340
              22.87877444                9.41898371               88.50249319                0.00010000               -2.01907584               -0.22065682                1.02922682               -1.43718897               -1.39517807               -1.87929518
              23.85708836                8.87304181               88.07002431                0.00010000               -2.06658772               -0.32432517                1.05541142               -2.14465723               -3.11204076               -3.46683855
              24.83744268                8.32667357               87.62274149                0.00010000               -1.62461842               -0.35061528                0.22702592               -3.05849165               -5.11608644               -5.85584016
              25.82459599                7.77882080               87.16181371                0.00010000               -0.71446893               -0.35726425               -1.37972118               -3.72223082               -6.69925728               -9.00752260
              26.82315330                7.23036844               86.69286678                0.00010000                0.58839429               -0.36617310               -3.57979345               -3.87039546               -7.28658136              -12.73156406
              27.83636387                6.68297989               86.22478763                0.00010000                2.06857163               -0.35717758               -6.06016226               -3.39756888               -6.46177473              -16.65329991
              28.86452474                6.13890822               85.76843847                0.00010000                3.28156656               -0.24801168               -8.33570547               -2.14906417               -3.93830015              -20.22053210
              29.90199521                5.60495822               85.33616422                0.37162326                3.74704687                0.17606303               -9.76253765               -0.95915320               -1.55928802              -22.61167323
              20.43810942               12.05040292               89.61319783                1.00000000                0.01615182                0.08637558               -0.17034887               -0.00783804               -0.00706467                0.58328018
              21.43827093               11.50903338               89.19517137                0.74524908               -0.00404020               -0.03259132                0.04053774               -0.02861039               -0.02346039               -0.19487524
              22.43802861               10.96725798               88.77694688                0.00010000               -1.23004011               -0.15174403                0.24790860               -0.42790411               -0.62840846               -0.98810476
              23.41367013               10.41809578               88.34662065                0.00010000               -2.67250309                0.00100333                1.23351173               -1.15070880               -2.07432925               -1.73441971
              24.38457855                9.87221978               87.90083855                0.00010000               -2.80139363                0.10735883                1.19145112               -1.65749580               -4.34730357               -3.07733199
              25.35764226                9.32641693               87.43431138                0.00010000               -2.25107139                0.26087344                0.03342142               -2.37516561               -6.94939131               -5.11234466
              26.33955712                8.77963808               86.94857742                0.00010000               -1.08640122                0.47861883               -2.13918656               -2.94830322               -9.00285315               -7.78411425
              27.33591423                8.23252382               86.45116409                0.00010000                0.52579176                0.74865729               -5.06529877               -3.14548714               -9.75548303              -10.91903314
              28.35007296                7.68682654               85.95442199                0.00010000                2.27938812                1.07231049               -8.31907213               -2.81889486               -8.62233297              -14.21331781
              29.38150200                7.14577263               85.47421985                0.00010000                3.76303352                1.47085977              -11.28858014               -1.81248217               -5.26323875              -17.18980519
              30.42533363                6.61488898               85.02821233                0.37183388                4.38316308                1.77508496              -13.18297521               -0.77491809               -2.23204272              -19.21914117
              20.98003374               13.05123965               89.47420639                1.00000000                0.01533266                0.07960788               -0.16887656               -0.00499446               -0.00836646                0.54831598
              21.98018707               12.50868804               89.05235100                0.77877983               -0.00921740               -0.03273483                0.05079799               -0.02162430               -0.02437272               -0.18979081
              22.97984939               11.96581347               88.63026581                0.00010000               -1.46943051               -0.13574016                0.27240245               -0.24361756               -0.78663078               -0.90948294
              23.95079846               11.41900377               88.19300263                0.00010000               -3.21160486                0.17318790                1.39986154               -0.73694744               -2.52597362               -1.51396129
              24.91561730               10.87518899               87.73674399                0.00010000               -3.41386943                0.46051882                1.30427106               -1.15088048               -5.19697568               -2.59876196
              25.88252107               10.33189104               87.25503407                0.00010000               -2.80471348                0.79152889               -0.11057316               -1.73596199               -8.24575327               -4.23733045
              26.85952303                9.78839318               86.74974763                0.00010000               -1.47329807                1.20943108               -2.72235864               -2.21583266              -10.64904926               -6.37572109
              27.85305511                9.24534158               86.23002164                0.00010000                0.36070712                1.72176769               -6.21724693               -2.38999764              -11.52686061               -8.86583880
              28.86673717                8.70442610               85.71100883                0.00010000                2.35787708                2.30733948              -10.09026175               -2.12480597              -10.18947184              -11.45234176
              29.90021265                8.16832541               85.21223324                0.00010000                4.07634873                2.88853356              -13.63764586               -1.32092965               -6.21985642              -13.76323519
              30.94826414                7.64045992               84.75536207                0.37210192                4.80514941                3.26832667              -15.96766674               -0.56693975               -2.72313261              -15.32380321
              21.52311274               14.05199507               89.33500514                1.00000000                0.01518859                0.07178119               -0.17140346               -0.00287521               -0.00800731                0.52049475
              22.52326463               13.50837869               88.90955575                0.80927523               -0.01361064               -0.02818789                0.05746329               -0.01355765               -0.01817917               -0.16993373
              23.52284053               12.96454318               88.48396344                0.00010000               -1.68544814               -0.11970257                0.28675063                0.01020549               -0.79975498               -0.84721002
              24.48955567               12.42155954               88.04272355                0.00010000               -3.70834276                0.35092313                1.55833113               -0.23541639               -2.67654896               -1.24462603
              25.44867368               11.88143016               87.57938876                0.00010000               -3.99184190                0.78407170                1.44966175               -0.63231278               -5.67880489               -2.04945024
              26.40971883               11.34224750               87.08666856                0.00010000               -3.34418740                1.23976943               -0.14065307               -1.15540666               -9.09931362               -3.26259480
              27.38178993               10.80382671               86.56678169                0.00010000               -1.88187342                1.79719024               -3.07389267               -1.54502046              -11.80353530               -4.83238604
              28.37208136               10.26695918               86.03022026                0.00010000                0.14015398                2.48428747               -6.99786144               -1.67170514              -12.81099448               -6.63991817
              29.38459301                9.73297333               85.49442879                0.00010000                2.34841143                3.24897960              -11.34802840               -1.45469968              -11.33939972               -8.48265152
              30.41904959                9.20354330               84.98187267                0.00010000                4.25664091                3.98410374              -15.34758959               -0.87318571               -6.91844367              -10.05624711
              31.46972583                8.68025551               84.51723248                0.37262096                5.06762364                4.53042022              -18.03003331               -0.37367240               -3.08535187              -11.00830129
              22.06720901               15.05267528               89.19563455                1.00000000                0.01588032                0.06514984               -0.17703938               -0.00098029               -0.00083746                0.48364234
              23.06736781               14.50812429               88.76689059                0.85238056               -0.01681790               -0.02332869                0.06126998               -0.00720989               -0.01094311               -0.14872853
              24.06687265               13.96341942               88.33797977                0.00010000               -1.90823325               -0.10584969                0.29679716                0.34652457               -0.62355593               -0.70491187
              25.02920315               13.42602224               87.89678759                0.00010000               -4.22947873                0.59893448                1.74413650                0.35445717               -2.46817699               -0.91846267
              25.98228308               12.89087042               87.43011802                0.00010000               -4.60933787                1.11939578                1.68467376               -0.19652174               -5.81448541               -1.43115759
              26.93701639               12.35668643               86.93052326                0.00010000               -3.91860660                1.58257436                0.00668234               -0.68421420               -9.59937815               -2.21838695
              27.90391095               11.82433698               86.40050291                0.00010000               -2.32710032                2.21230117               -3.14217646               -0.97612616              -12.62698137               -3.21307273
              28.89047438               11.29502733               85.85174972                0.00010000               -0.14259471                3.00648334               -7.37582671               -1.04891241              -13.81117532               -4.34676364
              29.90105905               10.76940569               85.30368473                0.00010000                2.24961822                3.88568592              -12.07886048               -0.89270119              -12.27364660               -5.47399030
              30.93546675               10.24800749               84.78149349                0.00010000                4.31536109                4.72765539              -16.40407640               -0.51469716               -7.49126980               -6.33069291
              31.98736627                9.73106832               84.31254412                0.37291849                5.18995240                5.41268976              -19.31398696               -0.22332785               -3.39974668               -6.55406850
              22.61219512               16.05329807               89.05590151                1.00000000                0.01811707                0.06199330               -0.18599795                0.00023534                0.03102700                0.37435312
              23.61237629               15.50791211               88.62431814                0.71748245               -0.01610229               -0.02098123                0.06416762               -0.00246596                0.09345559               -0.14370435
              24.61187307               14.96242618               88.19399956                0.00010000               -2.15912399               -0.09532385                0.29368332                0.82180562               -0.20205079               -0.53458545
              25.56919381               14.43353823               87.75629178                0.00010000               -4.88970110                1.09397854                2.00972528                0.71461092               -1.91862141               -0.46992119
              26.51407905               13.90381807               87.29031186                0.00010000               -5.33129125                1.34520544                2.09060585                0.04488222               -5.60737361               -0.76914653
              27.46256798               13.37389899               86.78748404                0.00010000               -4.50762739                1.77259365                0.40162974               -0.34748167               -9.85544840               -1.13902501
              28.42392650               12.84807273               86.25108278                0.00010000               -2.82667900                2.43449971               -2.87719888               -0.49162547              -13.29512635               -1.59561620
              29.40603440               12.32708884               85.69372416                0.00010000               -0.50838375                3.28912437               -7.33279901               -0.52205644              -14.76014006               -2.11493616
              30.41375883               11.81068705               85.13643624                0.00010000                2.05293075                4.23341286              -12.30471510               -0.44278062              -13.26070239               -2.62233875
              31.44709302               11.29809641               84.60713045                0.00010000                4.26893873                5.13228229              -16.86868266               -0.25186498               -8.13582271               -2.95010052
              32.49913760               10.78850931               84.13732488                0.37339893                5.20445835                5.86855635              -19.86352380               -0.11312701               -3.77596471               -2.61276540
              23.15798563               17.05391514               88.91453572                1.00000000                0.02047522                0.06170719               -0.19741852               -0.04199680                0.19330411                0.28433673
              24.15819038               16.50770466               88.48158850                0.80263302               -0.01514905               -0.02074521                0.06042633               -0.03870057                0.30963226               -0.14315869
              25.15768265               15.96151294               88.05096459                0.36213242               -2.80434536               -0.09132397                0.28418190                1.59081501                0.60915720               -0.46572399
              26.10210347               15.44790181               87.62377451                0.36113730               -5.74313443                1.43635780                2.49276679                1.10404604               -0.71398221               -0.45664733
              27.04281996               14.91777453               87.16100596                0.36099510               -5.81456856                1.39564560                2.76728429                0.08591573               -5.14282155               -0.62446358
              27.98581210               14.39213830               86.65794355                0.36120270               -5.09656883                1.82393098                1.12468817                0.08703439              -10.01623847               -0.73500914
              28.94088858               13.87302698               86.11790720                0.36185375               -3.41965820                2.49542490               -2.23938632                0.12978402              -14.01954733               -0.82136130
              29.91741894               13.36080982               85.55430254                0.36384698               -0.98463555                3.37209742               -6.87567005                0.19080225              -15.90184201               -0.88777394
              30.92119587               12.85407395               84.98926372                0.36620852                1.75941229                4.33869048              -12.08677770                0.23587032              -14.63477900               -0.90604969
              31.95260719               12.35065313               84.45212202                0.37019230                4.15410309                5.25567227              -16.90747441                0.26969158               -9.33302443               -0.80892912
              33.00427793               11.84843945               83.98014421                0.68673019                5.16707492                5.99301381              -19.99362343                0.29266475               -4.76060594               -0.05577256
              18.14125806                7.19200274               91.30250674                1.00000000               -0.01397944                0.01976158               -0.03330063                0.01068315               -0.48775589                0.43425221
              19.14111826                6.65067061               90.89991400                1.00000000               -0.03772965               -0.01868933                0.08516993                0.01089157               -0.67545015                0.06482008
              20.14050347                6.10911049               90.49378043                1.00000000               -0.08304040               -0.05361792                0.21965406                0.00784691               -0.72139651               -0.05173059
              21.13945746                5.56722794               90.08995892                0.69210682               -0.15404480               -0.08538901                0.33704820               -0.03363851               -0.68702666               -0.28164469
              22.13742257                5.02434732               89.68391370                0.67525012               -0.20167867               -0.09596094                0.44138538               -0.04513498               -0.51124564               -0.14815632
              23.13542388                4.48069300               89.28297444                0.67183455               -0.16608844               -0.11219726                0.47130392               -0.05793154               -0.03830202               -0.13435233
              24.13410080                3.93627594               88.88629653                0.69107203               -0.08817808               -0.09910889                0.37731786               -0.09601840                0.30277095               -0.14198498
              25.13366032                3.39147667               88.49292092                0.76209939               -0.02095115               -0.04111272                0.15163634               -0.11914577                0.44962126               -0.12134243
              26.13368178                2.84689412               88.10140431                1.00000000                0.04795672                0.04890745               -0.16344713               -0.07537855                0.33464077               -0.06592279
              27.13461946                2.30280759               87.70796112                1.00000000                0.15318189                0.15628865               -0.55820921               -0.04569201                0.17744628               -0.00310589
              28.13674542                1.75887952               87.31421998                1.00000000                0.21259603                0.26835012               -0.91928504               -0.05578059                0.08087043               -0.15404057
              18.68269701                8.19220035               91.16215933                1.00000000               -0.00237105                0.03085516               -0.06026930               -0.00849708               -0.13597049                0.58269544
              19.68267330                7.65048372               90.75955764                1.00000000               -0.01968733               -0.01553082                0.05661058               -0.00861945               -0.21449314                0.09607861
              20.68230327                7.10857431               90.35579201                1.00000000               -0.05853259               -0.05397414                0.17443870               -0.01091211               -0.24544958               -0.14045679
              21.68150265                6.56637405               89.95275011                1.00000000               -0.10322869               -0.08123231                0.28071449               -0.02954727               -0.18026024               -0.20144249
              22.68023869                6.02338772               89.55035958                1.00000000               -0.13111960               -0.09507294                0.35784965               -0.03434290               -0.02371347               -0.08246026
              23.67888026                5.47957102               89.15121221                1.00000000               -0.12449575               -0.10248073                0.37101521               -0.03989806                0.24693784               -0.06514626
              24.67774878                4.93528485               88.75539836                1.00000000               -0.08602437               -0.08463375                0.29736211               -0.04677840                0.48643724               -0.05586805
              25.67715977                4.39106555               88.36259964                1.00000000               -0.02431214               -0.03072441                0.11876318               -0.04627497                0.64834053               -0.04097885
              26.67726254                3.84738320               87.97173586                1.00000000                0.05050312                0.05299351               -0.15861397               -0.01183408                0.60036422               -0.04992015
              27.67816984                3.30437047               87.57977232                1.00000000                0.14265688                0.15151631               -0.50600533                0.01358327                0.37182935               -0.02935416
              28.68011567                2.76156302               87.18571069                1.00000000                0.19458388                0.25580749               -0.83605317                0.00456997                0.20299767               -0.20150656
              19.22452138                9.19261984               91.02509809                1.00000000                0.00505344                0.05600217               -0.09605763               -0.01256974               -0.04529394                0.74955965
              20.22457192                8.65035999               90.61994788                1.00000000               -0.00632489               -0.00918757                0.02803389               -0.01139341               -0.00859297                0.11603099
              21.22439489                8.10803100               90.21605619                0.00010000               -0.02594075               -0.06282219                0.14313833               -0.00529050                0.25671235               -0.41209370
              22.22405310                7.56560330               89.81671103                0.00010000               -0.04280719               -0.32226028                0.22152781               -0.58342360                0.38778894               -0.73829009
              23.22353874                7.02244587               89.41721023                0.00010000               -0.06621584               -0.44018944                0.27960298               -1.34459335                0.36858230               -1.58608954
              24.22272879                6.47864338               89.01948263                0.00010000               -0.09340154               -0.63138982                0.28922875               -2.08781906                0.47819755               -3.20203905
              25.22167071                5.93458326               88.62457138                0.00010000               -0.10461548               -0.90992890                0.23585853               -2.58262113                0.64399138               -5.52993089
              26.22063648                5.39086218               88.23250457                0.00010000               -0.07652707               -1.25876998                0.09225830               -2.62237549                0.79915995               -8.37600391
              27.22014017                4.84795399               87.84221320                0.00010000                0.00374083               -1.64105999               -0.15819947               -2.05060733                0.84730433              -11.41384139
              28.22071129                4.30583791               87.45187743                0.00010000                0.11557718               -1.96690801               -0.45498760               -0.77482893                0.61144190              -14.10003432
              29.22245171                3.76399567               87.05771107                0.36850003                0.17404201               -2.24937275               -0.75967840                1.25406435                0.37244064              -15.94276835
              19.76696531               10.19332039               90.88805194                1.00000000                0.00689620                0.07951513               -0.11920149               -0.00783337                0.02449760                0.72566610
              20.76703427                9.65029997               90.47994297                0.79240521               -0.00055772               -0.00961769                0.00809419               -0.00489013                0.04321584                0.00431093
              21.76695415                9.10731786               90.07257782                0.00010000               -0.58074758               -0.10301217                0.11491950               -0.21614639                0.22736965               -0.76909687
              22.75541932                8.55992885               89.66783235                0.00010000               -1.33237049               -0.41139257                1.10773518               -1.25436792               -0.09738586               -1.20144578
              23.74030674                8.01458393               89.25241119                0.00010000               -1.52164189               -0.60974487                1.32727597               -2.53436272               -1.63668443               -2.92277670
              24.72498648                7.46694323               88.82354655                0.00010000               -1.32145948               -0.89457707                0.83383859               -3.99126876               -3.36288396               -6.10707544
              25.71387755                6.91708627               88.38281264                0.00010000               -0.68224721               -1.32149680               -0.31259799               -5.00890380               -4.74621096              -10.68900966
              26.71134154                6.36589015               87.93451000                0.00010000                0.36985544               -1.87926038               -1.99804948               -5.21173563               -5.39858334              -16.29605597
              27.72127466                5.81456200               87.48509287                0.00010000                1.76450198               -2.51134732               -4.01007707               -4.32121960               -4.98242608              -22.26991747
              28.74663158                5.26503231               87.04272388                0.00010000                3.38033895               -3.10542018               -5.98255869               -2.37472547               -3.23337083              -27.68159329
              29.78888144                4.71657557               86.61548531                0.36869949                4.22498656               -3.21616229               -7.42863127                0.14439579               -1.04158620              -31.59651576
              20.31040557               11.19421014               90.75026904                1.00000000                0.00710726                0.08905545               -0.12980341               -0.00227918               -0.00171746                0.65859176
              21.31047665               10.65016764               90.33803724                0.76379807                0.00187510               -0.01813801                0.01810253               -0.00889409                0.00089531               -0.12488716
              22.31044308               10.10597076               89.92604515                0.00010000               -0.93884817               -0.13798532                0.14937158               -0.24012721                0.08870283               -0.94146927
              23.29169968                9.55737545               89.51537371                0.00010000               -2.23029830               -0.17678162                1.65182228               -1.00725205               -0.71694018               -1.29003904
              24.26583711                9.01025097               89.08428949                0.00010000               -2.56493087               -0.27600367                1.94403712               -1.95553735               -3.31534706               -2.85237941
              25.24040107                8.46075184               88.62823232                0.00010000               -2.16456959               -0.36289644                1.01457376               -3.09902958               -6.23555410               -5.70579064
              26.22254572                7.90815333               88.14931853                0.00010000               -1.07375118               -0.47777007               -1.01479362               -3.96303302               -8.60614255               -9.73471782
              27.21892604                7.35327698               87.65525437                0.00010000                0.60139475               -0.62951763               -3.91236848               -4.25481761               -9.69050313              -14.63034533
              28.23457361                6.79772704               87.15845737                0.00010000                2.61385853               -0.79312478               -7.29308461               -3.83496503               -8.85118395              -19.87141114
              29.27120321                6.24372951               86.67516908                0.00010000                4.38397528               -0.87956438              -10.56141470               -2.48757248               -5.53551487              -24.75325602
              30.32225312                5.69967243               86.22507009                0.36879482                5.10499057               -0.48471985              -12.85924297               -1.15224226               -2.28744567              -28.17975270
              20.85500473               12.19510150               90.61167964                1.00000000                0.00910432                0.08344509               -0.13272154               -0.00149889               -0.00832858                0.59725277
              21.85509577               11.64993721               90.19550441                0.78729950               -0.00304612               -0.02293552                0.02869574               -0.01061028               -0.02544216               -0.15859210
              22.85494380               11.10455816               89.77913117                0.00010000               -1.20508493               -0.13057039                0.19262354               -0.17219478               -0.04945743               -0.91994887
              23.83099407               10.55639322               89.36231841                0.00010000               -2.85620998               -0.05081928                2.03690546               -0.73102275               -1.21941147               -1.26527938
              24.79781960               10.00906385               88.91754739                0.00010000               -3.29452702                0.00449548                2.33209112               -1.43923269               -4.57867220               -2.62226572
              25.76510353                9.45968530               88.43877368                0.00010000               -2.78639229                0.12490000                1.03519551               -2.33398362               -8.31065872               -5.06448481
              26.74209176                8.90753087               87.92876154                0.00010000               -1.42160305                0.32572322               -1.69959215               -3.06412035              -11.32583498               -8.47932865
              27.73667147                8.35329979               87.39794382                0.00010000                0.60155371                0.59959538               -5.55374848               -3.40305829              -12.66464075              -12.61095919
              28.75412283                7.79869950               86.86338723                0.00010000                2.91316386                0.95104597              -10.01707466               -3.17370736              -11.48896581              -17.05718440
              29.79493475                7.24744102               86.34782300                0.00010000                4.99139653                1.42535412              -14.32760386               -2.13635513               -7.17241288              -21.22196049
              30.85395076                6.70688117               85.87795232                0.36922489                5.90160163                1.84161508              -17.44375559               -0.94752768               -3.12358119              -24.30428770
              21.40070419               13.19587904               90.47267798                1.00000000                0.01035954                0.07180792               -0.13613345               -0.00048397               -0.00901299                0.55830403
              22.40080779               12.64970893               90.05278268                0.81640486               -0.00805108               -0.02117500                0.03782053               -0.00806979               -0.02377514               -0.15787210
              23.40054317               12.10335935               89.63269381                0.00010000               -1.41171268               -0.10992580                0.21624139               -0.05958357               -0.11084628               -0.85776947
              24.37257353               11.55635906               89.21092823                0.00010000               -3.33913979                0.04250487                2.33176177               -0.42221504               -1.51743412               -1.17226115
              25.33376037               11.01034088               88.75535290                0.00010000               -3.86595788                0.23843259                2.61940610               -0.96874254               -5.42061230               -2.30085730
              26.29525437               10.46324984               88.25867761                0.00010000               -3.30557787                0.56067479                1.03262208               -1.66305441               -9.73620046               -4.28163138
              27.26764882                9.91466779               87.72424049                0.00010000               -1.77790638                1.04992409               -2.24735445               -2.24812811              -13.20875977               -7.01566293
              28.25969625                9.36526888               87.16465060                0.00010000                0.46547094                1.70490361               -6.84293476               -2.53652157              -14.72900718              -10.30428500
              29.27695823                8.81674796               86.60062259                0.00010000                3.02990959                2.49841980              -12.15596835               -2.36514457              -13.33634100              -13.82859962
              30.32029444                8.27223659               86.05955122                0.00010000                5.37320183                3.33829280              -17.31878480               -1.54772475               -8.30644267              -17.13331808
              31.38442227                7.73650473               85.57328296                0.36972677                6.41278323                3.97253341              -21.16780304               -0.70166792               -3.70471974              -19.62611941
              21.94733527               14.19653766               90.33343805                1.00000000                0.01187915                0.06142654               -0.14139215               -0.00015893               -0.00845375                0.52651193
              22.94745406               13.64951371               89.91005143                0.83833855               -0.01166355               -0.01780387                0.04371103               -0.00490729               -0.01780862               -0.14347341
              23.94710200               13.10235964               89.48654659                0.00010000               -1.59429093               -0.09307097                0.23221308                0.08349222               -0.03558715               -0.80506140
              24.91556824               12.55724331               89.06267110                0.00010000               -3.77740135                0.15160061                2.58619877               -0.09875906               -1.51319360               -1.03324081
              25.87155397               12.01383250               88.60006573                0.00010000               -4.40263588                0.46337983                2.89782110               -0.53820101               -5.85129703               -1.90619810
              26.82751553               11.47089879               88.09053914                0.00010000               -3.82219109                0.93856970                1.11585126               -1.07974124              -10.63686450               -3.38500525
              27.79511015               10.92852935               87.53795367                0.00010000               -2.18273301                1.64853646               -2.55895403               -1.51175137              -14.49206392               -5.39036983
              28.78386087               10.38739787               86.95668159                0.00010000                0.23710414                2.59414086               -7.70723606               -1.71389612              -16.19270221               -7.77673113
              29.79985223                9.84866790               86.37036248                0.00010000                3.01813106                3.70094942              -13.66635912               -1.57122018              -14.66653939              -10.30354336
              30.84422349                9.31420688               85.81010880                0.00010000                5.57644482                4.83214078              -19.48873229               -0.99834916               -9.12037621              -12.60210210
              31.91138113                8.78633184               85.31161499                0.36987300                6.71576431                5.77118396              -23.92180393               -0.46090199               -4.12589994              -14.23199305
              22.49474892               15.19710757               90.19400246                1.00000000                0.01387363                0.05463478               -0.14893596               -0.00009535               -0.00157992                0.48562483
              23.49488766               14.64935285               89.76741425                0.87401925               -0.01327593               -0.01489392                0.04547744               -0.00253718               -0.01282509               -0.12702315
              24.49448341               14.10149793               89.34064381                0.00010000               -1.78810860               -0.08174132                0.23986772                0.27749525                0.24292598               -0.67393695
              25.45912549               13.55939107               88.91900174                0.00010000               -4.25712664                0.32608079                2.85826854                0.26202551               -1.11145395               -0.82245669
              26.40934087               13.01960847               88.45376526                0.00010000               -5.00813931                0.70033604                3.26368967               -0.19840421               -5.87877799               -1.41516202
              27.35896270               12.48202124               87.93649738                0.00010000               -4.42130775                1.23028661                1.39559662               -0.61341576              -11.11923094               -2.38470758
              28.32091472               11.94763852               87.37142714                0.00010000               -2.68414600                2.08094118               -2.53738939               -0.89486618              -15.39180255               -3.64531745
              29.30527978               11.41715170               86.77449278                0.00010000               -0.10949503                3.21598178               -8.07757490               -1.01293660              -17.33603651               -5.13340992
              30.31872482               10.89076695               86.17185084                0.00010000                2.86918655                4.52670954              -14.50668657               -0.91550935              -15.75853038               -6.68164729
              31.36266351               10.36887941               85.59808960                0.00010000                5.61147487                5.85730995              -20.79858853               -0.56170933               -9.79626220               -7.96455881
              32.43095431                9.85192841               85.09236091                0.36998595                6.82908012                7.04478264              -25.61874202               -0.27684896               -4.49870334               -8.51797605
              23.04284281               16.19763036               90.05417188                1.00000000                0.01701533                0.05268553               -0.15960575               -0.00027468                0.03150610                0.37266981
              24.04301296               15.64921583               89.62484836                0.73046052               -0.01145608               -0.01341295                0.04380379               -0.00077879                0.08537039               -0.12798414
              25.04261368               15.10072482               89.19662835                0.00010000               -2.01573729               -0.07451005                0.23494781                0.57296879                0.81395667               -0.51421058
              26.00269821               14.56376493               88.78168197                0.00010000               -4.88289782                0.66502416                3.23574152                0.49048199               -0.26910032               -0.42598612
              26.94495573               14.02783923               88.31888515                0.00010000               -5.77405248                0.84660044                3.85681891               -0.00452303               -5.46002815               -0.83155776
              27.88721716               13.49550453               87.79837287                0.00010000               -5.14366835                1.38817715                1.99904072               -0.28621801              -11.31873914               -1.27890386
              28.84208236               12.97014818               87.22553741                0.00010000               -3.33717298                2.31228661               -2.08199421               -0.41204695              -16.14625373               -1.84465086
              29.82047370               12.45171750               86.61753977                0.00010000               -0.61340089                3.54996081               -7.89568627               -0.46898544              -18.47837968               -2.51691205
              30.82981434               11.93920209               86.00263451                0.00010000                2.56770714                4.97187848              -14.67112963               -0.43022704              -16.97815149               -3.21114944
              31.87182785               11.43135308               85.41896868                0.00010000                5.49659040                6.40724984              -21.29359420               -0.26248012              -10.59996429               -3.71619862
              32.93974615               10.92722749               84.91118721                0.37045911                6.79183041                7.70991300              -26.28457962               -0.15557810               -4.96961537               -3.39044806
              23.59157249               17.19816128               89.91268230                1.00000000                0.02051361                0.05309271               -0.17279049               -0.03470061                0.19180709                0.28097993
              24.59177763               16.64908459               89.48205907                0.80761148               -0.00894058               -0.01312335                0.03579727               -0.03121087                0.29467201               -0.13219585
              25.59139368               16.10000773               89.05350191                0.36137368               -2.49784542               -0.07170830                0.22471843                1.05834761                1.91343725               -0.45050960
              26.54182072               15.57269156               88.65502880                0.36108259               -5.69414319                0.89266272                3.95515177                0.73888802                1.60774870               -0.67543906
              27.47751081               15.03654048               88.19779064                0.36099555               -6.54456636                0.87012579                4.86001124                0.11016976               -4.68345646               -0.88360987
              28.41092939               14.50978478               87.67765816                0.36112372               -6.05250055                1.42802512                3.08044550                0.23841124              -11.45128284               -0.99371670
              29.35646080               13.99388425               87.10028319                0.36160635               -4.20416138                2.37360776               -1.09792577                0.35615132              -17.06682361               -1.07181548
              30.32684616               13.48815092               86.48405166                0.36278598               -1.29880527                3.64334166               -7.13103311                0.45325927              -19.97101516               -1.13601789
              31.33048470               12.99020452               85.85874523                0.36483217                2.12711713                5.10024350              -14.20028540                0.51070979              -18.79448318               -1.14997543
              32.36938851               12.49702440               85.26438022                0.36793795                5.28046144                6.56713237              -21.14256448                0.55217311              -12.19634344               -1.02528197
              33.43609393               12.00612667               84.75333859                0.68501195                6.67054215                7.88991746              -26.26532322                0.54500396               -6.29284368               -0.02852996
              18.53852790                7.33672927               92.30255647                1.00000000               -0.02264111                0.00534931                0.03578997               -0.00440274               -0.45643118                0.41332936
              19.53830149                6.79181557               91.90088263                1.00000000               -0.03324389               -0.02488306                0.10498501               -0.00640240               -0.62903518                0.06297609
              20.53786303                6.24683343               91.49587206                1.00000000               -0.05808828               -0.05611536                0.19888887               -0.00295128               -0.66994711               -0.04605704
              21.53713973                5.70197983               91.09294980                0.69446902               -0.11492702               -0.06525871                0.26134499               -0.00905901               -0.64192843               -0.25797712
              22.53556449                5.15698055               90.68781364                0.69185004               -0.17011123               -0.05960070                0.34465948               -0.01346333               -0.48490738               -0.11956921
              23.53373750                4.61182961               90.28693901                0.70533720               -0.16687806               -0.06136846                0.34075665               -0.01495025               -0.07965498               -0.08991867
              24.53222693                4.06644193               89.88928258                0.74483708               -0.12574238               -0.04149550                0.24665335               -0.02801274                0.20124224               -0.08490397
              25.53122266                3.52100440               89.49401516                0.82891501               -0.06943041                0.00326238                0.07867447               -0.02745274                0.34585987               -0.07932586
              26.53083832                2.97579111               89.09978448                1.00000000                0.01385672                0.05768833               -0.16153230               -0.01800118                0.27555758               -0.06765828
              27.53149979                2.43067558               88.70342888                1.00000000                0.10724476                0.12160226               -0.39816795               -0.02536654                0.11644115               -0.02084612
              28.53298321                1.88559132               88.30646398                1.00000000                0.14834222                0.19276092               -0.65172860               -0.03123790                0.03036268               -0.13340199
              19.08339757                8.33678276               92.16192960                1.00000000               -0.02121845                0.02528649                0.00777627               -0.01817995               -0.12530735                0.55974342
              20.08318539                7.79156674               91.76022864                1.00000000               -0.03230954               -0.01757183                0.07541593               -0.02101785               -0.19584865                0.09343537
              21.08275138                7.24627227               91.35744240                1.00000000               -0.06049073               -0.05490556                0.15496517               -0.00599414               -0.22172916               -0.13290375
              22.08197558                6.70132724               90.95527956                1.00000000               -0.11232108               -0.04975139                0.22460289               -0.00892869               -0.15944508               -0.18475552
              23.08050496                6.15638454               90.55359549                1.00000000               -0.15591324               -0.05283449                0.28742004               -0.00721923               -0.01299956               -0.06990702
              24.07885731                5.61121593               90.15452103                1.00000000               -0.15727806               -0.05208691                0.28765902               -0.00713310                0.23150394               -0.04566249
              25.07735940                5.06602698               89.75796706                1.00000000               -0.12918871               -0.03254959                0.21568849               -0.00571824                0.44523608               -0.03631017
              26.07627354                4.52103703               89.36353782                1.00000000               -0.07683408                0.00840809                0.06884049                0.00111553                0.58077306               -0.03700002
              27.07582272                3.97636800               88.97025224                1.00000000                0.00362433                0.06029150               -0.14748927                0.01263768                0.53167715               -0.06056628
              28.07634602                3.43189160               88.57543184                1.00000000                0.09661868                0.12178890               -0.38627060                0.01019765                0.32097269               -0.03776285
              29.07775509                2.88751893               88.17848547                1.00000000                0.14090701                0.18900309               -0.61899054                0.00680593                0.16701288               -0.17866898
              19.62859635                9.33723500               92.02447872                1.00000000               -0.02047233                0.06421319               -0.03284454               -0.01513302               -0.04333127                0.72920022
              20.62839162                8.79146413               91.62030164                1.00000000               -0.03068537               -0.00654179                0.04166173               -0.00811756               -0.00534213                0.11555084
              21.62798264                8.24573532               91.21735700                0.00010000               -0.07713707               -0.07243979                0.11799455                0.06803681                0.25312460               -0.40578712
              22.62684888                7.70098480               90.81875665                0.00010000               -0.12256113               -0.07549592                0.18544359               -0.34803706                0.38433117               -0.14832527
              23.62553142                7.15592386               90.41979054                0.00010000               -0.14482367               -0.16065233                0.23089018               -1.19941096                0.36987180               -0.87162265
              24.62395241                6.61078787               90.02217175                0.00010000               -0.16199794               -0.43389474                0.23808385               -2.10291385                0.49071667               -2.76125436
              25.62229146                6.06579094               89.62671210                0.00010000               -0.15242324               -0.88854736                0.18436464               -2.75828907                0.66248373               -5.71431729
              26.62090394                5.52117257               89.23326491                0.00010000               -0.10274792               -1.49303338                0.05683447               -2.89191016                0.79501487               -9.46220214
              27.62023650                4.97699694               88.84078050                0.00010000               -0.01755651               -2.20202186               -0.13810885               -2.25911076                0.80776181              -13.54827013
              28.62055281                4.43311135               88.44772303                0.00010000                0.08140887               -2.90411210               -0.37660773               -0.62849199                0.57671477              -17.24000889
              29.62186468                3.88937138               88.05096353                0.36582867                0.13118632               -3.77202669               -0.59293983                2.25135276                0.35423854              -19.80026607
              20.17463664               10.33806702               91.88714983                1.00000000               -0.01139203                0.09106418               -0.06473879                0.00110521                0.01653398                0.71798109
              21.17452272                9.79143590               91.48004762                0.83432274               -0.00225951               -0.00917214                0.01348250                0.01104866                0.02626290                0.02242096
              22.17459145                9.24482348               91.07348133                0.00010000               -0.48482165               -0.11348485                0.07099017                0.11531235                0.77385808               -0.73138202
              23.16482629                8.69981732               90.68106312                0.00010000               -1.39388898               -0.11439670                1.61350344               -0.61547844                0.83069675                0.00040497
              24.14671367                8.15317150               90.26870312                0.00010000               -1.89471660               -0.25329174                2.03387218               -2.24439537               -1.47399539               -1.49491185
              25.12693196                7.60253803               89.83457263                0.00010000               -1.74523726               -0.67286262                1.47982010               -4.05826597               -3.92599470               -5.23837057
              26.11180893                7.04825603               89.38105190                0.00010000               -0.98513139               -1.38066966                0.05775513               -5.41010232               -5.95539675              -11.05070309
              27.10722933                6.49117636               88.91375829                0.00010000                0.34463951               -2.34224278               -2.09276492               -5.83140091               -7.09124023              -18.40958790
              28.11870172                5.93232756               88.44143365                0.00010000                2.20862104               -3.48698137               -4.74105700               -4.90890055               -6.82251708              -26.45806616
              29.15140175                5.37380936               87.97617237                0.00010000                4.57801922               -4.71836906               -7.46833663               -2.68001267               -4.61173330              -33.98028067
              30.21026210                4.81207839               87.53166096                0.36628822                5.88603520               -5.52376118               -9.61878717                0.55588331               -1.61270148              -39.76561792
              20.72188069               11.33905628               91.74920564                1.00000000               -0.00245482                0.09360080               -0.08503312                0.00527354               -0.00293104                0.66071662
              21.72185615               10.79128069               91.33818741                0.80966045                0.00133865               -0.01598978                0.01427027                0.00985845               -0.00555765               -0.08843054
              22.72190747               10.24346562               90.92730080                0.00010000               -0.78324257               -0.13065702                0.10646837                0.15250965                0.96384155               -0.86276661
              23.70619129                9.69869687               90.53552964                0.00010000               -2.19923319               -0.12908247                2.49967737               -0.32840953                0.74996189               -0.34153261
              24.67792280                9.15085803               90.10890505                0.00010000               -2.92443673               -0.22302207                3.14340835               -1.57650440               -2.99945354               -1.75047281
              25.64770256                8.59733062               89.64303297                0.00010000               -2.62358592               -0.39280450                2.11221726               -2.96987519               -7.07772984               -5.11933980
              26.62545108                8.03817755               89.14151784                0.00010000               -1.37490820               -0.65632400               -0.40560176               -4.04707762              -10.46745181              -10.22282133
              27.62020440                7.47432771               88.61461941                0.00010000                0.69872049               -1.01339753               -4.14214329               -4.50769133              -12.27423211              -16.63388433
              28.63942549                6.90725732               88.07892593                0.00010000                3.34986671               -1.44049644               -8.67169661               -4.19354986              -11.59114868              -23.69388591
              29.68720173                6.33874397               87.55721017                0.00010000                5.85093904               -1.84290403              -13.29277859               -2.81371344               -7.45354353              -30.54859843
              30.75644427                5.77889615               87.07897936                0.36649219                6.92425452               -1.57440184              -16.86953874               -1.36771863               -3.17670511              -35.82540126
              21.27029329               12.33993904               91.61054340                1.00000000                0.00172607                0.07955186               -0.09558618                0.00587604               -0.00843019                0.60384646
              22.27031055               11.79111611               91.19574529                0.82760721               -0.00339128               -0.01485561                0.02180723                0.00554406               -0.02295608               -0.12146438
              23.27022547               11.24221034               90.78079935                0.00010000               -0.97224320               -0.11114766                0.14488223                0.18495100                1.05072391               -0.84953070
              24.25086569               10.69723568               90.38735876                0.00010000               -2.68378181               -0.17455056                3.11757583               -0.09499426                0.62816205               -0.52662958
              25.21654983               10.14871106               89.94748037                0.00010000               -3.53253780               -0.21022665                3.85194015               -1.05104332               -4.13114291               -1.81399108
              26.18021493                9.59468194               89.45501529                0.00010000               -3.13397733               -0.14188348                2.40894286               -2.11872990               -9.26191247               -4.71774956
              27.15387028                9.03512955               88.91458558                0.00010000               -1.61096010                0.03551228               -0.98003761               -2.99248897              -13.49483821               -9.04400319
              28.14799573                8.47090841               88.34008912                0.00010000                0.82720867                0.30951983               -5.95285557               -3.48617253              -15.67353081              -14.45615793
              29.17041446                7.90351763               87.75408050                0.00010000                3.77464556                0.68107690              -11.94954552               -3.41364480              -14.64797660              -20.47527991
              30.22348864                7.33695128               87.18766777                0.00010000                6.60944545                1.23146388              -18.07438288               -2.43527864               -9.36725235              -26.40444550
              31.30260337                6.78059035               86.67933721                0.36701954                7.91147242                1.76893544              -22.99654143               -1.12299196               -4.16008629              -31.28301424
              21.81964408               13.34064732               91.47148373                1.00000000                0.00516513                0.06308951               -0.10326091                0.00480638               -0.00876293                0.56465779
              22.81969573               12.79098358               91.05310741                0.84912515               -0.00785799               -0.01192282                0.02926748                0.00423551               -0.02080876               -0.12518703
              23.81948692               12.24124266               90.63459064                0.00010000               -1.09525205               -0.08591956                0.16742381                0.17529662                1.15545583               -0.80284601
              24.79779069               11.69520586               90.23963786                0.00010000               -3.00156250               -0.22072308                3.56939358                0.01588946                0.63041348               -0.65488835
              25.75945567               11.14665349               89.78913211                0.00010000               -3.94406102               -0.19086108                4.34801739               -0.67415214               -4.83929859               -1.78424499
              26.71890947               10.59449295               89.27568651                0.00010000               -3.50404161                0.10228419                2.57400071               -1.44435146              -10.69562123               -4.15994380
              27.68937484               10.03888779               88.70480054                0.00010000               -1.84083033                0.68515548               -1.48580328               -2.10194652              -15.49682596               -7.62424098
              28.68209286                9.48051811               88.09316294                0.00010000                0.78674477                1.53369835               -7.40763113               -2.50930830              -17.92531179              -11.93566110
              29.70510973                8.92087885               87.46788947                0.00010000                3.96652852                2.60782909              -14.54163144               -2.48621529              -16.69692958              -16.73337545
              30.76142343                8.36337325               86.86585754                0.00010000                7.07982729                3.80058016              -21.88444102               -1.73515382              -10.63783398              -21.50312898
              31.84670628                7.81427486               86.33200601                0.36718177                8.52828454                4.79736714              -27.97555238               -0.83023415               -4.81532399              -25.53691943
              22.36971690               14.34120083               91.33217730                1.00000000                0.00830177                0.05033141               -0.11102776                0.00316991               -0.00773692                0.53108412
              23.36979992               13.79087765               90.91042997                0.86025765               -0.01038892               -0.00983378                0.03383780                0.00326692               -0.01498098               -0.11743396
              24.36950912               13.24049195               90.48860770                0.00010000               -1.20136335               -0.06918709                0.18334243                0.13001613                1.37009485               -0.76157301
              25.34577265               12.69282121               90.09444753                0.00010000               -3.28647137               -0.23218127                3.93232124                0.02319110                0.89884904               -0.73807812
              26.30377969               12.14489383               89.63734518                0.00010000               -4.33395217               -0.14528637                4.77209847               -0.41686920               -5.11605909               -1.67181932
              27.25909361               11.59672763               89.10898559                0.00010000               -3.89867480                0.33327982                2.77684910               -0.90003765              -11.53787304               -3.46035506
              28.22580620               11.04883266               88.51560261                0.00010000               -2.16375521                1.24795498               -1.76404533               -1.32202953              -16.80309246               -5.99589545
              29.21581850               10.50158238               87.87607554                0.00010000                0.60144056                2.54914239               -8.38540762               -1.59606763              -19.47375529               -9.11945707
              30.23783501                9.95567421               87.22110161                0.00010000                3.97855273                4.13109306              -16.37448160               -1.57188044              -18.13772576              -12.57329879
              31.29538956                9.41296288               86.59209802                0.00010000                7.31802250                5.82415922              -24.64905496               -1.07642578              -11.53251903              -15.94105935
              32.38419546                8.87653770               86.03879640                0.36746032                8.88059020                7.34308586              -31.65384297               -0.53535277               -5.28111148              -18.69460257
              22.92035384               15.34165395               91.19265583                1.00000000                0.01161187                0.04353958               -0.12065054                0.00106480               -0.00081309                0.48744795
              23.92046995               14.79078690               90.76780014                0.88641872               -0.01050778               -0.00850235                0.03353725                0.00161419               -0.01145084               -0.10805499
              24.92014368               14.23985892               90.34277713                0.00010000               -1.33086659               -0.06040354                0.19017870                0.07923974                1.79736539               -0.64521673
              25.89385262               13.69056223               89.95395296                0.00010000               -3.64659036               -0.19148846                4.29468773               -0.01644036                1.59239191               -0.72046381
              26.84721187               13.14374777               89.49539181                0.00010000               -4.84413651               -0.08661471                5.27403817               -0.24978945               -4.93925861               -1.40931969
              27.79696989               12.60115855               88.95843519                0.00010000               -4.45661888                0.52162543                3.19264282               -0.47267712              -11.90723685               -2.59103784
              28.75807950               12.06384689               88.34975512                0.00010000               -2.68199685                1.67455024               -1.65518523               -0.68146312              -17.69382988               -4.16750138
              29.74332996               11.53150096               87.69019823                0.00010000                0.21060633                3.28046731               -8.76374748               -0.83974849              -20.69137219               -6.10166044
              30.76229162               11.00350072               87.01355100                0.00010000                3.78507385                5.19477267              -17.36413907               -0.83563208              -19.34110248               -8.21987866
              31.81903143               10.47985644               86.36552172                0.00010000                7.32789820                7.22594717              -26.29297457               -0.56063275              -12.28954480              -10.14247328
              32.90884959                9.96113658               85.80016928                0.36764248                8.98181536                9.15924881              -33.90621433               -0.31634647               -5.70331488              -11.29769095
              23.47147228               16.34207162               91.05270939                1.00000000                0.01549422                0.04299723               -0.13315409               -0.00068200                0.03221240                0.37161433
              24.47162722               15.79070760               90.62519421                0.73394172               -0.00768476               -0.00737959                0.02738524                0.00032553                0.08153732               -0.11614267
              25.47131859               15.23928387               90.19869852                0.00010000               -1.50361124               -0.05516494                0.18300085                0.05609128                2.58109968               -0.49736305
              26.44155500               14.68899144               89.82100661                0.00010000               -4.15654993               -0.14314298                4.79430811               -0.00026191                2.85176250               -0.40208643
              27.38818759               14.14316154               89.36744824                0.00010000               -5.60070300               -0.07282075                6.07477398               -0.12608565               -4.18940602               -0.95296094
              28.32954094               13.60716013               88.82746485                0.00010000               -5.31765303                0.62674189                4.02745963               -0.17569361              -11.96692854               -1.48243992
              29.28183453               13.08232366               88.20944290                0.00010000               -3.50856159                1.91261086               -0.98806670               -0.24446470              -18.48233422               -2.16985743
              30.25936971               12.56719172               87.53581044                0.00010000               -0.45338200                3.67823619               -8.42761502               -0.32736783              -22.00091678               -3.03051978
              31.27276689               12.05956967               86.84301365                0.00010000                3.35856645                5.76761435              -17.46377815               -0.35119359              -20.78685743               -3.97791503
              32.32654104               11.55748182               86.18125857                0.00010000                7.12706758                7.97339902              -26.83603990               -0.23957325              -13.25377948               -4.75752999
              33.41530824               11.05972267               85.61163328                0.36762774                8.87672024               10.12147530              -34.73946976               -0.19317807               -6.27116295               -4.55233976
              24.02306823               17.34251389               90.91107991                1.00000000                0.01959816                0.04422687               -0.14752769               -0.02786314                0.19014230                0.27868468
              25.02326421               16.79063931               90.48230445                0.80870122               -0.00432826               -0.00682934                0.01550303               -0.02421455                0.28551019               -0.12483563
              26.02298167               16.23875562               90.05545896                0.36161921               -1.66472468               -0.05282504                0.17118573                0.01931088                4.10493402               -0.43847117
              26.98996972               15.68769937               89.70287755                0.36081783               -4.82300981               -0.12920724                5.80938970                0.01825824                5.69784421               -1.02934103
              27.92652147               15.14229135               89.25820619                0.36100341               -6.78379108               -0.08701891                7.47792486                0.13308877               -2.96444359               -1.28330695
              28.85429390               14.61369339               88.71955246                0.36079116               -6.66814285                0.65332509                5.54160640                0.46568358              -12.03029597               -1.37859537
              29.79315861               14.10209911               88.09594868                0.36148943               -4.73786508                1.97754450                0.41258170                0.70102313              -19.61492166               -1.43553083
              30.75953660               13.60506568               87.41168188                0.36195324               -1.40904806                3.78739557               -7.28895121                0.85438347              -23.88987118               -1.49498332
              31.76497765               13.11885300               86.70525802                0.36319424                2.72751821                5.92833363              -16.67732609                0.93401314              -23.10707893               -1.51153396
              32.81408696               12.63932442               86.02927073                0.36564695                6.77633354                8.18425929              -26.43853975                0.99024646              -15.30809129               -1.37198519
              33.90050432               12.16356609               85.45483774                0.68389725                8.64173624               10.38434125              -34.52496547                0.94377535               -7.98363816               -0.11768105
              18.93547711                7.48152305               93.30322254                1.00000000               -0.02551413               -0.00500845                0.08863363               -0.01692617               -0.42106559                0.39152169
              19.93522196                6.93323811               92.90201370                1.00000000               -0.02198763               -0.03046936                0.11663252               -0.02156282               -0.57497683                0.06020452
              20.93503735                6.38504866               92.49775820                0.97666963               -0.02723285               -0.06173706                0.18026589               -0.01341988               -0.61987281               -0.04421218
              21.93467731                5.83740888               92.09518582                0.70162671               -0.06510675               -0.05367892                0.19741192                0.01551496               -0.59025965               -0.22545778
              22.93373522                5.29039225               91.69080689                0.70889521               -0.11577308               -0.03795717                0.26017735                0.01628623               -0.44180502               -0.10032758
              23.93236185                4.74373058               91.28978958                0.72978224               -0.13428621               -0.03055476                0.24085404                0.01852504               -0.09707043               -0.06853302
              24.93104949                4.19720890               90.89122959                0.77177469               -0.11431147               -0.00797767                0.15621766                0.01443355                0.14780925               -0.05890472
              25.93007562                3.65084482               90.49449441                0.84807911               -0.06351452                0.02309688                0.02405960                0.01127140                0.27440426               -0.06169831
              26.92977920                3.10460545               90.09817366                1.00000000                0.00965835                0.05704073               -0.14616312               -0.00071735                0.21132061               -0.05375021
              27.93026878                2.55838475               89.69999776                1.00000000                0.07516392                0.09363137               -0.29351874               -0.01312087                0.07194034               -0.02091574
              28.93128248                2.01216849               89.30118541                1.00000000                0.10136985                0.13215974               -0.43960886               -0.01500780                0.00067999               -0.12489116
              19.48359279                8.48147297               93.16231486                1.00000000               -0.03492563                0.02302812                0.06120592               -0.02736459               -0.10899678                0.53498193
              20.48324353                7.93293342               92.76106596                1.00000000               -0.03875095               -0.01930360                0.08858974               -0.03384220               -0.16669809                0.08893685
              21.48281777                7.38443129               92.35889131                1.00000000               -0.05414322               -0.05861646                0.13515175               -0.00481530               -0.18417190               -0.12993904
              22.48216067                6.83687210               91.95724217                1.00000000               -0.10402663               -0.02778246                0.17239316                0.01051312               -0.11856925               -0.16055937
              23.48073723                6.29001268               91.55610798                1.00000000               -0.15109481               -0.02432328                0.21702738                0.01693967                0.01876317               -0.06377777
              24.47913877                5.74342503               91.15696539                1.00000000               -0.15502642               -0.01819406                0.20511340                0.01880817                0.22640539               -0.03955677
              25.47763671                5.19712913               90.75971213                1.00000000               -0.13243559                0.00015893                0.13903172                0.02142482                0.40604859               -0.03034713
              26.47649006                4.65107579               90.36397644                1.00000000               -0.08173206                0.02764279                0.02161328                0.02197469                0.51296251               -0.03785271
              27.47600207                4.10517586               89.96878607                1.00000000               -0.00670023                0.06008624               -0.13946166                0.01516789                0.46287065               -0.05543040
              28.47635605                3.55932107               89.57204691                1.00000000                0.06733000                0.09562258               -0.29609662                0.00540027                0.27239915               -0.03558659
              29.47734867                3.01349009               89.17333088                1.00000000                0.09926120                0.13231849               -0.43485779                0.00555250                0.13746374               -0.15886637
              20.03200892                9.48198361               93.02444120                1.00000000               -0.04221228                0.07400624                0.01843290               -0.01777610               -0.03562328                0.70294029
              21.03158679                8.93285204               92.62078112                1.00000000               -0.05032741               -0.00353981                0.05229263               -0.00613896                0.00976339                0.10995333
              22.03100237                8.38387634               92.21841608                0.00010000               -0.11403032               -0.08424346                0.09437624                0.12996217                0.27821023               -0.40951632
              23.02930619                7.83685324               91.82041990                0.00010000               -0.17406450                0.31459337                0.14478645                0.03401232                0.41941121                0.74988325
              24.02752108                7.28990578               91.42182803                0.00010000               -0.18423136                0.27792514                0.17393744               -0.84532242                0.40296874                0.26487485
              25.02562156                6.74336670               91.02424431                0.00010000               -0.18469256               -0.10552138                0.17349069               -1.88573303                0.51232872               -1.92199125
              26.02382723                6.19721208               90.62825867                0.00010000               -0.15765900               -0.79313254                0.12328727               -2.70108804                0.65649737               -5.64258002
              27.02246838                5.65139768               90.23364126                0.00010000               -0.09949703               -1.73659496                0.01813315               -2.93799935                0.75387234              -10.54660306
              28.02183729                5.10580717               89.83945102                0.00010000               -0.02029126               -2.89603110               -0.13158859               -2.23461489                0.73524502              -16.04708963
              29.02206256                4.56029721               89.44434528                0.00010000                0.06091001               -4.16907550               -0.30339362               -0.15893811                0.51172637              -21.21101922
              30.02305549                4.01481486               89.04585227                0.36381817                0.09929314               -6.01213556               -0.43896810                3.86684393                0.31236845              -24.95119938
              20.58150042               10.48295309               92.88675716                1.00000000               -0.02723878                0.10236438               -0.01908274                0.00967838                0.01319839                0.70056715
              21.58122803                9.93286262               92.48021262                0.87962141               -0.00423019               -0.00753381                0.01927187                0.02384379                0.01559742                0.03377367
              22.58141581                9.38274643               92.07399763                0.00010000               -0.22082823               -0.12394630                0.03759232                0.58383254                1.65846379               -0.69859874
              23.57681146                8.84316396               91.70010242                0.00010000               -1.20492435                0.36979576                2.27356682                0.43066187                2.40930938                1.82650839
              24.55731733                8.29557118               91.29308863                0.00010000               -2.13468271                0.32792372                2.94505838               -1.55128653               -0.86620488                0.77681730
              25.53411781                7.74131460               90.85314295                0.00010000               -2.08666822               -0.27221544                2.34299351               -3.68462907               -4.18567855               -3.57555763
              26.51558396                7.18126648               90.38396774                0.00010000               -1.24914160               -1.35244309                0.63643964               -5.35938466               -7.00782374              -10.89064511
              27.50913498                6.61634389               89.89265470                0.00010000                0.34131398               -2.85646130               -2.03621302               -6.02231590               -8.82756768              -20.49600728
              28.52241024                6.04725524               89.39027173                0.00010000                2.75173117               -4.73023493               -5.47394888               -5.10408743               -8.93471348              -31.35208330
              29.56416960                5.47593956               88.89335715                0.00010000                6.16199939               -6.95175369               -9.23160549               -2.69957474               -6.35858863              -41.93412484
              30.64565023                4.89324738               88.42310957                0.36407128                8.14806271               -8.96633594              -12.44616829                1.33703980               -2.37995571              -50.83834108
              21.13238343               11.48403090               92.74856838                1.00000000               -0.01130917                0.09736295               -0.04609261                0.01364307               -0.00278809                0.65282398
              22.13227034               10.93270136               92.33832265                0.85433039               -0.00028759               -0.01373539                0.01414213                0.02595898               -0.00595816               -0.05690317
              23.13237768               10.38139741               91.92817451                0.00010000               -0.35878331               -0.12343580                0.07274262                0.72383893                2.37047333               -0.78294891
              24.12509467                9.84424915               91.56536726                0.00010000               -1.70164836               -0.07057817                3.58842646                0.75658348                3.25934080                1.08619432
              25.09834471                9.29646426               91.14715765                0.00010000               -2.94304935               -0.15071026                4.66104336               -0.80519342               -1.90220795               -0.00071645
              26.06623368                8.73792239               90.67047667                0.00010000               -2.83672333               -0.43189199                3.53583611               -2.38293859               -7.32301629               -3.93783797
              27.04161024                8.17016322               90.14120649                0.00010000               -1.51001900               -0.89491855                0.49903517               -3.60583692              -11.92313692              -10.34259393
              28.03603330                7.59426845               89.57241151                0.00010000                0.92748155               -1.53553977               -4.18166427               -4.21948965              -14.71884820              -18.67429213
              29.06015987                7.01120248               88.98502344                0.00010000                4.30228062               -2.35124323              -10.11656384               -4.09159569              -14.49047292              -28.16570332
              30.12207892                6.42126213               88.40931350                0.00010000                7.75103829               -3.26174055              -16.54949618               -2.87754738               -9.63326381              -37.86560938
              31.21518064                5.83548814               87.88767931                0.36444185                9.31017236               -3.25265706              -22.02120896               -1.48940238               -4.21432534              -46.19827288
              21.68443236               12.48490035               92.60976791                1.00000000               -0.00516574                0.07537015               -0.06184737                0.01366263               -0.00730859                0.60317376
              22.68438070               11.93258791               92.19594056                0.86401690               -0.00437777               -0.00904270                0.01883051                0.01958614               -0.01783625               -0.08677302
              23.68434480               11.38027771               91.78202882                0.00010000               -0.37522074               -0.09516624                0.10561795                0.69543235                2.80998327               -0.77906092
              24.67687629               10.84175240               91.42466992                0.00010000               -1.84022906               -0.40383106                4.48389952                0.89124624                3.79297813                0.56106349
              25.64754022               10.29255697               90.99458619                0.00010000               -3.20581049               -0.58365431                5.74103574               -0.32472976               -2.65282266               -0.54690500
              26.61276008                9.73267676               90.48695254                0.00010000               -3.02095325               -0.59208612                4.14883838               -1.48745173               -9.35980392               -3.96631661
              27.58712116                9.16336810               89.90916078                0.00010000               -1.45270732               -0.44986398                0.05369917               -2.42090197              -14.99698700               -9.38893316
              28.58370593                8.58563310               89.27888671                0.00010000                1.32317461               -0.18496014               -6.18144543               -3.05349755              -18.29626622              -16.40714107
              29.61358465                8.00023037               88.62439631                0.00010000                4.93135277                0.19284361              -14.04072952               -3.23815885              -17.75221125              -24.51021358
              30.68233298                7.41070475               87.98633535                0.00010000                8.69127538                0.82408147              -22.57010502               -2.53469149              -11.68693678              -32.96461144
              31.78741016                6.82819424               87.41802149                0.36445128               10.50771712                1.54095059              -30.14117808               -1.21914008               -5.27662386              -40.72274107
              22.23728156               13.48553830               92.47061276                1.00000000                0.00031428                0.05434448               -0.07250544                0.01036209               -0.00733954                0.56673312
              23.23728470               12.93252051               92.05336803                0.87516420               -0.00798612               -0.00578046                0.02441673                0.01495612               -0.01581834               -0.09467854
              24.23712184               12.37949408               91.63604229                0.00010000               -0.33221859               -0.06680091                0.12717716                0.48967771                3.16444684               -0.74728171
              25.23064033               11.83617253               91.28231610                0.00010000               -1.80980423               -0.67928716                5.10947471                0.66142709                4.28050852                0.07951456
              26.20092575               11.28479117               90.84231325                0.00010000               -3.24834053               -0.92102809                6.45789306               -0.14686768               -3.04641477               -0.99467600
              27.16567352               10.72608066               90.31015762                0.00010000               -3.03449423               -0.68668729                4.48103998               -0.89423358              -10.59849403               -3.81614984
              28.14023587               10.16116594               89.69452442                0.00010000               -1.37862162                0.01443797               -0.42721560               -1.53371082              -16.89286957               -8.15110358
              29.13810109                9.59056925               89.01649798                0.00010000                1.50445903                1.11701714               -7.84605540               -2.04628793              -20.50973640              -13.73418742
              30.17032505                9.01505935               88.30978996                0.00010000                5.26600655                2.56550087              -17.18117668               -2.26674535              -19.81343016              -20.20688013
              31.24342122                8.43774376               87.62186240                0.00010000                9.27469036                4.25083828              -27.39044682               -1.76034289              -12.98339871              -27.05310885
              32.35581885                7.86630716               87.01377191                0.36488590               11.23976370                5.80411373              -36.73403268               -0.89606054               -5.95538568              -33.48709011
              22.79067519               14.48598724               92.33121750                1.00000000                0.00488491                0.03930666               -0.08211986                0.00663071               -0.00575614                0.53302641
              23.79072404               13.93247230               91.91072819                0.87421490               -0.00944293               -0.00465009                0.02731070                0.01035477               -0.01017321               -0.09392480
              24.79048633               13.37894169               91.49021344                0.00010000               -0.29581509               -0.04956523                0.14182868                0.14252045                3.57449026               -0.71921872
              25.78480774               12.82816666               91.14131753                0.00010000               -1.78958013               -0.88749049                5.57952492                0.14565159                4.94028886               -0.35262346
              26.75469473               12.27413641               90.69550770                0.00010000               -3.31535528               -1.17360748                7.01752816               -0.20379617               -3.03493638               -1.33792448
              27.71850064               11.71894302               90.14607612                0.00010000               -3.13681894               -0.71797246                4.78435111               -0.48492046              -11.22482979               -3.47531475
              28.69195835               11.16365686               89.50267276                0.00010000               -1.48069358                0.46411337               -0.70109734               -0.79651791              -18.04715926               -6.63254599
              29.68888676               10.60797344               88.78897344                0.00010000                1.45584385                2.24071697               -8.98281443               -1.12805508              -21.97192613              -10.66220270
              30.72107523               10.05154039               88.04287285                0.00010000                5.34957773                4.46989966              -19.41490822               -1.29988506              -21.22753384              -15.32713298
              31.79587832                9.49572151               87.31712770                0.00010000                9.56434625                6.95628171              -30.89123854               -1.02153797              -13.88439925              -20.20088264
              32.91236216                8.94427651               86.67853813                0.36491424               11.64838374                9.34152718              -41.58508426               -0.55579810               -6.43236642              -24.68590526
              23.34444405               15.48632444               92.19158945                1.00000000                0.00932981                0.03256597               -0.09360992                0.00241762                0.00155074                0.48758380
              24.34453735               14.93242751               91.76808499                0.88819650               -0.00830782               -0.00418188                0.02489744                0.00544404               -0.00727892               -0.09290495
              25.34427789               14.37850278               91.34444739                0.00010000               -0.30893536               -0.04229860                0.14777333               -0.30339183                4.19659386               -0.61885576
              26.33835864               13.81842272               91.00489549                0.00010000               -1.91022117               -1.06840235                6.02179652               -0.55038801                6.03070034               -0.63467937
              27.30607347               13.26131902               90.55924603                0.00010000               -3.59519902               -1.40853900                7.63856066               -0.33434364               -2.53765639               -1.44000836
              28.26645466               12.71172122               90.00035024                0.00010000               -3.53991923               -0.71022796                5.31658161               -0.17437572              -11.35150967               -2.85580154
              29.23527508               12.17044821               89.33832344                0.00010000               -1.93990988                0.84503002               -0.52726590               -0.21029455              -18.80029518               -4.78802635
              30.22765646               11.63538359               88.59921783                0.00010000                1.06520954                3.08250072               -9.39812866               -0.39965051              -23.14897797               -7.26004693
              31.25657927               11.10445734               87.82456806                0.00010000                5.12989359                5.81981907              -20.59963938               -0.54801803              -22.45632518              -10.11776133
              32.33025433               10.57686940               87.07223011                0.00010000                9.55068086                8.83659791              -32.94974993               -0.45326696              -14.67813608              -12.94507831
              33.44759289               10.05313770               86.41423663                0.36549164               11.73385588               11.86178625              -44.53428068               -0.31260427               -6.88427188              -15.06719246
              23.89851741               16.48663856               92.05150880                1.00000000                0.01371713                0.03347494               -0.10778613               -0.00087824                0.03320275                0.37017189
              24.89865458               15.93238867               91.62539606                0.72800610               -0.00470626               -0.00300429                0.01473197                0.00142968                0.08168171               -0.10878071
              25.89842328               15.37809572               91.20028837                0.00010000               -0.38354212               -0.03926812                0.13915349               -0.84743468                5.25856128               -0.48367900
              26.89098374               14.80679861               90.87756814                0.00010000               -2.18569605               -1.50299341                6.63928258               -0.87291743                7.84045008               -0.42650362
              27.85470936               14.24596563               90.44038063                0.00010000               -4.25499020               -1.59802859                8.64687790               -0.32932947               -1.31634971               -1.17033028
              28.80588393               13.70473846               89.87892206                0.00010000               -4.53096380               -0.68417836                6.38382476                0.03590739              -11.16610920               -1.77585610
              29.76409009               13.18055746               89.20577608                0.00010000               -2.94996572                1.08569294                0.35387296                0.08214351              -19.54564910               -2.58669613
              30.74688462               12.66962346               88.44898747                0.00010000                0.22694882                3.55623925               -8.90524475               -0.02688737              -24.57300985               -3.66770109
              31.76862906               12.16793677               87.65335895                0.00010000                4.56239997                6.55138825              -20.63602167               -0.14974949              -24.09819727               -4.94189668
              32.83813262               11.67245347               86.88224788                0.00010000                9.24721988                9.83454924              -33.55612781               -0.15159548              -15.79013838               -6.11488645
              33.95357346               11.18151224               86.21639781                0.36504164               11.54408420               13.21132158              -45.57997247               -0.20941091               -7.54363544               -6.18156458
              24.45292627               17.48699394               91.90973175                1.00000000                0.01825083                0.03553767               -0.12251522               -0.02176542                0.18758962                0.27693715
              25.45310878               16.93236742               91.48236913                0.80445030               -0.00035093               -0.00212452               -0.00027223               -0.01840600                0.28206592               -0.12167415
              26.45291925               16.37771742               91.05692563                0.36099417               -0.00392023               -0.03783011                0.12662252               -1.75063153                7.37388981               -0.43072776
              27.45303038               15.78836285               90.77121659                0.36059514               -2.56861114               -1.84357580                8.00540995               -1.21328467               12.01162640               -1.57648324
              28.40154703               15.22935845               90.34734914                0.36061779               -6.02247007               -1.66071829               10.51179233                0.16750656                0.50610134               -1.87643695
              29.33258097               14.69803765               89.78849029                0.36099810               -6.47570380               -0.67008088                8.38702411                0.80988482              -11.12110761               -1.93123009
              30.27203295               14.19216207               89.10853482                0.36102046               -4.64207831                1.16046024                2.22254881                1.21782309              -20.90462167               -1.94665445
              31.23973941               13.70650838               88.33827264                0.36143514               -1.06393432                3.68849198               -7.34002659                1.45163076              -26.89486374               -1.99805396
              32.25075427               13.23548511               87.52519871                0.36227361                3.69537728                6.75483367              -19.47786125                1.56512073              -26.97304833               -2.02795665
              33.31364695               12.77356038               86.73560942                0.36377988                8.72664350               10.11069098              -32.85634026                1.64538472              -18.35422903               -1.89238464
              34.42528714               12.31736413               86.06283928                0.68271816               11.16401847               13.58518936              -45.12292062                1.55174280               -9.69145781               -0.37717909
              19.33252427                7.62637507               94.30432914                1.00000000               -0.02579759               -0.01113314                0.12413658               -0.02687594               -0.38605443                0.36905712
              20.33226629                7.07491514               93.90321528                1.00000000               -0.01154095               -0.03370814                0.12059784               -0.03373740               -0.51709696                0.05735698
              21.33229345                6.52368296               93.49947738                0.95238185                0.00097785               -0.06673450                0.15884285               -0.01802931               -0.57083359               -0.05092081
              22.33228585                5.97335798               93.09689804                0.71654918               -0.00844105               -0.04760073                0.15147204                0.04461048               -0.54231981               -0.19723426
              23.33212463                5.42437182               92.69301719                0.72754284               -0.04562313               -0.02839793                0.19000050                0.04070533               -0.40175915               -0.08750396
              24.33137339                4.87610733               92.29175609                0.74498860               -0.08231775               -0.01372729                0.16306034                0.03713492               -0.11362737               -0.05828856
              25.33047827                4.32829876               91.89240693                0.77529039               -0.08033572                0.00921893                0.09037325                0.03405596                0.09763121               -0.04676941
              26.32976667                3.78080637               91.49449635                0.83024880               -0.04584479                0.03267532               -0.01346023                0.02884329                0.20963328               -0.05154668
              27.32956138                3.23349129               91.09686122                0.97019454                0.00800876                0.04907444               -0.12077310                0.01245826                0.14895538               -0.04776803
              28.32992685                2.68615897               90.69755851                1.00000000                0.05300724                0.06733857               -0.20756011               -0.00220159                0.02791270               -0.02132123
              29.33062152                2.13880255               90.29767180                1.00000000                0.06946744                0.08721776               -0.28909272               -0.00414998               -0.02863320               -0.11560600
              19.88371543                8.62626374               94.16315372                1.00000000               -0.04404615                0.02382141                0.09876443               -0.03457794               -0.09087558                0.50855301
              20.88327497                8.07457806               93.76200044                1.00000000               -0.04118476               -0.01993044                0.09497224               -0.04511971               -0.13326918                0.08351636
              21.88289174                7.52301562               93.36014544                1.00000000               -0.04437226               -0.06221441                0.11475543               -0.00407397               -0.14162268               -0.13260089
              22.88238753                6.97288198               92.95872742                1.00000000               -0.08673657               -0.01178827                0.12940382                0.03057611               -0.07329831               -0.13814495
              23.88115701                6.42408784               92.55793604                1.00000000               -0.13031307               -0.00655588                0.15359292                0.03649215                0.05190316               -0.06015862
              24.87978127                5.87597006               92.15862330                1.00000000               -0.13438465                0.00315764                0.13310910                0.03490345                0.22171075               -0.03843276
              25.87846931                5.32839095               91.76074769                1.00000000               -0.11612103                0.01924828                0.07547992                0.03546234                0.36987221               -0.02989538
              26.87745885                4.78113313               91.36397009                1.00000000               -0.07298239                0.03779358               -0.01498794                0.03067258                0.45254734               -0.03601887
              27.87700967                4.23398203               90.96746300                1.00000000               -0.01048224                0.05391013               -0.12492944                0.01876124                0.39575337               -0.04999779
              28.87724920                3.68683235               90.56950991                1.00000000                0.04633850                0.07108843               -0.21859885                0.00759678                0.22296426               -0.03415702
              29.87793644                3.13967473               90.16978832                1.00000000                0.06872360                0.08830724               -0.29375885                0.00806460                0.10742176               -0.14047968
              20.43520406                9.62685150               94.02484738                1.00000000               -0.05920397                0.08437260                0.05573841               -0.01978324               -0.02549266                0.67176255
              21.43461202                9.07451654               93.62134749                1.00000000               -0.06479995               -0.00041095                0.05889290               -0.00467931                0.02954741                0.10069107
              22.43390806                8.52243867               93.21924453                0.00010000               -0.13934341               -0.09612758                0.07284877                0.17924391                0.31487494               -0.41875539
              23.43182515                7.97312222               92.82165238                0.00010000               -0.20708362                0.92590817                0.10165588                0.66679860                0.46736770                2.03783859
              24.42976639                7.42424070               92.42326929                0.00010000               -0.20284024                0.96451920                0.11491028               -0.08798464                0.44298611                1.93384056
              25.42776835                6.87617049               92.02564157                0.00010000               -0.18709657                0.44122298                0.10688832               -1.14994801                0.53230857               -0.56924037
              26.42602445                6.32868373               91.62917785                0.00010000               -0.14896490               -0.54478230                0.06329919               -2.04684297                0.64178533               -5.19835442
              27.42478905                5.78156225               91.23362757                0.00010000               -0.08935370               -1.93235812               -0.01606142               -2.35995518                0.70007524              -11.53040476
              28.42423738                5.23456949               90.83814872                0.00010000               -0.02014808               -3.71342811               -0.12250309               -1.58430875                0.65587360              -18.89495050
              29.42438609                4.68758073               90.44165516                0.00010000                0.04303378               -5.83368580               -0.23569183                1.00710740                0.44506375              -26.15853479
              30.42509806                4.14056870               90.04218417                0.36176788                0.07119709               -9.30950981               -0.30681973                6.55988169                0.26850954              -31.75624535
              20.98798969               10.62795119               93.88676818                1.00000000               -0.03954823                0.11252590                0.01556615                0.01748263                0.01206709                0.67521315
              21.98759421               10.07456984               93.48043305                0.92636439               -0.00593774               -0.00509194                0.02420224                0.03303557                0.00847959                0.03935528
              22.98787093                9.52109307               93.07423318                0.00010000                0.31636319               -0.13316123                0.01454482                1.25972815                2.94793295               -0.66997770
              23.99392147                8.99140014               92.72653446                0.00010000               -0.57609453                1.13655155                3.08038077                2.14274895                4.80976419                4.44802466
              24.97634904                8.44337822               92.32760429                0.00010000               -2.07910961                1.25527194                4.02534735               -0.08013857                0.39208521                4.10138417
              25.95233928                7.88479452               91.88143250                0.00010000               -2.21041744                0.42968914                3.38564208               -2.32289347               -3.83619555               -0.90576678
              26.93214070                7.31749531               91.39378069                0.00010000               -1.39826490               -1.12755538                1.42946217               -4.16397535               -7.51480252               -9.99656134
              27.92437398                6.74248597               90.87303403                0.00010000                0.35821542               -3.34761913               -1.75349042               -5.02802016              -10.23320163              -22.37249724
              28.93930500                6.15971347               90.33195467                0.00010000                3.35090795               -6.23754108               -6.10059166               -4.19253358              -11.08811601              -36.89512845
              29.99139214                5.57015864               89.79154026                0.00010000                8.19265692               -9.95635734              -11.23605207               -1.93672172               -8.43950695              -51.79252335
              31.10315814                4.95348453               89.28273759                0.36226148               11.17660023              -14.02749624              -16.06129625                2.84899493               -3.36651056              -65.65433291
              21.54231640               11.62910201               93.74828379                1.00000000               -0.01855477                0.10034764               -0.01505069                0.02187544               -0.00177316                0.63682247
              22.54213085               11.07441470               93.33847025                0.89580886               -0.00220362               -0.01172870                0.01567303                0.03860760               -0.00302652               -0.03180027
              23.54227233               10.51977545               92.92875565                0.00010000                0.51320594               -0.11658611                0.04689774                1.56316909                4.41778564               -0.70797328
              24.55239497                9.99585325               92.60729817                0.00010000               -0.37515471                0.00539815                4.88621973                2.49085505                7.10271349                3.10754938
              25.53476923                9.44934614               92.20212592                0.00010000               -2.26007881               -0.03804311                6.41161287                0.68863701                0.35495024                2.53597336
              26.50719339                8.88476427               91.71374969                0.00010000               -2.48578646               -0.45599338                5.19523364               -0.85542697               -6.40727244               -2.02337303
              27.48505350                8.30613262               91.15149854                0.00010000               -1.25914561               -1.17311768                1.68052687               -2.01493634              -12.25518655               -9.95705777
              28.48201048                7.71460986               90.53098612                0.00010000                1.38302684               -2.19034245               -3.93985020               -2.69265288              -16.31069074              -20.63152307
              29.51271404                7.10981867               89.87659466                0.00010000                5.49350520               -3.55833159              -11.48174035               -2.87698424              -17.03558184              -33.25255170
              30.59188059                6.48845359               89.22622025                0.00010000               10.13560581               -5.25242422              -20.28819012               -2.25336533              -11.84466215              -46.91751131
              31.71542616                5.86001877               88.63855518                0.36241753               12.35455705               -5.67208001              -28.56584244               -1.31645881               -5.31744065              -60.04717508
              22.09780183               12.62995814               93.60930646                1.00000000               -0.01089100                0.07151918               -0.03354517                0.02123040               -0.00514789                0.59623401
              23.09769292               12.07433527               93.19612190                0.89375646               -0.00530340               -0.00561618                0.01810201                0.03110926               -0.01135742               -0.05753836
              24.09769576               11.51876134               92.78291171                0.00010000                0.82374789               -0.08315202                0.07494743                1.43641451                5.35792458               -0.71400329
              25.11416788               10.99150810               92.47703675                0.00010000                0.17574989               -0.78523511                6.07575361                2.42954749                8.63091236                2.06430084
              26.10121076               10.44261736               92.06230109                0.00010000               -1.78618107               -1.17538413                7.86079016                1.00415844                0.33973306                1.25851865
              27.07844426                9.87567465               91.53799206                0.00010000               -1.96071938               -1.28589503                6.10412781               -0.05246966               -7.86868758               -2.72770811
              28.06199637                9.29403295               90.91565956                0.00010000               -0.58046912               -1.18894384                1.33780887               -0.84359763              -14.88188111               -9.42357898
              29.06683488                8.69867912               90.21646022                0.00010000                2.29626103               -0.94311184               -6.16511470               -1.54320013              -19.55662161              -18.37500946
              30.10792160                8.08854684               89.47326591                0.00010000                6.46449257               -0.57769746              -16.13928870               -2.14031483              -20.04178627              -29.12922964
              31.19612473                7.46511015               88.73626567                0.00010000               11.28884994                0.15325642              -27.77097246               -2.13054877              -13.73954484              -41.05575937
              32.33369859                6.84004293               88.07651365                0.36243403               13.75738662                1.19988269              -39.19364113               -1.08905207               -6.30492036              -53.19708177
              22.65398675               13.63053240               93.47003362                1.00000000               -0.00369159                0.04632647               -0.04575819                0.01592521               -0.00470375                0.56441282
              23.65394983               13.07430237               93.05359575                0.89231488               -0.00794823               -0.00265385                0.02199936                0.02437996               -0.00929659               -0.06901987
              24.65382778               12.51811241               92.63713418                0.00010000                1.15900339               -0.05294369                0.09521409                0.92799997                6.05127489               -0.69567725
              25.67712990               11.98014855               92.34182736                0.00010000                0.84290324               -1.41593750                6.86402425                1.64211654                9.81463188                1.05552763
              26.67068585               11.42583846               91.91828997                0.00010000               -1.12007455               -2.07073983                8.76273355                0.80047145                0.49604168                0.09895376
              27.65472841               10.85904637               91.36530731                0.00010000               -1.27543810               -1.93229687                6.55054947                0.27514909               -8.60984725               -3.20833329
              28.64517709               10.28235374               90.69625623                0.00010000                0.09520925               -1.08251134                0.82179221               -0.16647105              -16.30626971               -8.53590452
              29.65663259                9.69574763               89.93624184                0.00010000                2.91498109                0.34696783               -8.10773468               -0.73720053              -21.34295859              -15.62953035
              30.70347671                9.09826472               89.12426593                0.00010000                7.05704593                2.29033105              -19.92706258               -1.35102189              -21.77242016              -24.20986814
              31.79777351                8.49151872               88.31804860                0.00010000               12.01514191                4.67336827              -33.78660904               -1.41683640              -14.85368211              -33.86703208
              32.94377955                7.88401643               87.59732535                0.36295660               14.60060342                7.11559708              -47.76773774               -0.79879440               -6.90817243              -43.83091629
              23.21058039               14.63088467               93.33053490                1.00000000                0.00201240                0.02909627               -0.05650035                0.01010292               -0.00240869                0.53150851
              24.21060051               14.07428219               92.91097618                0.87902560               -0.00853974               -0.00207191                0.02337391                0.01672002               -0.00347625               -0.07491187
              25.21040959               13.51770247               92.49144427                0.00010000                1.43418263               -0.03527641                0.10904244                0.11722152                6.70841168               -0.68016099
              26.23928416               12.96318935               92.20603803                0.00010000                1.39563885               -1.92652552                7.41470518                0.30190941               10.99487432                0.11251589
              27.23832237               12.40120257               91.77769575                0.00010000               -0.59261036               -2.78818926                9.40940177                0.20787566                0.95430298               -0.91357459
              28.22743196               11.83702872               91.20467261                0.00010000               -0.81783359               -2.39248957                6.89561695                0.36570186               -8.81007235               -3.42048087
              29.22196570               11.27238273               90.50158067                0.00010000                0.43739685               -0.86853487                0.49202223                0.33093342              -17.05782619               -7.26463570
              30.23617989               10.70561847               89.69641925                0.00010000                3.15821865                1.52691806               -9.46603689               -0.02780445              -22.46116974              -12.35097796
              31.28513007               10.13435346               88.83280344                0.00010000                7.29282001                4.61973347              -22.63998516               -0.51824141              -22.94345982              -18.52215973
              32.38203629                9.55857752               87.97427325                0.00010000               12.37986074                8.21579882              -38.14767270               -0.69859763              -15.63983351              -25.40630368
              33.53272728                8.98235488               87.20709471                0.36318322               15.06909919               11.89583103              -54.00923243               -0.45368548               -7.34123087              -32.38166108
              23.76739376               15.63111432               93.19078363                1.00000000                0.00726710                0.02240445               -0.06930531                0.00373228                0.00538491                0.48487809
              24.76746643               15.07426093               92.76829809                0.88013476               -0.00643534               -0.00171722                0.01881157                0.00866690               -0.00041099               -0.08273233
              25.76726506               14.51740688               92.34573259                0.00010000                1.61007797               -0.02852063                0.11329010               -0.93673760                7.56194441               -0.59533796
              26.79966799               13.94161804               92.07438889                0.00010000                1.68694713               -2.45245409                7.90405640               -1.41723165               12.57805050               -0.60449390
              27.80100400               13.37007467               91.64816303                0.00010000               -0.44028530               -3.47753725               10.10043500               -0.41185797                1.89973863               -1.54718164
              28.79086229               12.81119658               91.06476682                0.00010000               -0.88989998               -2.67628771                7.49350493                0.41498640               -8.53420183               -3.19593369
              29.78320600               12.26498305               90.33920980                0.00010000                0.16217434               -0.60021866                0.68499535                0.69899268              -17.50322344               -5.49409584
              30.79410577               11.72628599               89.50223565                0.00010000                2.84734198                2.45822119               -9.95869528                0.49115440              -23.43656808               -8.57484471
              31.84015284               11.19065939               88.60155821                0.00010000                7.08471848                6.28738121              -24.06113893                0.09805828              -24.07029149              -12.33961194
              32.93580014               10.65583469               87.70652672                0.00010000               12.34991402               10.66136329              -40.67853167               -0.15316130              -16.40220349              -16.36584424
              34.08715112               10.12193305               86.90948367                0.36312188               15.13509752               15.25669275              -57.75439312               -0.21974510               -7.79184971              -19.89554016
              24.32436181               16.63133276               93.05055367                1.00000000                0.01194816                0.02462028               -0.08453560               -0.00091653                0.03432581                0.36735229
              25.32448129               16.07424785               92.62548885                0.71347820               -0.00220346               -0.00006259                0.00515832                0.00222589                0.08544195               -0.10624585
              26.32431774               15.51713206               92.20148159                0.00010000                1.68952241               -0.02701672                0.10362143               -2.28803168                8.96033566               -0.47280428
              27.35827174               14.91414027               91.95379226                0.00010000                1.80944640               -3.63726232                8.61225077               -2.26847474               15.06432125               -0.54215873
              28.36050667               14.33165182               91.54038580                0.00010000               -0.87242139               -3.96245396               11.28442069               -0.61357527                3.74449934               -1.53116975
              29.34082331               13.78350296               90.95514135                0.00010000               -1.98252631               -2.76321231                8.76173355                0.42751520               -7.98122979               -2.18337656
              30.32085614               13.26037835               90.21652036                0.00010000               -1.02483351               -0.36672623                1.75602211                0.66788844              -18.10345286               -3.09659586
              31.32032664               12.75478290               89.35770554                0.00010000                1.83431958                3.01241392               -9.32109447                0.52961959              -24.89179012               -4.41537900
              32.35754253               12.26010108               88.43029321                0.00010000                6.36863838                7.19774799              -24.03441135                0.25244723              -25.84821539               -6.08548174
              33.44769941               11.77180478               87.51013601                0.00010000               11.92965698               11.94594734              -41.34430293                0.04746573              -17.62969498               -7.77832364
              34.59613567               11.28748873               86.70003383                0.36354854               14.84362641               17.06032617              -59.02323001               -0.17838825               -8.52662058               -8.29891144
              24.88154525               17.63160673               92.90862961                1.00000000                0.01663993                0.02739692               -0.09861394               -0.01635989                0.18380768                0.27498983
              25.88171165               17.07425968               92.48229900                0.79762765                0.00333735                0.00118347               -0.01173175               -0.01397266                0.28320745               -0.12253862
              26.88161200               16.51686655               92.05799141                0.36063526                2.90335409               -0.02655106                0.09146807               -4.53991843               11.85838724               -0.42609606
              27.93977873               15.86887279               91.86298575                0.36077834                1.88789002               -4.52674808               10.36905293               -3.15134788               20.95968713               -2.39068576
              28.91936980               15.29082559               91.46844203                0.36076802               -3.45463376               -4.08262270               13.64105732                0.23929064                6.30550595               -2.72329412
              29.87068606               14.75593233               90.88729294                0.36086285               -4.70429843               -2.75706300               11.26830782                1.32742143               -7.80207765               -2.69234511
              30.82528383               14.25764852               90.14039966                0.36089684               -3.28553116               -0.27298304                4.10369271                1.97286600              -19.69825524               -2.63471045
              31.80497544               13.78653427               89.26488135                0.36033460                0.14480329                3.17513696               -7.30468888                2.31317098              -27.66060716               -2.67471948
              32.82817990               13.33461435               88.31570079                0.36121670                5.21931870                7.45132654              -22.45932039                2.47470528              -29.30340879               -2.73296922
              33.90936181               12.89475364               87.37214392                0.36216432               11.20177791               12.29488567              -40.28407418                2.59250150              -20.74146280               -2.62345821
              35.05221546               12.46313957               86.55237933                0.68166057               14.28536460               17.56508403              -58.26748818                2.44657178              -11.15047349               -0.84818401
              19.72998373                7.77125503               95.30570527                1.00000000               -0.02519481               -0.01292420                0.14270739               -0.03419863               -0.34906134                0.34496214
              20.72973178                7.21681494               94.90442566                1.00000000               -0.00229044               -0.03434053                0.11781032               -0.04258055               -0.45727640                0.05295956
              21.72993792                6.66269413               94.50093506                0.94810416                0.02796589               -0.06820022                0.12896323               -0.01843486               -0.51152413               -0.05552132
              22.73029110                6.10980543               94.09821526                0.74240770                0.04520327               -0.04505751                0.11560531                0.06681713               -0.48532830               -0.16882809
              23.73084199                5.55880448               93.69460690                0.74780280                0.02042267               -0.02470719                0.13684762                0.05499120               -0.36642676               -0.07748969
              24.73069956                5.00883038               93.29305078                0.75153071               -0.02900667               -0.00594889                0.10719063                0.04555322               -0.13417523               -0.05402371
              25.73026186                4.45959200               92.89303706                0.76050068               -0.04427796                0.01683098                0.04743154                0.04435157                0.04308244               -0.04311245
              26.72981400                3.91086641               92.49422521                0.78551213               -0.02828517                0.03577807               -0.03163299                0.04389636                0.14237413               -0.04459134
              27.72969615                3.36244652               92.09575820                0.87589055                0.01012307                0.04418728               -0.11122459                0.02757265                0.09393122               -0.05176612
              28.73001646                2.81405554               91.69584656                1.00000000                0.03935418                0.04857423               -0.15303272                0.00619764               -0.00741088               -0.02565878
              29.73048324                2.26562334               91.29540355                1.00000000                0.04667782                0.05447871               -0.18404936                0.00248517               -0.04571805               -0.10128621
              20.28408184                8.77112579               95.16429015                1.00000000               -0.04954120                0.02746888                0.12094501               -0.03967077               -0.07214866                0.47943246
              21.28358643                8.21647153               94.76296540                1.00000000               -0.04117563               -0.01908473                0.09468556               -0.05324254               -0.09855413                0.07611704
              22.28325833                7.66201213               94.36118642                1.00000000               -0.03411634               -0.06403215                0.09318823               -0.00298092               -0.09485664               -0.13352893
              23.28290410                7.10935486               93.95983024                1.00000000               -0.06894515               -0.00012280                0.09476271                0.04414751               -0.02559524               -0.11533253
              24.28187942                6.55855740               93.55917984                1.00000000               -0.10713867                0.00549337                0.10148213                0.04828324                0.08106996               -0.05520522
              25.28076133                6.00877090               93.15962757                1.00000000               -0.10960332                0.01711509                0.07521446                0.04312603                0.21436661               -0.03870074
              26.27968736                5.45976031               92.76122173                1.00000000               -0.09678162                0.03100010                0.02741345                0.04341827                0.33336772               -0.03155695
              27.27882570                4.91122419               92.36367669                1.00000000               -0.06550211                0.04296187               -0.03479854                0.04065516                0.39417114               -0.03356271
              28.27837732                4.36288840               91.96628748                1.00000000               -0.01678354                0.04849850               -0.10806250                0.02740541                0.33686125               -0.04635925
              29.27849002                3.81454128               91.56767493                1.00000000                0.02814823                0.05203116               -0.15826303                0.00958307                0.17909646               -0.03293854
              30.27894028                3.26616813               91.16745570                1.00000000                0.04502560                0.05586684               -0.19010362                0.00690629                0.07842968               -0.11699360
              20.83849883                9.77180441               95.02555597                1.00000000               -0.07182392                0.09475757                0.07929282               -0.02060847               -0.01475393                0.63568980
              21.83778059                9.21643324               94.62195897                1.00000000               -0.07519258                0.00277189                0.06149115               -0.00223635                0.05008069                0.08893039
              22.83699498                8.66141349               94.21987305                0.00010000               -0.15759073               -0.10881928                0.05481660                0.21922382                0.35163951               -0.42733631
              23.83462878                8.10980298               93.82245302                0.00010000               -0.23016826                1.85619066                0.06179850                1.71161954                0.51375434                3.78557905
              24.83239162                7.55891434               93.42412624                0.00010000               -0.21348015                2.00924151                0.06035690                1.38756361                0.48065689                4.20878870
              25.83035917                7.00917269               93.02638207                0.00010000               -0.18573450                1.31601234                0.04491844                0.58769115                0.54816357                1.37561230
              26.82867693                6.46021200               92.62952466                0.00010000               -0.14300835               -0.03728752                0.01026151               -0.17240062                0.62548796               -4.27352200
              27.82749901                5.91172565               92.23332003                0.00010000               -0.08748758               -1.98443947               -0.03829905               -0.46621184                0.65096317              -12.28718310
              28.82692717                5.36341649               91.83700096                0.00010000               -0.02853109               -4.59908319               -0.09764920                0.35674425                0.58064579              -22.01625964
              29.82692839                4.81509616               91.43963144                0.00010000                0.02202425               -7.95086382               -0.16534513                3.47153515                0.37952024              -32.19283248
              30.82736766                4.26674068               91.03971588                0.36061543                0.04392722              -14.11892104               -0.19626819               11.01370532                0.22459005              -40.64224075
              21.39441200               10.77302094               94.88706849                1.00000000               -0.04793826                0.12123312                0.03899718                0.02441384                0.01165544                0.64360281
              22.39393262               10.21652697               94.48069667                0.97344197               -0.00694662               -0.00283639                0.02797240                0.03860778                0.00327808                0.03991824
              23.39427307                9.65983574               94.07428852                0.00010000                1.28515086               -0.14270389                0.00278492                2.24310959                4.69823780               -0.64310095
              24.41963564                9.14647867               93.76171003                0.00010000                0.79939577                2.30474318                3.97986859                4.90281933                8.20985644                8.00770887
              25.41026099                8.59874224               93.37359558                0.00010000               -1.42090703                2.67862892                5.13555905                2.76065240                2.59363619                8.61121715
              26.39121750                8.03509114               92.92085579                0.00010000               -1.82873011                1.58613421                4.44518622                0.93143791               -2.33730347                2.90420780
              27.37368638                7.45901456               92.41255698                0.00010000               -1.24602674               -0.55344031                2.36178473               -0.64812930               -6.70084168               -8.17275613
              28.36629696                6.87153540               91.85758490                0.00010000                0.42276529               -3.67569225               -1.15544772               -1.54417290              -10.49788568              -23.77385959
              29.38214169                6.27090673               91.26825990                0.00010000                3.91497901               -7.92881454               -6.41489139               -0.93622326              -12.71867344              -42.88039422
              30.44459654                5.65552400               90.66863611                0.00010000               10.68918282              -13.84548351              -13.35301303                0.45898689              -10.69490399              -63.69144305
              31.59592535                4.98378971               90.10188365                0.36019049               15.13288038              -21.29860483              -20.64337878                5.66628582               -4.57789477              -85.22690846
              21.95197505               11.77422907               94.74826737                1.00000000               -0.02371061                0.10271326                0.00775622                0.02907028               -0.00061546                0.61466728
              22.95173794               11.21637652               94.33863611                0.93300722               -0.00347892               -0.01076616                0.01699592                0.04730097                0.00066027               -0.01400446
              23.95190547               10.65855941               93.92911247                0.00010000                2.10203651               -0.11083136                0.02577794                2.79183445                7.18429584               -0.64140521
              24.99377867               10.15589784               93.66309165                0.00010000                2.35433594                0.10152777                6.27104709                5.21985126               12.56501868                5.79785606
              25.99899219                9.61248692               93.27538991                0.00010000               -0.25315310                0.14105309                8.11992946                3.40580632                4.28268072                5.91804744
              26.98871561                9.04089537               92.77438134                0.00010000               -0.98610555               -0.42630832                6.77134289                2.37333119               -3.39519195                0.68050983
              27.97927008                8.44914319               92.17481703                0.00010000               -0.19961203               -1.44378592                2.95631845                1.73227109              -10.13498944               -8.95706974
              28.98472337                7.83821180               91.49361450                0.00010000                2.24720144               -2.93291040               -3.34123747                1.21835992              -15.62471717              -22.32360125
              30.02421411                7.20484020               90.75538864                0.00010000                6.92508882               -5.04661153              -12.49689317                0.53882302              -18.11896599              -38.77550064
              31.12322515                6.53818649               90.00354970                0.00010000               12.99739260               -7.88813984              -24.32797348               -0.21869086              -13.54306606              -57.76513642
              32.28416196                5.84076858               89.31636246                0.36105134               16.09368122               -8.91536396              -36.78566445               -0.49726834               -6.27545285              -78.15883187
              22.51069852               12.77507521               94.60909701                1.00000000               -0.01502220                0.06845225               -0.01176107                0.02805269               -0.00232257                0.58399688
              23.51054830               12.21631165               94.19630260                0.91646033               -0.00550430               -0.00453454                0.01797217                0.04020872               -0.00457455               -0.03543145
              24.51058844               11.65761912               93.78352777                0.00010000                2.97784264               -0.07557176                0.05167041                2.51039155                8.77209323               -0.65758081
              25.57010515               11.14850923               93.54618500                0.00010000                4.13955730               -1.38080156                7.70632162                4.79713404               15.46380442                4.00502530
              26.59337958               10.60156330               93.15180199                0.00010000                1.59613497               -2.05556658                9.82182425                3.32150945                5.47162226                3.61014032
              27.60202785               10.02656498               92.60903510                0.00010000                0.88178960               -2.28309636                7.82932791                2.76851214               -3.62504080               -0.98273851
              28.61101537                9.43013884               91.93591696                0.00010000                1.64696486               -2.23082224                2.59027848                2.51090440              -11.49007308               -9.07171655
              29.63496715                8.81287719               91.15558441                0.00010000                4.09640454               -2.00960957               -5.87491138                1.91722523              -17.64360823              -20.20692053
              30.69294346                8.16997450               90.30161054                0.00010000                8.46635984               -1.67578760              -17.96657595                0.68698894              -20.03245464              -34.15076822
              31.80429435                7.49776121               89.43091590                0.00010000               14.39361636               -0.78954739              -33.45760924               -0.72145342              -14.72277362              -50.63163121
              32.98081579                6.80548243               88.63414867                0.36093139               17.65214458                0.91695947              -50.45120860               -0.48088041               -6.89400890              -69.13129330
              23.07006322               13.77559812               94.46969759                1.00000000               -0.00650154                0.03960953               -0.02448671                0.02106761               -0.00105877                0.55758835
              24.06999821               13.21628582               94.05380801                0.90150943               -0.00737493               -0.00199598                0.02070774                0.03233538               -0.00172306               -0.04978668
              25.06991572               12.65704798               93.63794657                0.00010000                3.78894844               -0.04395305                0.07073379                1.55001355                9.87941470               -0.65095263
              26.14577718               12.12828181               93.41959658                0.00010000                5.87254525               -2.53268917                8.59249724                3.13381077               17.54866598                2.25880314
              27.18736663               11.57137559               93.01756792                0.00010000                3.48665695               -3.77857166               10.78926215                2.43591316                6.45336371                1.47698146
              28.21551031               10.99523344               92.44116861                0.00010000                2.79046603               -3.77455438                8.25107604                2.47687863               -3.46342789               -2.32547224
              29.24317595               10.40452675               91.71096027                0.00010000                3.38609481               -2.73641307                1.91361690                2.54129935              -11.92245527               -8.70299652
              30.28323221                9.79801961               90.85434329                0.00010000                5.49469633               -0.89585654               -8.19711246                2.01355727              -18.42924803              -17.47013916
              31.35306988                9.17132445               89.91124871                0.00010000                9.50279709                1.69152059              -22.49480313                0.78922468              -20.91094228              -28.54595640
              32.47328815                8.52239554               88.94613022                0.00010000               15.30160132                5.06780579              -40.80473270               -0.38603222              -15.33094674              -41.80039320
              33.65910190                7.85910777               88.05841715                0.36134312               18.58137500                8.95012736              -61.28918181               -0.37483537               -7.26614936              -56.64816825
              23.62974446               14.77586740               94.33008749                1.00000000                0.00006885                0.02025567               -0.03578675                0.01341381                0.00226196                0.52603331
              24.62974515               14.21627173               93.91119567                0.87113720               -0.00758679               -0.00128189                0.02109039                0.02273084                0.00535387               -0.06206838
              25.62959272               13.65674006               93.49239429                0.00010000                4.43543035               -0.02446355                0.08535080                0.05469837               10.81463629               -0.64832595
              26.71845375               13.09785544               93.28961163                0.00010000                7.27767436               -3.48515992                9.15793582                0.54819229               19.35064618                0.61861883
              27.77514621               12.52599186               92.88369574                0.00010000                4.99802572               -5.18451279               11.41992045                0.97710618                7.52080130               -0.43353481
              28.81841427               11.95107389               92.28398846                0.00010000                4.19544913               -4.89498191                8.52993883                1.93161218               -2.99249451               -3.28645274
              29.85905519               11.37541058               91.51251320                0.00010000                4.50131609               -2.94500744                1.43528314                2.42260044              -11.96472160               -7.81595673
              30.90844059               10.79496006               90.59965270                0.00010000                6.26484180                0.22903939               -9.84858339                2.08694097              -18.88122349              -14.04037581
              31.98435203               10.20380491               89.59007314                0.00010000               10.01748953                4.44254406              -25.74447206                1.09848790              -21.56417576              -21.96412393
              33.10879038                9.59911732               88.55417425                0.00010000               15.77712967                9.56471053              -46.08850882                0.08383572              -15.85032868              -31.36443874
              34.29989462                8.98448498               87.59835348                0.36125576               19.11042413               15.15900008              -69.01553399               -0.12622942               -7.58809997              -41.66812181
              24.18952284               15.77600323               94.19020334                1.00000000                0.00573264                0.01361155               -0.04923243                0.00515067                0.01034214                0.47896997
              25.18958016               15.21626019               93.76846122                0.85698832               -0.00484305               -0.00044472                0.01457125                0.01229165                0.00888713               -0.07910510
              26.18942598               14.65655871               93.34671319                0.00010000                4.89545255               -0.01796215                0.08803612               -1.89738531               11.91355908               -0.57898012
              27.28748921               14.05857861               93.16297662                0.00010000                8.21321650               -4.52484341                9.63237721               -2.69805864               21.48989802               -0.68835378
              28.35369031               13.46768534               92.76125473                0.00010000                5.86173159               -6.54643166               12.09485949               -0.40703753                9.03612627               -1.77908052
              29.40472385               12.89733381               92.15022034                0.00010000                4.70257386               -5.62645424                9.11193271                1.48258874               -2.14185512               -3.60968040
              30.44774178               12.34562660               91.35202334                0.00010000                4.59264225               -2.89874434                1.58370020                2.28341172              -11.91234938               -6.22415255
              31.49657669               11.80260040               90.40004393                0.00010000                6.15702966                1.18550598              -10.45868652                2.06920536              -19.47061907               -9.93078532
              32.57088238               11.26017533               89.34334528                0.00010000                9.88540566                6.41398200              -27.41889247                1.29858057              -22.43974431              -14.72941125
              33.69428480               10.71368975               88.25865948                0.00010000               15.74798126               12.60762376              -49.09085344                0.45600799              -16.50147588              -20.22966378
              34.88584200               10.16228777               87.25914876                0.36147253               19.15571974               19.40766861              -73.55098467                0.02734148               -8.00048952              -25.63137028
              24.74933356               16.77613963               94.04981808                1.00000000                0.01019453                0.01693127               -0.06436371               -0.00063923                0.03508941                0.36297166
              25.74943550               16.21626283               93.62549923                0.68796665               -0.00034829                0.00180838               -0.00207281                0.00360740                0.09259944               -0.10929880
              26.74932659               15.65638081               93.20236079                0.00010000                5.19652239               -0.01914309                0.07728513               -4.44649927               13.68647036               -0.46692961
              27.85336595               15.00735857               93.04981315                0.00010000                8.94618354               -6.82082271               10.37401229               -4.35166506               24.74743538               -0.80840550
              28.92825026               14.39506323               92.66606904                0.00010000                5.83794141               -7.44526197               13.38294264               -0.95770610               11.65227956               -2.08461141
              29.97012478               13.83854480               92.05415673                0.00010000                3.56032845               -5.87231282               10.51178310                1.11152040               -1.09349904               -2.71065281
              30.99945683               13.31743569               91.24089652                0.00010000                3.25755914               -2.69586729                2.79237609                1.64315223              -12.24826329               -3.66547352
              32.03527596               12.81867018               90.26256558                0.00010000                4.98887274                1.80309912               -9.69967643                1.46491550              -20.84418749               -5.21083771
              33.09923429               12.33208455               89.17267072                0.00010000                9.02610682                7.49176175              -27.31482707                0.95703761              -24.25825505               -7.32356781
              34.21579810               11.85126980               88.05536182                0.00010000               15.20055597               14.16928223              -49.76738626                0.42040749              -17.78523634               -9.64525233
              35.40324541               11.37263835               87.03593321                0.36149862               18.74473080               21.67108448              -74.98130298               -0.06490190               -8.77739658              -10.80487161
              25.30926364               17.77634186               93.90775947                1.00000000                0.01474832                0.02022278               -0.07634378               -0.01154173                0.17864592                0.27266870
              26.30941113               17.21629635               93.48213450                0.78487804                0.00683037                0.00335214               -0.01944298               -0.01073837                0.28897919               -0.12766727
              27.30940025               16.65617584               93.05875499                0.36012308                7.61811854               -0.02049695                0.06667835               -8.69934419               17.57243480               -0.42595792
              28.46177350               15.92216216               92.97859765                0.36063475                9.69748523               -8.51964181               12.52767877               -6.02903291               32.77200105               -3.55987110
              29.50334995               15.31878010               92.62017028                0.36106184                2.14041496               -7.62831346               16.20089439                0.39623876               15.04727926               -3.88108753
              30.50458180               14.77988755               92.01385645                0.36066371               -0.14352529               -5.86572546               13.46100465                2.09215942               -0.78331736               -3.68467626
              31.50047945               14.29170925               91.19060868                0.36056019                0.33221700               -2.57264366                5.56173051                3.04100328              -14.07163329               -3.50897797
              32.51122614               13.83866238               90.19217886                0.36015459                2.84720334                1.99921990               -7.25002199                3.51008309              -24.01948132               -3.53782375
              33.55742352               13.41001057               89.07601230                0.35981799                7.54565119                7.79260132              -25.28448628                3.73957356              -28.26178492               -3.64924809
              34.66213916               12.99707540               87.92992794                0.36074885               14.21916710               14.58056003              -48.26527447                3.91905087              -21.45135032               -3.58581099
              35.84180686               12.59570946               86.89748951                0.68084181               17.96676981               22.30711143              -73.83486556                3.71955180              -11.91205346               -1.54255529
              20.12810227                7.91610456               96.30718329                1.00000000               -0.02112923               -0.01028763                0.14371244               -0.03900463               -0.30863425                0.31859950
              21.12789098                7.35889484               95.90557149                1.00000000                0.00855474               -0.03277543                0.10652127               -0.05007382               -0.39673587                0.04647995
              22.12827336                6.80206981               95.50205665                0.97853287                0.05082352               -0.06627667                0.09741091               -0.02152905               -0.43802524               -0.04891211
              23.12890745                6.24675146               95.09921015                0.78183386                0.08436038               -0.04138899                0.08380754                0.07779294               -0.41080824               -0.13586779
              24.12996057                5.69367615               94.69575414                0.76745868                0.06761373               -0.02117568                0.10086422                0.05814276               -0.32784363               -0.06724830
              25.13025972                5.14187329               94.29389990                0.74888930                0.01024637               -0.00085360                0.07404315                0.04624953               -0.14917001               -0.05406060
              26.13016550                4.59106718               93.89335557                0.73095661               -0.01833529                0.02050398                0.02926843                0.04912005               -0.00566301               -0.04716688
              27.12989302                4.04101159               93.49386369                0.72529508               -0.01734246                0.03554587               -0.03227599                0.05486070                0.07187589               -0.04232748
              28.12981865                3.49139740               93.09463673                0.77234518                0.01201300                0.04146925               -0.10802150                0.04187177                0.03533981               -0.04469863
              29.13013328                2.94198904               92.69449786                0.85301207                0.03872640                0.03996551               -0.15435135                0.01672045               -0.03334286               -0.04373104
              30.13059318                2.39267253               92.29399081                0.98822122                0.04599019                0.03499972               -0.17774843                0.00338107               -0.04035762               -0.12896495
              20.68492194                8.91600169               96.16557262                1.00000000               -0.05143290                0.03411938                0.12761778               -0.04342445               -0.05347007                0.44709579
              21.68440761                8.35856709               95.76389415                1.00000000               -0.03960881               -0.01654823                0.08799496               -0.05945331               -0.06385481                0.06685211
              22.68412977                7.80140705               95.36200920                1.00000000               -0.02627025               -0.06399834                0.07254976               -0.00280411               -0.04433041               -0.12842166
              23.68388221                7.24633757               94.96062268                1.00000000               -0.05743423                0.01012760                0.06630186                0.04984741                0.02511069               -0.09019949
              24.68298108                6.69346439               94.55996568                1.00000000               -0.09277518                0.01622911                0.06220930                0.05085435                0.10965695               -0.04699540
              25.68202670                6.14186476               94.16012759                1.00000000               -0.09467658                0.02906096                0.03207385                0.04406496                0.20913315               -0.03930976
              26.68108755                5.59127221               93.76129596                1.00000000               -0.08750959                0.04054298               -0.00190843                0.04665260                0.29859604               -0.03575090
              27.68027651                5.04136705               93.36327412                1.00000000               -0.06694537                0.04493912               -0.03492190                0.04894341                0.32585689               -0.03319827
              28.67974864                4.49181209               92.96530175                1.00000000               -0.03068008                0.04372419               -0.08000981                0.03709406                0.26415743               -0.03556941
              29.67966291                3.94238870               92.56634465                1.00000000                0.00974275                0.03869347               -0.11669692                0.01693667                0.13522046               -0.03664386
              30.67994350                3.39302253               92.16598624                0.97115804                0.02805862                0.03117019               -0.13663796                0.00477355                0.05928252               -0.11408598
              21.24210297                9.91678695               96.02643323                1.00000000               -0.08064246                0.10550805                0.08981382               -0.02008255               -0.00421383                0.59510175
              22.24129655                9.35856388               95.62257732                1.00000000               -0.08280860                0.00619918                0.06037563                0.00175078                0.06968136                0.07563235
              23.24044680                8.80078985               95.22034086                0.00010000               -0.17247507               -0.12077073                0.04081425                0.25413462                0.38345219               -0.43078146
              24.23784705                8.24695401               94.82288835                0.00010000               -0.24981669                3.22890590                0.03133131                3.40701108                0.55268863                6.01550396
              25.23545047                7.69400073               94.42447643                0.00010000               -0.22569247                3.54372522                0.01643178                4.07977164                0.51278800                7.05143362
              26.23333320                7.14245451               94.02653993                0.00010000               -0.19271061                2.65073276               -0.00845989                4.12412020                0.56199756                3.86020750
              27.23159626                6.59187803               93.62938308                0.00010000               -0.15005941                0.87377982               -0.03012224                3.98815339                0.61191400               -2.83193270
              28.23033201                6.04191038               93.23286159                0.00010000               -0.10286863               -1.73263757               -0.04126168                3.94153408                0.59818460              -12.64073046
              29.22953888                5.49227188               92.83619574                0.00010000               -0.05352225               -5.40470914               -0.05936187                4.74921096                0.49986996              -25.20097653
              30.22926157                4.94276291               92.43834826                0.00010000               -0.00589509              -10.49885917               -0.09219105                8.26157311                0.30697052              -39.33664371
              31.22942098                4.39329594               92.03825880                0.35903406                0.01594165              -21.03613739               -0.10738614               18.31138613                0.17676989              -52.15029904
              21.80096643               10.91811185               95.88754812                1.00000000               -0.05267020                0.12899446                0.05183397                0.03110420                0.01187171                0.60794972
              22.80043973               10.35869107               95.48099250                1.00000000               -0.00720535               -0.00175986                0.03093438                0.04410960                0.00071198                0.03507082
              23.80082233                9.79899163               95.07428888                0.00010000                2.91859058               -0.15408712                0.00281412                3.66402569                6.92498032               -0.61934909
              24.85881154                9.31091569               94.80613183                0.00010000                3.41268420                4.01906984                4.84174511                9.24590591               12.76020566               12.56207075
              25.86907601                8.76433890               94.43031547                0.00010000                0.39101311                4.77499727                5.92962204                7.88232076                6.11804841               14.22157260
              26.86663181                8.19487941               93.97033622                0.00010000               -0.38406283                3.38703240                5.09116416                7.54690746                1.23435149                7.73836411
              27.86139475                7.60874781               93.44101638                0.00010000               -0.39592282                0.58766062                3.16141374                7.16795898               -3.12101464               -5.36109332
              28.85871335                7.00671430               92.84992507                0.00010000                0.62427847               -3.58860276               -0.17601728                6.67913078               -7.96897380              -24.34578158
              29.87388032                6.38371791               92.20365685                0.00010000                4.25784825               -9.56569327               -6.02769966                6.82789268              -12.55206104              -48.81032684
              30.94387031                5.73241152               91.52448000                0.00010000               13.56124224              -18.59459222              -15.25264931                5.96828754              -12.66203119              -77.46787735
              32.14510517                4.97229978               90.86987002                0.35897211               20.12348541              -31.43594143              -26.48260637               10.73235677               -5.95290429             -110.75672236
              22.36156661               11.91936684               95.74843892                1.00000000               -0.02676508                0.10480033                0.02250649                0.03507277               -0.00005519                0.58857751
              23.36129896               11.35852868               95.33881017                0.96822933               -0.00319524               -0.01181681                0.01747291                0.05361032                0.00279551               -0.00443449
              24.36150270               10.79770810               94.92927121                0.00010000                4.80594720               -0.11080027                0.00883158                4.56198136               10.66051444               -0.59077599
              25.45741790               10.32733541               94.73271911                0.00010000                7.38152272                0.20939943                7.46872524                9.40753865               19.85110467                9.13068260
              26.50913316                9.78950068               94.36452451                0.00010000                4.12222669                0.41516324                9.15168696                8.07884254               10.53577086               10.01200460
              27.53986243                9.21019516               93.84917655                0.00010000                2.69936955               -0.28234012                7.49584416                8.46636182                3.23516945                4.02448831
              28.56312055                8.60363125               93.21062491                0.00010000                2.45410489               -1.61462139                3.79254326                9.20969993               -3.21173478               -7.34761509
              29.58894453                7.97013832               92.46416137                0.00010000                3.86394872               -3.64511884               -2.40685511                9.34412752               -9.96319666              -23.51388987
              30.64039952                7.30095801               91.62665679                0.00010000                8.55504529               -6.70232548              -12.68401255                7.93967223              -15.49794244              -44.30565927
              31.76004544                6.57087107               90.73966078                0.00010000               16.19460286              -11.12572535              -28.20083212                4.44399533              -13.55831413              -70.10797880
              32.96429158                5.76457711               89.90284189                0.35954654               20.42461417              -12.84687046              -47.04141176                1.58298908               -6.60822278             -101.14087322
              22.92334421               12.92020785               95.60907124                1.00000000               -0.01735319                0.06634227                0.00315475                0.03359448                0.00105946                0.56720184
              23.92317067               12.35845474               95.19648134                0.93588425               -0.00444883               -0.00575573                0.01708484                0.04676059                0.00232931               -0.02066228
              24.92325523               11.79677563               94.78394512                0.00010000                6.59995345               -0.07406340                0.03318807                4.03868721               12.99765044               -0.61039281
              26.05516974               11.31510367               94.63116319                0.00010000               11.22689394               -2.27187157                8.97583373                8.34652539               24.47262112                6.30705588
              27.14779311               10.77264216               94.25873757                0.00010000                8.33293650               -3.30081685               10.78216388                7.15884366               13.50179443                6.36486888
              28.22182847               10.18923261               93.69457861                0.00010000                6.89262429               -3.63058017                8.33543822                7.80091434                5.16905006                1.15911373
              29.28564559                9.57645538               92.96746513                0.00010000                6.32203301               -3.59668374                3.10682997                8.75060360               -2.06163922               -8.30103287
              30.34826913                8.93381192               92.09896199                0.00010000                7.31477134               -3.39308823               -5.42798137                8.60153353               -9.37789090              -21.65691121
              31.43194102                8.24967140               91.11393439                0.00010000               11.04309963               -3.10375134              -19.05401862                6.45782465              -14.99007481              -39.12825580
              32.56913113                7.50989701               90.06711349                0.00010000               17.87059237               -1.93092851              -39.06925899                2.48158385              -13.10538868              -61.20683255
              33.78935287                6.71536237               89.06748948                0.35974481               22.02217421                1.11355720              -64.12359425                1.02609223               -6.36041028              -88.41803064
              23.48574473               13.92069368               95.46954388                1.00000000               -0.00783364                0.03458682               -0.00963636                0.02524108                0.00332211                0.54623966
              24.48566640               13.35841357               95.05400990                0.90657692               -0.00586117               -0.00335591                0.01936690                0.03816327                0.00649062               -0.03690820
              25.48562751               12.79622684               94.63854886                0.00010000                8.14077383               -0.04031481                0.05242405                2.42577676               14.54434308               -0.61290200
              26.64848187               12.28189797               94.51367730                0.00010000               14.62767927               -4.14609908                9.80091790                5.35416981               27.59417792                3.59442268
              27.77818109               11.72348434               94.13407521                0.00010000               12.17928139               -6.18985498               11.56661429                5.11270172               15.58215180                3.02694353
              28.89206750               11.13758356               93.53032883                0.00010000               10.76861061               -6.34923365                8.48259998                6.25746792                6.70107729               -1.20997403
              29.99355331               10.53169757               92.73452857                0.00010000                9.78458451               -5.07274331                2.07226874                7.30272146               -0.88133979               -8.54966618
              31.08775919                9.90227656               91.77229959                0.00010000                9.99588121               -2.73508021               -8.25572088                6.99558818               -8.47441544              -18.96180754
              32.19347093                9.23888299               90.67436987                0.00010000               12.81134729                0.66515082              -24.38344502                4.86799645              -14.38542937              -32.72694984
              33.34398614                8.53225250               89.50195395                0.00010000               19.02058800                5.44312378              -47.76014540                1.77917623              -12.81907465              -50.24091319
              34.57388269                7.78684825               88.37154172                0.35985292               22.98965547               11.64492279              -77.21466558                0.62227352               -6.31850460              -71.34017201
              24.04840926               14.92089959               95.32981917                1.00000000               -0.00084754                0.01347216               -0.02103100                0.01580831                0.00795500                0.51627343
              25.04840079               14.35838762               94.91139799                0.85615917               -0.00614538               -0.00191456                0.01941092                0.02688351                0.01638999               -0.05552979
              26.04828636               13.79596933               94.49315129                0.00010000                9.32974230               -0.01830315                0.06890759               -0.04062974               15.74382209               -0.62241809
              27.23499563               13.23218169               94.38919674                0.00010000               17.30376022               -5.71242677               10.25790527                0.96591395               30.04475557                1.08485840
              28.39436156               12.64884506               94.00609415                0.00010000               15.18844829               -8.56822909               12.01380201                2.31839781               17.38221374                0.03441893
              29.53876460               12.06224794               93.37527139                0.00010000               13.63227320               -8.43744289                8.54393826                4.56722600                8.06704886               -3.05217414
              30.66700702               11.47500052               92.53028633                0.00010000               12.11154410               -5.97904451                1.33980818                5.92222488                0.06912002               -8.13637472
              31.78099548               10.87911032               91.49944758                0.00010000               11.61589912               -1.87595753              -10.24832280                5.67930801               -7.96862070              -15.42745524
              32.89932501               10.26297441               90.31791400                0.00010000               13.78769511                3.72952996              -28.15506506                3.94603167              -14.28324923              -25.19239041
              34.05674938                9.61875948               89.05250308                0.00010000               19.66409102               10.89006729              -53.88300151                1.56337122              -12.95973601              -37.47997315
              35.29260683                8.94826083               87.82678403                0.35988176               23.58574433               19.24388281              -86.24131215                0.56413795               -6.48990961              -51.85654652
              24.61108484               15.92096313               95.18979898                1.00000000                0.00494833                0.00682370               -0.03448022                0.00581702                0.01586147                0.46988685
              25.61113433               15.35837527               94.76858951                0.82204094               -0.00320015                0.00004893                0.01143916                0.01437122                0.02116263               -0.08257424
              26.61102084               14.79586077               94.34749332                0.00010000               10.18950466               -0.01088306                0.07221371               -3.26394850               17.06305139               -0.56990972
              27.81492442               14.16764944               94.26703643                0.00010000               19.17309833               -7.49152827               10.62606969               -4.46122264               32.73917893               -0.96216681
              28.99448281               13.55211976               93.89006022                0.00010000               17.11660734              -10.89005146               12.55899217               -0.19838137               19.55615690               -2.17247260
              30.15725657               12.96883470               93.24700548                0.00010000               15.03263080               -9.82970699                9.01527110                3.26790884                9.63674447               -4.04525782
              31.29513542               12.41211668               92.37088381                0.00010000               12.80574450               -6.32584845                1.38412730                4.81988548                0.77301173               -6.82699510
              32.41337146               11.86475740               91.29306192                0.00010000               11.88034888               -1.03395544              -10.99111059                4.60150545               -8.02579780              -11.07958585
              33.53274240               11.31347359               90.05318036                0.00010000               13.82978433                5.89941468              -30.04286146                3.27763100              -14.78890833              -16.93892950
              34.68996714               10.75005384               88.72470965                0.00010000               19.67101783               14.44358952              -57.25145390                1.51175650              -13.44039420              -24.09267242
              35.92616276               10.17172591               87.43846398                0.35988013               23.61956141               24.23948589              -91.37949517                0.50911335               -6.83418221              -31.76101234
              25.17370131               16.92103606               95.04926640                1.00000000                0.00892589                0.01071014               -0.04800464               -0.00058312                0.03461336                0.35753360
              26.17379057               16.35838860               94.62544740                0.64971230                0.00159566                0.00302600               -0.00742505                0.00384988                0.10336932               -0.11834242
              27.17373322               15.79575167               94.20302729                0.00010000               10.78608139               -0.01508858                0.06051401               -7.52303835               19.21203792               -0.46714476
              28.38951220               15.08235113               94.16127250                0.00010000               20.77377259              -11.37715383               11.31353601               -7.29142981               36.80524213               -1.29258170
              29.58920867               14.43104403               93.80804465                0.00010000               17.73068292              -12.35591990               13.84675830               -1.30617715               23.06846941               -2.85850039
              30.74412585               13.86565380               93.16537701                0.00010000               13.91366775              -10.29976575               10.45024397                2.23821336               11.29047135               -3.31139379
              31.86748203               13.34848355               92.27236788                0.00010000               11.37714165               -6.20360195                2.65768538                3.15853722                0.81764441               -4.19079629
              32.97166869               12.85843121               91.16371202                0.00010000               10.60495798               -0.41030850              -10.13665910                2.91449445               -9.18729274               -5.91190898
              34.07958119               12.38096271               89.88399667                0.00010000               12.85317519                7.07363201              -29.82436331                2.08263915              -16.51408926               -8.47412214
              35.22873219               11.90763127               88.51478829                0.00010000               18.99318874               16.19256706              -57.82605906                1.04891455              -14.67758185              -11.48294624
              36.45944496               11.43305055               87.20040777                0.35995109               23.07127723               26.87249742              -92.81815144                0.17635147               -7.58430596              -13.44626881
              25.73636811               17.92117733               94.90710273                1.00000000                0.01276036                0.01412665               -0.05595855               -0.00747285                0.17187109                0.27061551
              26.73649572               17.35843579               94.48191014                0.76611485                0.01147135                0.00471988               -0.02332156               -0.01040134                0.30004230               -0.13746629
              27.73659754               16.79555900               94.05932498                0.35995680               14.86538700               -0.01926679                0.05369057              -14.63003958               24.28525420               -0.43308782
              29.03380346               15.94010636               94.11353932                0.36097482               22.42295256              -14.22447643               13.81671746              -10.09875568               47.29851504               -5.18208923
              30.18505659               15.30500136               93.79245992                0.36055257               12.53889301              -12.60426727               16.99934715                0.72144308               27.29474130               -5.37445614
              31.28458132               14.76283938               93.15651304                0.36042649                9.02360802              -10.28144129               13.67057603                3.19771062               11.67898055               -4.88379737
              32.36552875               14.28804464               92.25163427                0.36004898                7.73004344               -6.04389052                5.69370453                4.49026506               -1.18086377               -4.52746771
              33.43918219               13.85655123               91.11988091                0.35955914                7.98331827               -0.18799754               -7.33227283                5.09642925              -12.60976265               -4.56903687
              34.52519512               13.45494623               89.81001106                0.35935896               10.98377019                7.39835207              -27.29613554                5.42909064              -20.89785744               -4.78343334
              35.65885759               13.07390519               88.40683843                0.35889495               17.68280592               16.62739112              -55.72958295                5.72402166              -18.82165684               -4.79546791
              36.87885124               12.70917586               87.07568202                0.67989571               21.99936465               27.61253101              -91.09944986                5.46769480              -11.23797563               -2.43996257
              20.52703464                8.06084835               97.30857952                1.00000000               -0.01109360               -0.00305955                0.12614472               -0.04144019               -0.26651108                0.29064092
              21.52692371                7.50109922               96.90655608                1.00000000                0.02520580               -0.02964684                0.08523421               -0.05697495               -0.33709865                0.04000595
              22.52753876                6.94181077               96.50288328                1.00000000                0.07268656               -0.06512905                0.07364131               -0.03136716               -0.36406346               -0.03485787
              23.52837744                6.38426301               96.09989141                0.83082144                0.10283012               -0.03903491                0.05877163                0.06852308               -0.32489953               -0.09600600
              24.52959536                5.82903644               95.69662418                0.77929093                0.08686467               -0.01412259                0.07693397                0.04876848               -0.27293811               -0.05465349
              25.53011473                5.27529380               95.29453165                0.73053822                0.02947207                0.00508675                0.06143006                0.03646874               -0.13811860               -0.05502897
              26.53018480                4.72276786               94.89362243                0.68787078               -0.00721915                0.02499123                0.03554739                0.02805447               -0.02186136               -0.04821325
              27.52997035                4.17119900               94.49357969                0.65774734               -0.02080105                0.03633196               -0.00878090                0.00940132                0.02405815               -0.02616834
              28.52976878                3.62022250               94.09359777                0.67434186                0.00125825                0.03954938               -0.08930777               -0.00346809               -0.03311485               -0.01947432
              29.52999552                3.06948733               93.69275953                0.72106694                0.04606913                0.04706661               -0.20086801               -0.00702328               -0.09418480               -0.04675690
              30.53069017                2.51905318               93.29184858                0.90300030                0.06946510                0.05652363               -0.30483032               -0.02815821               -0.07286255               -0.18704582
              21.08636938                9.06081776               97.16684250                1.00000000               -0.04966327                0.04412952                0.11883199               -0.04691391               -0.03565840                0.41258642
              22.08587275                8.50080275               96.76472530                1.00000000               -0.03630958               -0.01258392                0.07566337               -0.06576945               -0.03103861                0.05787287
              23.08564319                7.94115948               96.36263742                1.00000000               -0.02114550               -0.06462926                0.05565322               -0.00579268                0.00548477               -0.11948717
              24.08544984                7.38387266               95.96115628                1.00000000               -0.05377676                0.01704468                0.04445552                0.04526345                0.07689023               -0.06155909
              25.08456766                6.82889521               95.56042402                1.00000000               -0.09180657                0.02783953                0.03330323                0.04362150                0.14580749               -0.03462781
              26.08361371                6.27534467               95.16026904                0.96980588               -0.10274543                0.04372006                0.00057244                0.03501537                0.22630844               -0.03975021
              27.08251275                5.72301778               94.76118356                0.89784886               -0.11383323                0.05425299               -0.01037521                0.03131995                0.29906101               -0.03682687
              28.08133704                5.17156232               94.36297825                0.84783878               -0.09614044                0.05305411               -0.02502385                0.01399544                0.30476506               -0.02143277
              29.08058994                4.62061800               93.96468729                0.83194980               -0.04135503                0.04096840               -0.05577563                0.00324010                0.23122826               -0.01918839
              30.08050994                4.06995800               93.56534100                0.77464994                0.01263985                0.03703002               -0.10149309                0.00048197                0.12236754               -0.03988816
              31.08084273                3.51961842               93.16472294                0.82685977                0.03327922                0.03988711               -0.16483429               -0.01436835                0.07627576               -0.15015467
              21.64612639               10.06173095               97.02735225                1.00000000               -0.08597958                0.11782472                0.08770583               -0.01877623                0.00553995                0.55183347
              22.64526659                9.50084754               96.62316649                1.00000000               -0.08867002                0.00963943                0.05606272                0.00603001                0.08701802                0.06155159
              23.64435299                8.94051819               96.22068934                0.00010000               -0.18598068               -0.13205369                0.03211673                0.28732659                0.40974180               -0.42799947
              24.64154698                8.38460391               95.82307965                0.00010000               -0.26785996                5.20083318                0.01224963                6.12191788                0.58297724                8.65773536
              25.63899579                7.82959323               95.42445488                0.00010000               -0.24272521                5.71151979               -0.01460438                8.77070980                0.54050760               10.17551563
              26.63669248                7.27616820               95.02621288                0.00010000               -0.22011223                4.59385730               -0.05542360               10.79247992                0.59730007                6.51900574
              27.63459355                6.72385292               94.62892221                0.00010000               -0.20212199                2.37665409               -0.04830360               12.26281914                0.63603175               -1.04805150
              28.63265004                6.17226009               94.23249480                0.00010000               -0.15778185               -0.91211655               -0.03964078               13.00644654                0.60900436              -12.39698587
              29.63143791                5.62104187               93.83581372                0.00010000               -0.08226524               -5.81894269               -0.03476264               13.69617271                0.49833528              -27.97951904
              30.63100473                5.07022793               93.43778762                0.00010000               -0.01779747              -13.25520337               -0.05198657               17.17209287                0.31844895              -47.38394667
              31.63108196                4.51985093               93.03756816                0.35814966                0.00772276              -30.77731225               -0.10337897               30.22452335                0.22937221              -67.05741347
              22.20776067               11.06317425               96.88810517                1.00000000               -0.05545681                0.13732812                0.05431338                0.03738091                0.01398396                0.57065731
              23.20720611               10.50099554               96.48131536                1.00000000               -0.00636604               -0.00242739                0.03293651                0.05195603                0.00312345                0.02488126
              24.20763335                9.93851841               96.07434481                0.00010000                5.58035263               -0.17152692                0.00928367                5.68738109                9.55731165               -0.60588040
              25.31881316                9.48788933               95.85854493                0.00010000                8.03921027                6.44381129                5.38832365               15.93038439               18.47817326               17.97810715
              26.36841756                8.94312561               95.49218802                0.00010000                4.31952267                7.73558403                5.64306472               16.67934313               11.59234503               20.37217376
              27.40520361                8.36722181               95.02267907                0.00010000                3.16298426                6.04872739                4.39004868               19.90256863                8.44651753               12.89255291
              28.43167724                7.77055086               94.47578526                0.00010000                1.95367069                2.59446097                3.10175091               22.57775969                5.90026717               -1.89343024
              29.44427703                7.15331999               93.85406455                0.00010000                1.24341506               -2.66814982                1.09392711               23.52329021                0.62594362              -23.71894322
              30.45654554                6.50423914               93.14770591                0.00010000                4.04328604              -10.62962000               -4.26360796               22.94259414               -7.69752928              -53.65156723
              31.52514275                5.80485393               92.36358312                0.00010000               16.47708374              -23.84172570              -16.10203471               17.23510330              -13.02701964              -92.23926877
              32.78608722                4.90407217               91.57223152                0.35828278               26.09444729              -44.97596353              -34.25806899               19.64949012               -7.20251363             -143.53617416
              22.77123144               12.06447751               96.74871750                1.00000000               -0.02698857                0.10700115                0.02847130                0.03908965                0.00036603                0.56121743
              23.77096156               11.50079899               96.33898557                1.00000000               -0.00123120               -0.01484344                0.01779664                0.05625208                0.00306194               -0.00331431
              24.77120682               10.93708765               95.92928910                0.00010000                9.22929566               -0.11923957                0.00350934                7.04536936               14.65197683               -0.55870434
              25.95554747               10.51348013               95.81246615                0.00010000               16.10216744                0.29014111                7.91842258               15.65846088               28.97915369               12.88043303
              27.09325017                9.98430491               95.45842365                0.00010000               12.58855641                0.80921811                8.20118848               15.76225504               20.11064678               14.29910775
              28.20731860                9.39714275               94.92429822                0.00010000               10.34001955                0.06865761                5.81254807               19.14574589               15.97567387                7.47730893
              29.30005056                8.77574214               94.25066790                0.00010000                8.10544775               -1.51681669                2.97822534               22.77381567               12.53910724               -5.37362833
              30.36942756                8.11889709               93.44547740                0.00010000                6.93526461               -4.08596185               -1.50314115               24.46851874                5.53200963              -23.93447706
              31.43875585                7.40844947               92.50170838                0.00010000               10.32231062               -8.22714162              -11.38646031               22.14706265               -4.72427453              -49.01363211
              32.57587377                6.59339342               91.43953306                0.00010000               19.34397132              -14.67612742              -30.86159342               13.76854599               -9.26135511              -82.86844196
              33.82563528                5.62033166               90.37553423                0.35838129               24.97615111              -16.78250918              -59.81513894                6.03224266               -5.18943323             -128.77113477
              23.33589950               13.06531428               96.60916010                1.00000000               -0.01784992                0.06487359                0.01107732                0.03674815                0.00445212                0.54754833
              24.33572100               12.50069867               96.19664429                0.96079175               -0.00199531               -0.00839896                0.01456979                0.04904157                0.00841841               -0.01217469
              25.33585960               11.93613362               95.78419153                0.00010000               12.45220570               -0.07519422                0.01623359                6.14609245               17.71533089               -0.57194546
              26.58476512               11.49369215               95.72570167                0.00010000               23.20702236               -3.56717140                9.08927069               13.48816278               35.52046173                8.67878224
              27.80000004               10.95930997               95.36744527                0.00010000               20.59580891               -4.98735134                9.09949619               13.20053895               25.49658345                9.11463759
              28.99668130               10.36859496               94.77574386                0.00010000               18.26995853               -5.34007791                5.79430969               16.13322304               21.24586303                3.37672715
              30.16539921                9.74021452               93.99805356                0.00010000               15.21293876               -5.25149576                1.48502368               19.32668162               17.74278323               -7.14660055
              31.30094007                9.07160076               93.04702479                0.00010000               12.97956262               -5.02996103               -5.30371963               20.19784161               10.41059925              -22.31599759
              32.42499047                8.33969631               91.92053017                0.00010000               14.38457058               -4.78218141              -18.79546002               16.83408513               -0.14157474              -43.12729873
              33.58863148                7.51133138               90.64953072                0.00010000               21.39325681               -3.06028652              -43.43726077                8.62933617               -5.99807018              -71.39340619
              34.85285560                6.56842199               89.35167679                0.35873634               26.42241202                2.63390633              -80.08183380                4.10511036               -3.41094978             -109.50448298
              23.90119763               14.06577498               96.46950487                1.00000000               -0.00745789                0.03117446               -0.00123118                0.02792349                0.00789323                0.53126350
              24.90112305               13.50063101               96.05419535                0.91117044               -0.00312201               -0.00585718                0.01696999                0.04143040                0.01443502               -0.02892876
              25.90113519               12.93558377               95.63899505                0.00010000               15.05056645               -0.03931924                0.03733006                3.61582537               19.61721168               -0.58089934
              27.20213438               12.44213670               95.61561494                0.00010000               29.06114736               -6.37493354                9.53244113                8.53074984               39.63566411                4.83058758
              28.48235813               11.88455788               95.24890020                0.00010000               27.34720654               -9.43073659                9.30092915                9.24601415               28.84305254                4.48861856
              29.74907851               11.29034119               94.61082061                0.00010000               25.06101341               -9.76206011                5.32958202               12.25180605               24.52475386                0.02666850
              30.98357840               10.67071223               93.75240564                0.00010000               21.24120461               -8.19433411               -0.11560198               14.94094325               21.01484192               -7.91857329
              32.17390260               10.01829787               92.68922887                0.00010000               17.60642624               -5.29760671               -8.69933943               15.12970231               13.48746748              -19.56316872
              33.33570693                9.31280584               91.42357981                0.00010000               17.29161058               -0.92748484              -24.83387421               11.72654502                2.33862082              -35.73596529
              34.51973481                8.53218769               89.99092731                0.00010000               22.89246730                5.77153850              -53.19658566                5.61490434               -4.65515666              -57.66996882
              35.79355627                7.67300978               88.51412384                0.35846559               27.38214612               15.60048992              -94.78309886                2.51615503               -2.91818573              -85.88985214
              24.46674591               15.06593777               96.32966687                1.00000000               -0.00050864                0.00893787               -0.01235617                0.01744500                0.01372005                0.50288209
              25.46674082               14.50058152               95.91158389                0.83406040               -0.00377508               -0.00358584                0.01754927                0.02977521                0.02855342               -0.05466489
              26.46667041               13.93534723               95.49377244                0.00010000               16.98325872               -0.01496282                0.05688057               -0.16415743               20.98857036               -0.60167280
              27.80640600               13.36619348               95.49476974                0.00010000               33.50227162               -8.74385957                9.68836999                1.64597596               42.60830762                1.35915966
              29.13671584               12.77069524               95.12397178                0.00010000               32.45785363              -13.11362482                9.34249459                4.48232753               31.37593830                0.38345367
              30.45556307               12.17335376               94.45486723                0.00010000               29.97727789              -13.20090808                5.01399260                8.65946213               26.85940152               -2.67584434
              31.73626140               11.57632784               93.53930937                0.00010000               25.29387148              -10.18535414               -1.16875532               11.29310150               23.04719661               -7.97087214
              32.96144050               10.96564862               92.39468625                0.00010000               20.46850734               -5.07768112              -10.99046534               11.23401774               15.02235897              -15.97353691
              34.14563155               10.32114661               91.02697184                0.00010000               18.96425651                2.12541151              -28.94280818                8.44315438                3.22074476              -27.30869690
              35.34072563                9.62676215               89.47651422                0.00010000               23.79514868               11.86817015              -59.77014910                3.98718352               -4.46254559              -42.45877472
              36.62153452                8.88043179               87.87352724                0.35849816               28.08088888               24.02170013             -104.40768869                1.77163551               -2.98769715              -61.24864553
              25.03225901               16.06595374               96.18951374                1.00000000                0.00500720                0.00243915               -0.02493708                0.00645122                0.02101937                0.45804906
              26.03230908               15.50055929               95.76869001                0.76989482               -0.00094647               -0.00030847                0.00866463                0.01659730                0.03608333               -0.09322925
              27.03224008               14.93528451               95.34815747                0.00010000               18.36984044               -0.00704899                0.06333754               -5.11139727               22.45104549               -0.56845917
              28.39970589               14.26725951               95.37549801                0.00010000               36.63021593              -11.55947155                9.83800417               -6.74758459               45.77143034               -1.49543675
              29.76484440               13.62228539               95.01243457                0.00010000               35.84646273              -16.76008603                9.64398836                0.39314108               34.23493557               -2.71504562
              31.11663515               13.02632303               94.33052576                0.00010000               32.61505858              -15.52721976                5.30747739                6.03838331               29.19697811               -4.35314426
              32.41714557               12.46700514               93.37970589                0.00010000               26.85645172              -11.17292711               -1.25134598                8.58172663               24.42674104               -7.02735828
              33.65376418               11.91674425               92.18022171                0.00010000               21.31554544               -4.60178006              -11.82724650                8.33848719               15.50864955              -11.59487087
              34.84345648               11.35531407               90.74248805                0.00010000               19.32145628                4.23123969              -30.90878099                6.25257647                3.09219147              -18.35552215
              36.04019331               10.76955109               89.11363040                0.00010000               23.90966155               15.63599680              -63.23847656                3.16197191               -4.77499537              -27.13658171
              37.32164971               10.15344378               87.43155886                0.35881185               28.14564054               29.30315708             -109.72011789                1.32855880               -3.25575615              -37.30521681
              25.59766382               17.06598655               96.04885799                1.00000000                0.00781748                0.00638770               -0.03539515                0.00024243                0.03182430                0.35135729
              26.59774200               16.50057535               95.62535073                0.59295044                0.00392110                0.00311243               -0.01096927                0.00501739                0.11727884               -0.13320750
              27.59774224               15.93520625               95.20357107                0.00010000               19.33557173               -0.01829019                0.05062084              -11.71676186               24.92799349               -0.47433368
              28.98445343               15.13500405               95.27608387                0.00010000               39.38864523              -17.66363908               10.37666392              -11.24048870               50.61400875               -2.05628786
              30.38551515               14.43549352               94.94300421                0.00010000               37.35787735              -18.99124770               10.84412854               -1.53840067               38.72803807               -3.79730946
              31.73161098               13.86280937               94.26316161                0.00010000               31.59797822              -16.31917426                6.69418659                3.98638468               31.51590619               -3.83327094
              33.01747471               13.35286930               93.29405023                0.00010000               25.41451684              -11.21890140                0.02407059                5.35761930               24.91248373               -4.47186907
              34.23990132               12.87361302               92.05983240                0.00010000               20.02007583               -4.09001916              -10.90973753                4.98960087               14.67257832               -6.26959358
              35.41787623               12.40577141               90.57618346                0.00010000               18.29670216                5.34995210              -30.53039549                3.74607142                1.62700901               -9.24786927
              36.60583536               11.93948209               88.89884064                0.00010000               23.12220418               17.37573269              -63.58851560                2.02826433               -5.80567210              -12.94640751
              37.88032031               11.46649493               87.17957018                0.35891254               27.44849545               32.14589716             -110.98507519                0.58680737               -3.83482234              -15.84824092
              26.16308625               18.06608149               95.90664030                1.00000000                0.01034760                0.00949420               -0.03768229               -0.00375217                0.16303270                0.26889675
              27.16318973               17.50062154               95.48166807                0.73652000                0.01949505                0.00461880               -0.02134698               -0.01336640                0.31713065               -0.15169869
              28.16347615               16.93491871               95.05982880                0.35932114               25.57095647               -0.02875481                0.05510430              -22.75834989               31.35616027               -0.45509639
              29.67460885               15.91398673               95.25493200                0.36042774               42.13974588              -22.10173164               13.11394108              -15.60737142               63.77741814               -7.34256385
              31.00627107               15.24246043               94.96015723                0.36120234               30.21891019              -19.30330858               14.08714448                1.37323248               43.58739754               -7.14824468
              32.27898706               14.69993954               94.28726797                0.36089184               25.36116185              -16.28698245                9.88632681                4.74594222               31.88426233               -6.14125283
              33.51349430               14.24262712               93.30448277                0.36029705               21.08335152              -11.02421826                3.06176033                6.35217522               22.86978599               -5.57842988
              34.70065409               13.83494386               92.04553340                0.35927004               16.95072672               -3.86691566               -7.91626019                7.05957730               11.37309359               -5.68084492
              35.85250884               13.46231312               90.53008959                0.35838869               15.96904907                5.65417073              -27.48733881                7.56935510               -2.67458168               -6.14800901
              37.02003507               13.11706575               88.81533628                0.35827036               21.34256691               17.75836565              -60.61741924                8.12240173              -10.12174020               -6.31086512
              38.27936018               12.79636173               87.07550052                0.67917620               25.93251073               32.98667963             -108.36027307                7.83358449               -7.90838563               -3.64667012
              20.92681892                8.20539142               98.30970618                1.00000000                0.00263252                0.00892682                0.09082337               -0.04106487               -0.22375412                0.25942735
              21.92684525                7.64335652               97.90727617                1.00000000                0.04189223               -0.02423780                0.05479144               -0.06168408               -0.27595975                0.03585717
              22.92765677                7.08186438               97.50352947                1.00000000                0.09116535               -0.06531349                0.05543733               -0.03757411               -0.29583048               -0.02179099
              23.92866855                6.52230160               97.10038558                0.87464680                0.11024045               -0.03834483                0.04437509                0.05243667               -0.24890596               -0.05901848
              24.92986157                5.96498340               96.69729282                0.76633446                0.09152756               -0.00422584                0.05822099                0.04210510               -0.20144445               -0.03875791
              25.93049910                5.40929792               96.29512850                0.68680878                0.04093280                0.00906058                0.05970196                0.02928527               -0.08253391               -0.05420113
              26.93068023                4.85498064               95.89406651                0.62925102               -0.00501334                0.02552471                0.06189143               -0.01240694                0.02924148               -0.02114824
              27.93039884                4.30169111               95.49368807                0.58675199               -0.03518616                0.03321803                0.04451403               -0.06066365                0.04917191                0.01827639
              28.92997651                3.74882887               95.09285057                0.58534415               -0.02000368                0.03834969               -0.04064221               -0.08661106               -0.06665449                0.02161279
              29.92999876                3.19589098               94.69048050                0.61308566                0.04906594                0.06718660               -0.23796948               -0.07471408               -0.18625391               -0.05048753
              30.93095783                2.64318290               94.28789421                0.83412260                0.09590622                0.11169609               -0.49410601               -0.09607805               -0.17990787               -0.34682197
              21.48844317                9.20548069               98.16794926                1.00000000               -0.04512438                0.05847675                0.09627554               -0.04833553               -0.01959017                0.37424119
              22.48799193                8.64311414               97.76540742                1.00000000               -0.03173425               -0.00758324                0.05900431               -0.07074345               -0.00175962                0.05058505
              23.48780848                8.08121124               97.36312227                1.00000000               -0.01792585               -0.06709554                0.04365422               -0.00621383                0.04987919               -0.10856166
              24.48763341                7.52191815               96.96151179                1.00000000               -0.05120087                0.02092306                0.03112708                0.04012007                0.12286498               -0.03327842
              25.48678447                6.96494114               96.56063174                0.99513548               -0.09200368                0.03818224                0.00687123                0.03680934                0.18410822               -0.02075010
              26.48579334                6.40938852               96.16013904                0.80822970               -0.12124501                0.05633408               -0.02228887                0.03037547                0.27975365               -0.04015354
              27.48435957                5.85523589               95.76108846                0.68616458               -0.14626239                0.06673310               -0.01520603               -0.00052484                0.37809926               -0.01469991
              28.48286809                5.30202329               95.36277364                0.60049567               -0.11745536                0.05966244               -0.03364608               -0.04008839                0.41379470                0.01284654
              29.48201046                4.74921237               94.96418624                0.55359621               -0.03967399                0.04170028               -0.06934427               -0.06120911                0.38486567                0.00548855
              30.48207461                4.19656285               94.56431478                0.49739504                0.03473314                0.04754369               -0.11221651               -0.05175809                0.29301852               -0.08758502
              31.48270512                3.64429987               94.16268956                0.68355885                0.06305152                0.07280939               -0.28539963               -0.05182170                0.26444577               -0.39393870
              22.05058530               10.20656095               98.02818735                1.00000000               -0.08854765                0.13395275                0.07151747               -0.01648147                0.01451027                0.50591893
              23.04969982                9.64320486               97.62369857                1.00000000               -0.09284089                0.01277360                0.04942428                0.01160753                0.10178095                0.04678602
              24.04872848                9.08052247               97.22098319                0.00010000               -0.19793827               -0.14684909                0.03139798                0.32228521                0.42819157               -0.42112064
              25.04574106                8.52272006               96.82313334                0.00010000               -0.28005446                7.95865831                0.00489185               10.40614826                0.60243124               11.45243545
              26.04312739                7.96574705               96.42418434                0.00010000               -0.24645955                8.64362281               -0.04137994               16.88544226                0.55994032               12.77109000
              27.04081186                7.41042460               96.02543146                0.00010000               -0.25462098                7.26282999               -0.09006994               22.83699230                0.66856773                8.35482024
              28.03803497                6.85631531               95.62841701                0.00010000               -0.25956362                4.69488157               -0.06164270               27.80574046                0.75061974                0.38332273
              29.03562059                6.30288436               95.23206878                0.00010000               -0.19111027                0.86647714               -0.05907786               30.48955288                0.77448899              -11.45541674
              30.03421277                5.74966288               94.83550049                0.00010000               -0.08722427               -5.22102375               -0.05907370               31.11791043                0.73700675              -29.43588974
              31.03387611                5.19684186               94.43730853                0.00010000                0.01172955              -15.53410727               -0.10521553               33.58529587                0.60905941              -55.53966776
              32.03444736                4.64463909               94.03619123                0.35734925                0.05712495              -44.03448169               -0.49982191               49.83237263                0.75235969              -86.79648441
              22.61482573               11.20815974               97.88863439                1.00000000               -0.05631713                0.14876490                0.04434428                0.04361202                0.01875643                0.53336548
              23.61426256               10.64336961               97.48165123                1.00000000               -0.00433754               -0.00356987                0.03244559                0.06016471                0.00947863                0.01096834
              24.61473898               10.07827426               97.07447455                0.00010000                9.81346165               -0.19175858                0.02001371                8.50274388               12.33420209               -0.59888595
              25.81053180                9.68109132               96.91389830                0.00010000               16.10248960                9.75336345                5.05725558               26.08323535               25.88151337               23.81577832
              26.93678877                9.13781360               96.54317676                0.00010000               12.07165622               11.72392688                2.63906680               31.49702201               20.21319047               25.50930322
              28.05196492                8.55464512               96.05813720                0.00010000               10.56129228                9.81259757                0.44781755               41.88198636               22.79819285               16.65681575
              29.14801462                7.94913352               95.50305140                0.00010000                7.36733266                5.87875347                0.84678913               50.96981243               25.07408218                1.07708360
              30.19931157                7.31935283               94.87180361                0.00010000                3.11982742               -0.21979070                1.74525858               55.42910078               21.51668438              -21.66284936
              31.21041117                6.64479189               94.11838469                0.00010000                2.97463691              -10.09008844               -0.55861304               54.20867412                8.85684897              -55.61373936
              32.25880431                5.88588070               93.20243930                0.00010000               18.66734661              -28.46436114              -13.88358683               39.29673625               -7.30060673             -105.42464149
              33.58375810                4.76361023               92.18470864                0.35744053               32.49537901              -61.74649731              -45.79642806               35.47561429               -6.22211614             -184.58804598
              23.18103779               12.20953625               97.74900834                1.00000000               -0.02491953                0.11058552                0.02432375                0.04167759                0.00269842                0.53566569
              24.18078859               11.64313346               97.33916610                1.00000000                0.00119314               -0.01840789                0.01754802                0.05980500                0.00631641               -0.00884972
              25.18106165               11.07668730               96.92934140                0.00010000               16.35389150               -0.13217478                0.01023648               10.42096795               18.58835210               -0.54362395
              26.50786642               10.71778733               96.89108756                0.00010000               30.92261862                0.22196063                6.39473462               24.76658640               40.24392289               16.29034493
              27.79951403               10.20022558               96.52854828                0.00010000               27.96326209                1.33223809                2.57249583               27.98915165               35.07746008               17.62422600
              29.06713167                9.60667655               95.96542751                0.00010000               24.66047437                0.77998195               -0.91339486               36.89186576               39.70498281                9.90279860
              30.29272351                8.97389038               95.27018942                0.00010000               19.07062846               -0.86739498               -1.45541179               45.65088506               43.37294174               -3.67664772
              31.44854424                8.29848854               94.43409855                0.00010000               12.95674314               -3.78061630               -2.16834006               50.43318359               38.71621585              -23.29891631
              32.55185838                7.54786111               93.39892759                0.00010000               12.62241293               -8.97689506               -8.55817603               47.26292591               22.98251883              -51.32663696
              33.70099249                6.62755463               92.12242891                0.00010000               21.83211032              -17.76230352              -30.49470978               31.05334153                5.68147901              -93.35666983
              34.98850058                5.40970915               90.70653911                0.35766917               28.75080874              -18.84635669              -75.06199530               14.86963304                1.47477872             -157.70349543
              23.74846487               13.21037145               97.60929278                1.00000000               -0.01572515                0.06379689                0.01176861                0.03719232                0.00718064                0.52847156
              24.74830762               12.64300146               97.19677273                1.00000000                0.00198001               -0.01190314                0.01104061                0.04678157                0.01095527               -0.00778926
              25.74850447               12.07563077               96.78426979                0.00010000               21.70088088               -0.08296794                0.00701722                8.90097875               22.07574561               -0.54158422
              27.18232524               11.68553053               96.81294860                0.00010000               42.95890591               -5.41728350                6.29368810               20.61255861               48.64988093               10.50215332
              28.60768259               11.16445836               96.44072750                0.00010000               41.69061031               -7.17476906                1.77110513               22.25183405               43.45088185               11.08838725
              30.01613744               10.57024476               95.81046481                0.00010000               38.07688717               -7.38414966               -2.52322007               28.96263670               49.37402257                5.16708267
              31.36922033                9.93178562               94.99716561                0.00010000               30.89335347               -7.09100380               -4.18230732               35.81070578               53.69137957               -5.64471799
              32.63400451                9.24374050               93.99288760                0.00010000               22.86916326               -6.75684103               -6.86286320               38.56292528               48.65469467              -21.44481237
              33.82660360                8.46525399               92.73802519                0.00010000               19.20092970               -6.50695515              -16.85299165               33.67903287               32.02090897              -44.26090921
              35.01802311                7.53063463               91.19836827                0.00010000               24.51190690               -3.78425070              -44.39588245               19.03877912               11.56366087              -77.94281943
              36.31684173                6.38668310               89.46585281                0.35787371               29.88186292                6.87458073              -97.11200739                9.63611329                4.51399097             -127.46302847
              24.31652163               14.21081219               97.46951926                1.00000000               -0.00567133                0.02884549                0.00227434                0.02755860                0.01191247                0.51393346
              25.31646491               13.64289540               97.05434930                0.93120638                0.00152639               -0.01008952                0.01247152                0.03872078                0.02054828               -0.02170403
              26.31655215               13.07502794               96.63929546                0.00010000               25.74125450               -0.04286531                0.02119380                5.14568555               24.03895056               -0.54665105
              27.83129000               12.60944166               96.70432612                0.00010000               52.16421608               -9.30243590                5.90364540               12.81697381               53.24403480                5.46840651
              29.35983648               12.05673020               96.32009380                0.00010000               52.38835674              -13.57392949                0.91036070               15.18260712               47.76264101                5.39369434
              30.87905714               11.45899356               95.63692047                0.00010000               48.78027061              -14.06094299               -3.86939040               20.99088493               54.15747298                1.18295322
              32.33544189               10.83207030               94.73221653                0.00010000               40.36386173              -12.17513977               -6.38501560               26.16348851               58.75124899               -6.58283035
              33.68633437               10.16335172               93.59831280                0.00010000               30.15515091               -8.75468835              -10.63560262               27.27136908               53.52905599              -18.37065039
              34.93854491                9.41772201               92.17769239                0.00010000               23.70023003               -3.36808791              -23.12473412               22.19131152               35.93611138              -35.63907052
              36.16033897                8.55186962               90.43802224                0.00010000               26.52905045                5.81231350              -54.29850328               11.61993641               13.56473738              -60.88721264
              37.46912591                7.54720076               88.47587974                0.35812732               30.87869422               20.95849023             -111.71506681                5.63237013                5.21689418              -95.73569159
              24.88484963               15.21094836               97.32957204                1.00000000                0.00166591                0.00603987               -0.00739912                0.01668382                0.01799155                0.48625815
              25.88486629               14.64279967               96.91174897                0.81229924                0.00111445               -0.00757724                0.01445929                0.02862246                0.03889310               -0.05572396
              26.88487192               14.07477346               96.49428890                0.00010000               28.60480805               -0.01674911                0.04621079               -0.33181328               25.37480754               -0.58671584
              28.45696245               13.49948181               96.58296414                0.00010000               58.84554589              -12.65075462                5.46735552                2.64961157               56.38877363                1.22162852
              30.06178283               12.89297977               96.19294405                0.00010000               60.18262978              -18.89718927                0.27683048                7.69306933               50.80656491                0.45883797
              31.66061504               12.28902590               95.47555124                0.00010000               56.31745524              -19.27580648               -4.69746926               14.50853637               57.23082768               -2.09975109
              33.18813194               11.68828283               94.50691122                0.00010000               46.65825720              -15.76208210               -7.74191396               18.90766175               61.56254441               -6.98980067
              34.59378019               11.06864674               93.27963827                0.00010000               34.68899956               -9.78189424              -13.02508380               19.20186604               55.76061195              -14.90270128
              35.88191193               10.39789224               91.73905784                0.00010000               26.35814468               -1.02852377              -27.10158187               15.04334012               37.29173087              -26.82616482
              37.12094308                9.64688090               89.85710010                0.00010000               27.84574615               11.65630849              -60.42674824                7.65090602               13.86768299              -43.93154733
              38.43882685                8.80585290               87.73863026                0.35774940               31.78837728               28.61889333             -120.46796239                3.70044000                5.13689671              -66.62334308
              25.45315269               16.21093299               97.18930024                1.00000000                0.00595717               -0.00058573               -0.01735653                0.00622139                0.02384014                0.44304655
              26.45321226               15.64274385               96.76876280                0.70150964                0.00405245               -0.00266411                0.00544622                0.01583717                0.05236216               -0.10876095
              27.45323374               15.07469295               96.34876007                0.00010000               30.64318295               -0.00898992                0.05232659               -7.48146257               26.84683939               -0.58271998
              29.06607592               14.35642657               96.46379652                0.00010000               63.54600155              -16.88452160                5.26718802               -9.52548749               59.83397179               -2.34199426
              30.72415377               13.67878642               96.08293998                0.00010000               65.39244421              -24.28022929                0.29503911                1.59798589               54.28351125               -3.26455308
              32.37392481               13.07347743               95.35315502                0.00010000               60.49102581              -22.83898661               -4.57673541               10.04125802               60.20837073               -4.26481148
              33.93397429               12.51682866               94.34585689                0.00010000               49.34187394              -17.70067706               -7.92296153               13.75826943               63.40973941               -6.44293323
              35.36076229               11.96771384               93.05651699                0.00010000               36.36016276              -10.04595433              -13.86545152               13.47648555               56.59658299              -10.92128604
              36.66117754               11.39715153               91.43500474                0.00010000               27.23170699                0.52557728              -28.91564390               10.42415737               37.39393007              -18.07623290
              37.90539643               10.78499579               89.45994012                0.00010000               28.20065845               15.00581709              -63.53965416                5.53580190               13.59699204              -28.07063349
              39.22519071               10.11957863               87.24406162                0.35789445               31.97942868               33.31455854             -125.19372008                2.58141303                4.86169776              -40.64540084
              26.02135232               17.21093665               97.04855849                1.00000000                0.00707368                0.00288315               -0.02604706                0.00200076                0.02558977                0.34146597
              27.02142306               16.64274638               96.62522801                0.51128834                0.01038113                0.00116439               -0.01132513                0.00472907                0.13325791               -0.15116526
              28.02155995               16.07459366               96.20403971                0.00010000               32.04680870               -0.03756659                0.03192302              -17.18659661               29.57098115               -0.50006503
              29.66235923               15.16179138               96.36880578                0.00010000               67.75658725              -26.04338729                5.63885961              -16.21355033               65.42090284               -3.04914154
              31.37669169               14.40737518               96.02492722                0.00010000               68.05193630              -27.55279932                1.44161406               -1.46152016               59.84961455               -4.66652274
              33.02339796               13.83224617               95.29926074                0.00010000               59.61846137              -24.08379031               -3.16437292                6.54551597               63.06899442               -3.96266568
              34.56906092               13.33426929               94.27284929                0.00010000               47.97945315              -18.06088498               -6.68462399                8.30831145               64.24711581               -4.18379027
              35.98298702               12.86772765               92.94551726                0.00010000               35.20261031               -9.80907542              -12.95541108                7.72047230               56.10597203               -5.97081793
              37.27311312               12.40840378               91.27338876                0.00010000               26.31224988                1.35111222              -28.40017774                5.99963283               36.30276678               -9.23846326
              38.50923202               11.94699724               89.24301798                0.00010000               27.40881549               16.48504081              -63.63203041                3.46778636               12.95706700              -13.60224438
              39.82128943               11.47214407               86.98070627                0.35791251               31.20574132               36.24015792             -126.40663037                1.27289999                4.68233773              -17.84127224
              26.58957323               18.21099065               96.90634909                1.00000000                0.00765987                0.00540020               -0.02135781               -0.00026015                0.14903920                0.26293240
              27.58964983               17.64276714               96.48148320                0.68963210                0.04417900                0.00207546               -0.01191368               -0.02977429                0.33885336               -0.16628951
              28.59045681               17.07394162               96.06042707                0.35904401               40.96867808               -0.06520385                0.06735289              -33.47072923               37.49289118               -0.53349606
              30.40902339               15.83555882               96.37581815                0.36010987               71.70058836              -32.62325583                8.42036579              -22.64414385               81.03475811              -10.12851479
              32.02446858               15.12773043               96.07420281                0.36085693               58.44588156              -27.96447549                4.46407909                2.58982876               65.03982291               -8.80591978
              33.57794102               14.59180162               95.35423957                0.36071622               52.00952291              -24.04445485               -0.30835416                6.84833273               63.21705313               -7.22559487
              35.06465904               14.15561096               94.31286948                0.36009660               43.15481071              -17.86583287               -3.99435578                8.54634718               62.36656258               -6.38396740
              36.44103724               13.77153233               92.96155570                0.35893032               31.86207847               -9.61953224              -10.04171549                9.23316227               53.53611987               -6.73849801
              37.70190061               13.42417378               91.26026429                0.35796014               23.49873112                1.57699945              -24.98518100               10.03696205               33.01303363               -7.70644494
              38.91101186               13.11469660               89.19449005                0.35754985               24.92272224               16.76993612              -59.60138722               11.18838441                9.34462708               -8.50794317
              40.20035505               12.84438179               86.90847656                0.67871388               28.93431916               37.22377124             -122.44969117               10.87507987                0.85556410               -5.56555463
              21.32741958                8.34955074               99.31039599                1.00000000                0.01616436                0.02706707                0.04471777               -0.03551857               -0.17199662                0.21271094
              22.32758122                7.78555387               98.90765191                1.00000000                0.05465824               -0.01618209                0.01881427               -0.05973650               -0.20959731                0.03016893
              23.32851275                7.22218936               98.50399202                1.00000000                0.10273732               -0.06548329                0.03229998               -0.03381662               -0.22807963               -0.00759876
              24.32963597                6.66083022               98.10077891                0.87744092                0.11554039               -0.03708922                0.02929565                0.04587298               -0.19097789               -0.02575289
              25.33082355                6.10158344               97.69778860                0.71157487                0.10271973                0.00052555                0.04002113                0.04782615               -0.12686331               -0.02384199
              26.33169037                5.54418871               97.29572569                0.60981489                0.06932551                0.00499274                0.05715777                0.04204872                0.03143317               -0.03376316
              27.33221006                4.98830101               96.89486026                0.55146136                0.02396817                0.00722775                0.10059640               -0.01675944                0.19445933                0.06019678
              28.33216973                4.43339339               96.49446997                0.51491794               -0.02833958                0.00451568                0.11528333               -0.08133630                0.20939690                0.12573572
              29.33164327                3.87798343               96.09278492                0.50807750               -0.04714625                0.00944284                0.03386753               -0.11893560               -0.01107971                0.09460839
              30.33122680                3.32080901               95.68800014                0.52087086                0.03106565                0.05692643               -0.20542336               -0.10885001               -0.27195400               -0.01552327
              31.33226458                2.76252604               95.28196646                0.77496291                0.10377813                0.09165859               -0.60008009               -0.11654459               -0.34799096               -0.60106178
              21.89106127                9.34982141               99.16876801                1.00000000               -0.03967173                0.08067266                0.06078408               -0.04420761               -0.00518175                0.31887716
              22.89066455                8.78539205               98.76590539                1.00000000               -0.02624323               -0.00072147                0.03963174               -0.06808690                0.02161723                0.04159723
              23.89053640                8.22153453               98.36351050                1.00000000               -0.01334433               -0.07229330                0.03704165                0.00182933                0.08103525               -0.08933269
              24.89039766                7.66045933               97.96177882                1.00000000               -0.04569146                0.02179401                0.02347073                0.04063256                0.14724913               -0.00087690
              25.88962257                7.10158869               97.56056145                0.84364700               -0.08227982                0.04432869               -0.01755324                0.04261136                0.21349470               -0.01207711
              26.88875207                6.54423863               97.15982327                0.58968532               -0.10912237                0.05388681               -0.03860658                0.04626974                0.34343911               -0.03573081
              27.88744013                5.98837328               96.76087944                0.45027519               -0.11184555                0.06277136               -0.06096722               -0.00207608                0.51424794                0.05610727
              28.88651516                5.43343855               96.36230533                0.36170629               -0.03470082                0.03641933               -0.11534732               -0.07044118                0.69043373                0.14177235
              29.88674611                4.87807785               95.96330040                0.30161661                0.06759196                0.00711028               -0.14935905               -0.13826274                0.85398532                0.10935679
              30.88786700                4.32137827               95.56309667                0.24253875                0.13179963                0.02505278               -0.13910561               -0.16834230                0.76998021               -0.16461879
              31.88938210                3.76344263               95.15901495                0.55021064                0.15151070               -0.03119420               -0.37516935                0.01139431                0.68681035               -1.13325414
              22.45539416               10.35116420               99.02878260                1.00000000               -0.08877848                0.15995787                0.03557959               -0.01043319                0.02278204                0.44873691
              23.45450637                9.78553944               98.62415497                1.00000000               -0.09560530                0.01776614                0.03982551                0.02351336                0.11247744                0.02987329
              24.45348205                9.22074350               98.22131730                0.00010000               -0.20559559               -0.16760216                0.04442074                0.36302937                0.43194793               -0.40868189
              25.45039446                8.66126610               97.82317748                0.00010000               -0.27927859               11.78956726                0.01118472               17.95350311                0.59515966               13.77013702
              26.44789648                8.10247001               97.42362728                0.00010000               -0.22816461               12.36795217               -0.07291351               31.14101179                0.58553480               12.90977406
              27.44583117                7.54526644               97.02441148                0.00010000               -0.24639259               10.80617236               -0.09923884               44.98135933                0.74211410                7.11289769
              28.44296863                6.98955643               96.62768936                0.00010000               -0.23874160                8.09734170               -0.09710156               56.04538404                1.02721726               -0.04728378
              29.44105634                6.43412178               96.23131324                0.00010000               -0.10151647                4.22973425               -0.16224055               63.06657354                1.59968071              -10.48843321
              30.44093830                5.87812563               95.83463225                0.00010000                0.07194242               -2.47702987               -0.43863780               65.17445036                2.77912708              -28.43789018
              31.44249518                5.32131006               95.43568331                0.00010000                0.37127286              -15.50687758               -1.01267867               65.43580958                4.38110830              -61.69406207
              32.44836375                4.76190216               95.02757172                0.35700743                0.58685705              -61.07396304               -6.60410949               84.44541595               10.49328211             -119.84783017
              23.02210211               11.35302057               98.88899205                1.00000000               -0.05465956                0.16841156                0.01760382                0.05146722                0.02505933                0.49342124
              24.02155552               10.78574737               98.48196427                1.00000000               -0.00158931               -0.00194745                0.02700717                0.07051869                0.01794189               -0.00404030
              25.02207033               10.21818249               98.07474508                0.00010000               17.30928471               -0.21617822                0.04146406               12.40368289               14.61864526               -0.59454584
              26.36774121                9.89625068               97.95969005                0.00010000               30.31860718               13.94853132                1.38055437               42.07949204               34.54251262               28.18885493
              27.62844247                9.34894774               97.54496936                0.00010000               26.67758088               16.83843418               -8.18595484               56.83371738               40.23328412               26.36246987
              28.90129283                8.76036208               97.03163542                0.00010000               24.55249998               14.88023335               -8.53198984               80.76591670               52.75452528               15.23078474
              30.11949247                8.15032012               96.49272104                0.00010000               17.89923001               10.92692754               -5.91316350              100.67704410               63.25723281                0.86410909
              31.25927743                7.51803323               95.88896972                0.00010000                9.17771826                4.88565015               -2.18164169              112.60872522               66.67382882              -19.12719120
              32.30304684                6.82853726               95.13653365                0.00010000                2.67646153               -5.79247021                0.93972683              113.11725266               56.49510834              -51.76717549
              33.31280666                6.01124072               94.08591138                0.00010000               19.70296955              -29.54895042               -7.19749256               82.64113747               26.43222544             -110.66491219
              34.69710623                4.54196337               92.65630296                0.35689878               38.42995663              -78.83922895              -59.58516880               64.99959961                9.75443347             -228.42288275
              23.59096990               12.35453243               98.74920397                1.00000000               -0.02150667                0.11761096                0.00923892                0.04586127                0.00763822                0.50938730
              24.59075483               11.78550049               98.33933653                1.00000000                0.00412531               -0.01938465                0.01425017                0.06475440                0.01389241               -0.01544519
              25.59105240               11.21641993               97.92949383                0.00010000               28.52321103               -0.14173044                0.01615969               14.69322772               21.05296946               -0.53243195
              27.16121905               10.94023673               97.94036085                0.00010000               56.47035093               -0.28770130               -2.21066143               37.81912886               55.20405069               18.02234835
              28.72045942               10.43923869               97.50987357                0.00010000               54.92790334                2.02922308              -13.33108739               47.28466915               66.46091745               18.16748294
              30.25977712                9.84287111               96.90603033                0.00010000               48.91894666                2.00407857              -14.21358733               64.76435512               84.77392622               10.01050078
              31.69883835                9.20809499               96.22155966                0.00010000               37.76182918                0.74864675              -11.42849986               81.31376099               97.65097514               -2.80937018
              33.01501370                8.53183478               95.40211060                0.00010000               25.56187559               -1.97714877               -7.74679435               91.40390956               98.04216908              -21.03634510
              34.21007587                7.76227623               94.33054486                0.00010000               18.34390605               -7.64119636               -7.49836791               87.76887009               79.71547266              -48.27497161
              35.38189182                6.73033105               92.82963886                0.00010000               23.84172904              -18.71795237              -24.73427104               60.10558891               43.21185040              -94.25232851
              36.68691045                5.18511758               90.87429432                0.35721225               30.50186254              -14.60712866              -88.57640985               31.03165938               18.87946351             -174.89648710
              24.16108321               13.35537279               98.60939548                1.00000000               -0.01201072                0.06209799                0.00611858                0.03898363                0.00984940                0.50547645
              25.16096310               12.78535968               98.19686510                1.00000000                0.00577171               -0.01399016                0.00760137                0.04890362                0.01547704               -0.00593457
              26.16119864               12.21534788               97.78433187                0.00010000               37.01709627               -0.08941483                0.00541895               12.30109717               24.00751906               -0.51304847
              27.90130503               11.89049665               97.85157543                0.00010000               75.51514156               -7.93737198               -4.52701113               29.95910007               63.20660055               10.26349517
              29.67150147               11.38953220               97.40286737                0.00010000               76.32093066               -9.95117363              -16.49954209               34.72520918               75.93937777               11.09885542
              31.42772364               10.80044365               96.72527946                0.00010000               69.26512717               -9.69786439              -17.34840827               46.80444876               96.35733854                5.84808278
              33.05680402               10.16529305               95.91440742                0.00010000               55.27253691               -8.93924905              -14.97836700               58.82096546              110.16278724               -3.64747889
              34.53317438                9.47849026               94.90976752                0.00010000               40.15619749               -8.38502993              -12.63786040               64.72072180              109.85892449              -17.68189222
              35.85992797                8.67571333               93.58347034                0.00010000               27.94513540               -8.16422210              -15.45126745               58.15176299               89.93860701              -38.83186727
              37.09207709                7.63688167               91.76161307                0.00010000               27.41191965               -3.73097181              -38.27556434               34.25289227               49.34400289              -73.21001378
              38.40816636                6.24982079               89.40943664                0.35738996               31.60892740               15.02004590             -109.51209813               18.05734725               22.37573401             -131.03545188
              24.73177579               14.35577439               98.46955035                1.00000000               -0.00179746                0.02545782                0.00294742                0.02806357                0.01223018                0.48798220
              25.73175782               13.78522069               98.05444478                1.00000000                0.00807922               -0.01530686                0.00736487                0.03479877                0.02097613               -0.01499645
              26.73193737               13.21463164               97.63941893                0.00010000               42.72294583               -0.05997852                0.00977834                6.90106749               25.49510333               -0.48372209
              28.58621673               12.78148929               97.73368785                0.00010000               88.65396145              -12.96704972               -6.57698978               17.99024418               67.21509372                4.82780108
              30.50501660               12.24021522               97.26710742                0.00010000               91.69442516              -18.62531939              -18.95655920               22.80915510               80.28951608                5.13449265
              32.42010524               11.64891382               96.53343280                0.00010000               84.60972269              -19.26597316              -19.71822979               32.37917961              101.41623358                1.96540286
              34.19721106               11.02931000               95.62470533                0.00010000               68.94513125              -17.12007929              -17.64011841               41.09207989              115.48607530               -4.33308907
              35.79900786               10.36413418               94.47651682                0.00010000               50.87543288              -13.45499296              -16.25666599               44.05067626              114.92612751              -14.32110345
              37.21471972                9.59899179               92.96108513                0.00010000               34.69171710               -7.42011839              -20.93105925               37.28269032               93.90988995              -29.67078970
              38.49284220                8.65571162               90.90495725                0.00010000               30.37297150                4.46658258              -46.39350984               20.64782489               51.13375827              -54.27898970
              39.82217915                7.48551850               88.27982251                0.35701584               32.93369424               26.49811285             -120.69494518               10.63297649               22.88172116              -92.92498717
              25.30275188               15.35588195               98.32951889                1.00000000                0.00499527                0.00269145               -0.00068747                0.01890454                0.01929674                0.46104506
              26.30280183               14.78505354               97.91187307                0.82804743                0.00997572               -0.01578265                0.00977578                0.02025222                0.04299317               -0.05793262
              27.30295139               14.21414831               97.49469666                0.00010000               46.63622477               -0.03761660                0.02685765               -0.58460522               26.40532436               -0.51058982
              29.23552632               13.63115566               97.60411685                0.00010000               97.86543271              -17.34556513               -7.91254943                3.94330894               69.80836837                0.41786755
              31.26026005               13.01702581               97.12950839                0.00010000              102.53430623              -25.76020369              -20.45113037               12.00540228               83.36789048                0.18268126
              33.28621245               12.41512419               96.36091784                0.00010000               95.15826042              -26.57982625              -21.08450372               22.18230407              104.60950239               -1.32377256
              35.16342525               11.82289147               95.38447109                0.00010000               77.91468365              -22.85507971              -19.21031787               28.95167722              118.35956920               -4.98509009
              36.84450612               11.20939040               94.13418457                0.00010000               57.52895439              -16.58473249              -18.45003784               30.09798097              117.20993431              -11.51261064
              38.31400434               10.52731096               92.48494021                0.00010000               38.70003749               -6.97666462              -24.14582260               24.50075804               95.31894533              -21.95442494
              39.61850687                9.72621332               90.26797926                0.00010000               32.36038934                8.32544631              -50.92613246               13.13530788               51.37325846              -38.29914193
              40.96121213                8.77978305               87.46416799                0.35714493               34.27052562               30.64706286             -126.67519647                6.78004936               22.71274984              -62.93272155
              25.87381069               16.35582822               98.18916661                1.00000000                0.00858108               -0.00574629               -0.00394578                0.01191709                0.02434740                0.42078281
              26.87389650               15.78490504               97.76879893                0.64136909                0.01662332               -0.01109464                0.00035346                0.00875998                0.06284201               -0.12918285
              27.87414316               15.21387930               97.34920400                0.00010000               49.41544545               -0.03051763                0.02784478              -10.38471714               27.68561067               -0.55033260
              29.86220541               14.43457799               97.48084177                0.00010000              104.35064805              -23.45780351               -8.43532389              -12.62052545               73.22525059               -3.39351561
              31.96115612               13.72501115               97.01833535                0.00010000              109.78401244              -33.30627869              -20.62110023                3.72658733               87.20875464               -3.53925620
              34.05788566               13.11731730               96.23899105                0.00010000              101.04111374              -31.63263425              -21.09055746               15.30268057              107.76070598               -3.38557930
              35.98197839               12.57220841               95.22124666                0.00010000               81.93311638              -26.03552823              -19.47355830               20.39287436              120.19764317               -4.80943693
              37.69654799               12.03243953               93.90291268                0.00010000               60.29667811              -18.01162237              -19.21259277               20.21126232              118.03224261               -8.62141531
              39.18791195               11.45945849               92.16417517                0.00010000               40.32641425               -6.57841829              -25.55659944               16.11037607               95.43835059              -15.08694639
              40.50307627               10.82222054               89.84283732                0.00010000               33.13643601               10.33369765              -53.14356852                8.90767895               51.06685234              -24.89493388
              41.85064067               10.09845975               86.92768446                0.35697134               34.75644031               33.27357484             -129.84285209                4.49283862               22.42602775              -39.22273393
              26.44483658               17.35576702               98.04833705                0.97742251                0.00893634               -0.00346337               -0.01747451                0.00586868                0.02261155                0.32196404
              27.44492594               16.78483165               97.62512422                0.40293817                0.03737587               -0.00598316               -0.00769930               -0.01183767                0.13973019               -0.16802824
              28.44558410               16.21353795               97.20420953                0.00010000               51.35290148               -0.12026190               -0.02020013              -23.89880950               30.64598785               -0.52958378
              30.47198397               15.16199959               97.38886106                0.00010000              110.32341935              -36.85931393               -8.23737743              -22.16574293               79.99171403               -4.40225929
              32.65205248               14.35090023               96.97183649                0.00010000              113.65424131              -37.86101453              -18.90017483               -0.60190504               93.63796809               -4.98979627
              34.74506880               13.78247150               96.19987416                0.00010000              100.20540105              -33.59236597              -19.47155625                9.90282327              110.74607742               -3.06473867
              36.65616050               13.30218090               95.16035775                0.00010000               80.82062438              -26.86505065              -18.33548598               11.91087420              120.95996030               -3.05383175
              38.36148129               12.84915795               93.80072418                0.00010000               59.51351752              -18.21712524              -18.45763386               11.04976910              117.71403676               -4.81742927
              39.84643085               12.39574260               92.00817990                0.00010000               39.80889520               -6.25126643              -25.11500475                8.78262668               94.68799586               -8.05693695
              41.15765919               11.93288728               89.62620003                0.00010000               32.60798112               11.08710976              -53.04614193                5.25755126               50.45978348              -12.62473059
              42.49859048               11.44525455               86.65143757                0.35654998               34.09312874               36.55251556             -130.91417587                2.12961581               22.19081003              -18.81955389
              27.01579881               18.35575895               97.90621314                0.94767287                0.00900084               -0.00080719                0.00059906               -0.00113488                0.12899614                0.23962783
              28.01588881               17.78478537               97.48142979                0.61742153                0.16001116               -0.00462766               -0.00840148               -0.11795699                0.36037528               -0.16865377
              29.01899903               17.21147407               97.06117586                0.35886576               63.28197281               -0.20638890                0.01765286              -47.02818988               40.61458540               -1.08815841
              31.28152827               15.69739171               97.42333932                0.36008634              115.48235348              -46.46078771               -5.68775977              -31.22973056               99.07966264              -12.87515488
              33.32864610               14.96779086               97.04943881                0.36076405              101.15665926              -38.31093782              -15.52784336                5.06327495               98.23455862              -10.29319255
              35.30466146               14.44546998               96.28110088                0.36056305               91.24316646              -33.70015267              -17.06018104                9.31509277              110.14503759               -7.18728083
              37.15350943               14.03490740               95.22459565                0.35998184               75.96601097              -26.72735062              -16.31377889               10.86624494              119.43941937               -6.57057795
              38.82398168               13.66809703               93.84469909                0.35895408               56.31628687              -18.10609233              -16.00353464               11.22632734              116.57998986               -7.63913706
              40.27983517               13.33443316               92.03038597                0.35765795               36.73668346               -6.13094317              -21.72541945               12.13371647               93.48132183               -9.41940462
              41.55871534               13.04396274               89.62330854                0.35680454               29.43316398               11.10754624              -48.69256417               14.85946052               49.08027830              -11.20179707
              42.86849844               12.82951007               86.62650669                0.67846096               30.97831006               38.42555175             -126.41030149               15.54552957               21.01531688              -11.84639242
              21.72886714                8.49290159              100.31060054                1.00000000                0.01901237                0.05700320                0.00527745               -0.02510038               -0.09618163                0.12789036
              22.72905726                7.92745294               99.90765246                1.00000000                0.05505158               -0.00099161               -0.00963732               -0.04885510               -0.12170530                0.01671001
              23.72996817                7.36267545               99.50417547                1.00000000                0.09975780               -0.05761329                0.00272612               -0.02455223               -0.13982906                0.00329441
              24.73105242                6.79978673               99.10097149                0.81416970                0.12046827               -0.02846806                0.00388408                0.06177388               -0.11631237                0.00299846
              25.73237754                6.23896087               98.69809325                0.61179845                0.15018473               -0.00999476                0.00578781                0.09527625               -0.02071726               -0.00534496
              26.73405611                5.68042749               98.29627166                0.50256609                0.17237992               -0.04393761                0.02510068                0.08806815                0.22158116                0.03621832
              27.73582513                5.12414621               97.89607844                0.45964569                0.13029969               -0.06172790                0.09863443                0.03911387                0.46933998                0.16933401
              28.73666211                4.56853511               97.49599374                0.44500815                0.01998015               -0.05196435                0.12596699                0.03656295                0.45100832                0.19046053
              29.73622474                4.00969009               97.09352792                0.44186223               -0.06419817               -0.01379024                0.05667636                0.05002723                0.15680160                0.10584161
              30.73537814                3.44538747               96.68637203                0.43888725               -0.00796852                0.01998314               -0.10621108                0.00688267               -0.17382215                0.07995561
              31.73606537                2.87706470               96.27589261                0.72090366                0.06872235               -0.10351727               -0.44136880                0.02166237               -0.33779112               -0.51776406
              22.29406478                9.49347162              100.16916494                1.00000000               -0.03829978                0.12050312                0.01570947               -0.03140665                0.01310979                0.20652479
              23.29368178                8.92744303               99.76620005                1.00000000               -0.02545109                0.01452492                0.01908023               -0.05074484                0.03722791                0.02216601
              24.29355576                8.36209932               99.36386310                1.00000000               -0.00771673               -0.07805998                0.03112018                0.02178875                0.07196972               -0.05873106
              25.29352745                7.79950205               98.96198120                1.00000000               -0.02729206                0.02124256                0.01373216                0.05217286                0.11056159                0.02445059
              26.29300992                7.23886092               98.56028068                0.56838014               -0.05916613                0.02868722               -0.02671042                0.08563125                0.19978954               -0.00531776
              27.29234412                6.67998812               98.15936690                0.28581119               -0.04237246                0.02214524               -0.07441376                0.11019811                0.42117011                0.05333394
              28.29216247                6.12352893               97.75986911                0.17796328                0.09558379               -0.03090917               -0.20300019                0.19398821                0.74665283                0.31076461
              29.29425580                5.56801546               97.36046670                0.13698896                0.30681800               -0.10419051               -0.27901084                0.50162313                1.13391434                0.39857314
              30.29829883                5.00955218               96.96119906                0.10100764                0.37519320               -0.10091285               -0.25946591                1.33861697                1.49872189               -0.02570197
              31.30175966                4.44558730               96.56153267                0.04249100                0.31529686               -0.26207885               -0.19998460                2.98289988                1.43933754               -0.94487634
              32.30460476                3.87602953               96.15518617                0.44019592                0.28451001               -6.33351096               -0.38512898                9.26776307                1.27991143               -7.14909864
              22.86029619               10.49531165              100.02889894                1.00000000               -0.08815199                0.20675848               -0.01344629                0.00906470                0.03275149                0.31765723
              23.85941467                9.92774344               99.62449508                1.00000000               -0.09756310                0.03321119                0.02790329                0.04945954                0.10568284                0.01868352
              24.85834493                9.36111425               99.22187161                0.00010000               -0.20402004               -0.19462522                0.07692558                0.41492447                0.35812618               -0.33882465
              25.85533427                8.80021158               98.82335704                0.00010000               -0.23704180               16.40915028                0.02871336               30.80253458                0.45576302               12.86231780
              26.85360409                8.23953462               98.42272607                0.00010000               -0.18711017               16.99778912               -0.08077774               62.85789919                0.52880514                4.68258119
              27.85159207                7.68087040               98.02344669                0.00010000               -0.09632692               14.88269268               -0.26340168               87.54765158                1.20512167               -0.00023495
              28.85167755                7.12352803               97.62647497                0.00010000                0.45396272               12.45082347               -2.18011547              107.46217049                7.79161776               -5.37958572
              29.86067132                6.56645130               97.22882397                0.00010000                1.68738413                9.89980907               -6.79228748              123.94317718               33.76436438              -11.57664251
              30.88542524                6.00767183               96.82672773                0.00010000                3.39437394                5.19917904              -12.85091890              135.93837234               72.95866749              -23.12020743
              31.92855880                5.44014590               96.41705495                0.00010000                8.75554736               -8.34801996              -16.45848424              135.43212482              115.50354753              -51.34009139
              33.06053618                4.75039448               95.90410904                0.35655609               13.19773844              -76.37997760              -63.01409466              147.69780151              160.89617583             -191.47834370
              23.42938249               11.49760679               99.88898646                1.00000000               -0.05141153                0.20044619               -0.02215687                0.08150908                0.03022993                0.37630538
              24.42886837               10.92810725               99.48219138                1.00000000                0.00018115                0.00901380                0.01357343                0.09809706                0.02862621               -0.00597710
              25.42938611               10.35820681               99.07530383                0.00010000               30.11446997               -0.23311925                0.05649586               17.11647984               13.68313442               -0.48438051
              27.03115777               10.12768505               98.94150939                0.00010000               62.00614848               19.30686667              -28.23451100               69.84216636               95.27609831               29.15079068
              28.66950908                9.57881671               98.37945767                0.00010000               56.40729850               23.30713049              -26.60845510              107.97078616              114.06170016               16.38193994
              30.15930374                8.97764197               97.88749740                0.00010000               44.31579488               21.61860668              -23.30709107              149.65303653              135.08124336                7.54142907
              31.55582498                8.37254540               97.38478813                0.00010000               36.48359008               18.62442837              -19.75875860              184.31774302              147.30019675               -3.29188432
              32.88897554                7.76601164               96.82817078                0.00010000               29.37733479               14.52562709              -16.07163062              209.03607277              154.35219288              -17.18747587
              34.14337167                7.11353577               96.13717922                0.00010000               18.93519829                6.38765788              -11.09475206              217.29147959              150.40598337              -38.19118758
              35.26767951                6.27862691               95.05848945                0.00010000               24.73459753              -18.66697592               -7.67312159              166.39077292              110.34722004              -87.71794295
              36.63806362                4.34842998               92.99300526                0.35668230               37.03841152              -79.58743792              -46.24460094              117.79244490               59.13009007             -215.20293214
              24.00092545               12.49932057               99.74919312                1.00000000               -0.01488578                0.12639057               -0.01461530                0.07732003                0.01274402                0.39662306
              25.00077659               11.92792372               99.33945110                1.00000000                0.00856391               -0.01663704                0.00855481                0.09718405                0.01939282               -0.01379740
              26.00109672               11.35645186               98.92966459                0.00010000               51.53955570               -0.13810567                0.01792372               20.14918029               16.37943655               -0.42473952
              28.03156770               11.18634891               98.84687433                0.00010000              108.09830864               -1.51058103              -37.20195881               57.29946679              106.31708354               13.02671953
              30.16306290               10.70567723               98.26192653                0.00010000              100.96781983                2.51924556              -34.86567995               75.50753282              134.99680205               12.85379404
              32.05092410               10.11324253               97.68115576                0.00010000               79.32999216                4.10809843              -30.00596636              103.13898996              160.96195445                6.68650248
              33.74966274                9.49601660               97.04161942                0.00010000               62.47391574                4.15724847              -24.77650269              128.79421698              174.49040494               -1.96481456
              35.30040241                8.85696384               96.27916266                0.00010000               48.44884134                2.48423994              -19.90212765              145.62764639              178.94345087              -13.67395812
              36.71863957                8.13542499               95.24896023                0.00010000               36.05388168               -2.77296917              -16.22700864              142.00005289              166.37014323              -32.40662859
              38.02148005                7.06680638               93.62774349                0.00010000               27.90696867              -14.37554662              -19.99650151               96.72390434              118.15347178              -65.66336069
              39.27677894                5.15864572               90.93501092                0.35674245               25.52988932                0.60079489              -77.62819994               50.71621700               78.29932674             -139.42180908
              24.57372260               13.50013460               99.60941515                1.00000000               -0.00418359                0.05639239               -0.00440998                0.06658732                0.01228494                0.39092124
              25.57368076               12.92777451               99.19692476                1.00000000                0.01109625               -0.01681102                0.00465967                0.07746861                0.01945338               -0.00495922
              26.57394452               12.35544470               98.78437817                0.00010000               62.71204919               -0.07315768                0.00112064               15.79066753               17.55956150               -0.39270589
              28.82792175               12.09747343               98.72240838                0.00010000              133.94107968              -11.64463213              -44.04014696               39.50463019              111.76962340                6.98640766
              31.25276612               11.62920162               98.11073666                0.00010000              130.19112116              -13.64490942              -40.63244367               48.25747267              141.29990043                7.62938705
              33.43174417               11.05980394               97.46349664                0.00010000              106.76109470              -12.52896508              -34.76417411               66.26742758              169.08378361                4.82819636
              35.38798801               10.45569037               96.69759827                0.00010000               86.51879555              -11.03358761              -28.78900615               85.41545722              182.82241065               -1.00561035
              37.16212008                9.81569644               95.74013039                0.00010000               69.27710904              -10.22256171              -23.98359704               97.52303601              186.40594349               -9.72705220
              38.77353019                9.05807638               94.42899984                0.00010000               50.84083901              -10.62943226              -21.74803413               92.25411195              172.01765640              -23.06342671
              40.17893686                7.99111597               92.43285699                0.00010000               34.75895412               -5.34413704              -29.48242402               57.25831029              122.08241357              -46.34754429
              41.46870927                6.36044587               89.27561084                0.35643045               28.97724137               23.76619720              -91.13831873               31.94553393               79.94110692              -97.07032881
              25.14697737               14.50044842               99.46957821                1.00000000                0.00384910                0.02092048               -0.00108267                0.05413710                0.01027931                0.37718060
              26.14701586               13.92758750               99.05449660                0.87633783                0.01168912               -0.02438220                0.00657549                0.07039534                0.01721706               -0.01830612
              27.14721115               13.35498871               98.63949102                0.00010000               70.04437622               -0.03340530                0.00390084                8.63294390               17.44916360               -0.36088580
              29.54790339               12.95345627               98.57278633                0.00010000              150.93353446              -16.83940959              -48.49770230               23.40933301              113.65648102                2.68123012
              32.16588184               12.43277904               97.94096261                0.00010000              150.09402539              -24.18980777              -44.60520754               31.43902443              144.29200981                3.21953993
              34.54978389               11.86266323               97.24255588                0.00010000              126.80987687              -25.14058672              -38.05606962               45.43320141              172.45310978                1.88445595
              36.70207938               11.27534485               96.37941416                0.00010000              104.93466150              -23.18253369              -31.74230235               59.19589786              186.25378627               -1.56438407
              38.64847712               10.65251260               95.27317948                0.00010000               84.31114479              -20.18488926              -27.07201654               66.14405860              189.63302861               -7.31649295
              40.38830228                9.92283634               93.75907120                0.00010000               60.78998183              -15.11813444              -25.67848704               59.41884966              174.85136733              -16.56138994
              41.86427676                8.95992364               91.51015204                0.00010000               39.43637708               -2.40489902              -34.66383068               35.06884650              123.33106655              -32.42595294
              43.17702982                7.63396967               88.06198084                0.35645586               31.27530565               26.94453230              -96.89268281               19.00435842               80.33397952              -64.44061862
              25.72052719               15.50055301               99.32955829                1.00000000                0.00211931                0.00410285                0.00141534                0.04326677                0.01804807                0.36647397
              26.72054838               14.92728687               98.91194449                0.68341744                0.01037218               -0.03392270                0.00796500                0.08197168                0.04184309               -0.07400795
              27.72073463               14.35477659               98.49482605                0.00010000               74.88848500               -0.04076440               -0.00819257               -0.94548351               17.44807445               -0.39711816
              30.21831808               13.76068524               98.42471316                0.00010000              162.58025073              -22.48221152              -50.90548088                5.20875319              114.88883846               -0.46620937
              32.97233964               13.14540546               97.78392144                0.00010000              163.97621551              -33.35529234              -46.70540979               17.03023553              146.42675596               -0.11087165
              35.49784239               12.55699221               97.05386116                0.00010000              140.48584746              -34.79268499              -39.85691253               31.15389806              174.72414167               -0.38231580
              37.78205659               11.99203970               96.12270486                0.00010000              116.98336824              -31.52957916              -33.49858291               41.34662963              188.20136394               -2.22994790
              39.83750975               11.41199866               94.91063752                0.00010000               93.62197789              -26.18833396              -29.00885581               44.68377470              191.24634415               -5.94676416
              41.65449615               10.75571369               93.25614139                0.00010000               66.58353556              -17.53317168              -27.99557869               38.63684906              175.96175366              -12.17704617
              43.16918047                9.94301799               90.83857745                0.00010000               42.31041155               -1.55236522              -37.34119434               22.12851260              123.62397961              -22.61207295
              44.50070438                8.89933652               87.20512633                0.35663948               33.15239167               25.69423477              -99.33245708               11.98121098               79.99604269              -42.77938920
              26.29437499               16.50053048               99.18922133                1.00000000                0.00567205               -0.01118096                0.00497959                0.02300759                0.01963941                0.33666464
              27.29443171               15.92690904               98.76876987                0.47795293                0.02640589               -0.02659556               -0.00436234                0.07198721                0.07140690               -0.14391993
              28.29490311               15.35417342               98.34931696                0.00010000               78.35089338               -0.13732335               -0.04445597              -13.65443859               18.50225844               -0.48987591
              30.86144958               14.50381204               98.29509004                0.00010000              170.76382389              -31.47182942              -51.25538336              -15.61258766              117.17411429               -3.93022847
              33.71017959               13.76567319               97.67051798                0.00010000              173.23890187              -43.44648307              -46.62954075                6.45479034              149.49796226               -2.36691033
              36.32622762               13.16680953               96.93134388                0.00010000              148.19129655              -41.40753200              -40.00187948               21.55179672              177.07730262               -1.62120282
              38.67400552               12.64475326               95.95638572                0.00010000              122.61255029              -36.10980208              -33.89005834               28.36449521              189.40901622               -2.34525233
              40.77847862               12.12874592               94.67226514                0.00010000               97.80072016              -29.12030009              -29.70485435               28.96777485              191.76955963               -4.72346282
              42.63001992               11.57217291               92.92387275                0.00010000               69.23727813              -18.73297243              -28.94045482               24.35157206              176.07337938               -8.83147325
              44.16322419               10.92887633               90.39706875                0.00010000               43.69985304               -1.44932903              -38.49630674               14.08355018              123.44637389              -15.23075147
              45.50401698               10.14785436               86.64720458                0.35628252               34.07927964               24.87971207             -100.55184099                7.59411143               79.81555727              -27.51855690
              26.86823021               17.50032939               99.04820900                0.76487434                0.01149723               -0.02497295               -0.01253707                0.00979954                0.03085222                0.27352744
              27.86834518               16.92675496               98.62507403                0.22115487                0.12563282               -0.00630604               -0.00802034               -0.04181781                0.12935311               -0.18026777
              28.87074286               16.35203013               98.20363570                0.00010000               81.31106897               -0.79638068               -0.39727511              -31.47852095               22.24077320               -0.68119716
              31.49456656               15.13124865               98.20405823                0.00010000              178.38475485              -49.73564118              -48.78113527              -26.73251065              124.15699978               -6.39398161
              34.43843796               14.27647580               97.64692373                0.00010000              177.76158472              -49.95056250              -44.29795388                0.94057560              155.64616224               -2.92073317
              37.04979825               13.72884157               96.90982961                0.00010000              147.44860715              -44.06034900              -38.24176940               13.64125853              179.03994590               -1.24923005
              39.38741010               13.26984366               95.90613957                0.00010000              121.98236757              -37.45148387              -33.01513913               15.82973941              189.67919503               -1.41937040
              41.48944560               12.82959266               94.57636459                0.00010000               97.69935408              -29.89730849              -29.19323158               14.97893408              191.23905983               -2.80266443
              43.34139719               12.38105425               92.77108867                0.00010000               69.28622059              -19.03996830              -28.54802996               12.36682170              175.50646111               -5.14006116
              44.87517002               11.91403141               90.18209514                0.00010000               43.66166834               -1.62163376              -38.17438592                7.45745163              122.95941507               -8.26114942
              46.21463055               11.39693076               86.36242275                0.35651887               33.94605356               25.47306686             -100.83126987                3.80233945               79.58547721              -14.48778469
              27.44171985               18.50003102               98.90636107                0.82325383                0.01747688               -0.02983714                0.02213659                0.02415498                0.13041537                0.23185800
              28.44189462               17.92678292               98.48131517                0.49977840                0.95595712                0.00279675               -0.02941301               -0.73431626                0.39213883               -0.19275156
              29.46083900               17.33824581               98.06078012                0.35869195               98.02295351               -1.37843162               -3.95512269              -61.87457221               45.97829115               -6.74059958
              32.40235369               15.50909922               98.26206295                0.35922617              183.52795954              -62.21494360              -43.24129040              -37.80048010              143.05126877              -18.87275564
              35.13139819               14.76666194               97.76364595                0.35963202              160.16656195              -50.98138600              -39.12756477                8.12118930              158.45576745               -8.24060271
              37.60568493               14.28560255               97.01303595                0.35971174              137.92255148              -44.32390149              -36.01176727               12.04175000              177.44063557               -6.07528006
              39.88984922               13.89572358               95.98659390                0.35923057              118.05808935              -37.41200733              -31.69854519               12.50377145              188.67679619               -6.24345154
              41.96684672               13.53079976               94.64148501                0.35905226               95.15341922              -29.87929014              -27.55549090               12.52260929              191.63826961               -8.26521097
              43.79291760               13.19137354               92.82575590                0.35794346               66.48249922              -18.96807018              -25.73933274               13.43423660              176.13109554              -12.05498141
              45.29649670               12.89644366               90.22063877                0.35680928               41.06737370               -1.75877548              -34.94156878               15.42977647              123.34709283              -13.85614362
              46.61426507               12.65731570               86.38027053                0.67842866               31.77683713               26.03849384              -97.76857436               16.05065643               80.76420628              -17.89655277
              22.13139211                8.63497974              101.31050154                1.00000000                0.01800785                0.06737646               -0.00990016               -0.03257157               -0.05174045                0.06588172
              23.13157218                8.06879289              100.90745917                1.00000000                0.05025124                0.01998631               -0.01932934               -0.09111090               -0.07125738                0.01677693
              24.13239713                7.50287999              100.50404655                1.00000000                0.09098828               -0.02162198               -0.01289253               -0.11635422               -0.08723256                0.02908993
              25.13339195                6.93887077              100.10085660                1.00000000                0.13559568               -0.03079721               -0.01148972               -0.00897940               -0.07315641                0.02809135
              26.13510904                6.37710167               99.69790436                1.00000000                0.23724216               -0.02521572               -0.01888883                0.10495227                0.04170598                0.02636767
              27.13813679                5.81872258               99.29622770                1.00000000                0.33828682               -0.05922937               -0.00439567                0.29525778                0.35449727                0.04023767
              28.14187478                5.26410634               98.89683294                1.00000000                0.28018096                0.00857028                0.07545029                0.41656670                0.64304500               -0.00533818
              29.14374041                4.70825669               98.49698931                1.00000000                0.12631174                0.03230947                0.09955696                0.44489098                0.56210583               -0.05426157
              30.14440102                4.14475799               98.09391845                1.00000000                0.08226335               -0.03939806                0.03905272                0.31686254                0.26195844               -0.07394679
              31.14538568                3.57208683               97.68587592                1.00000000                0.10332959               -0.02890103               -0.04961049                0.16937757               -0.03821463               -0.00795932
              32.14646761                2.99358363               97.27313909                1.00000000                0.10819281               -0.13394039               -0.27535171                0.27025256               -0.23345949               -0.53077904
              22.69725324                9.63565350              101.16908220                1.00000000               -0.05422953                0.13580397               -0.00827421                0.00716451                0.03932592                0.11879525
              23.69671095                9.06899275              100.76628699                1.00000000               -0.05292999                0.05644515                0.00869420               -0.04572778                0.05545201                0.01766557
              24.69619464                8.50266377              100.36413290                1.00000000               -0.02598164               -0.01768582                0.02698028               -0.05222310                0.05221234               -0.00309144
              25.69619132                7.93856280               99.96205347                1.00000000                0.00190093                0.00567527                0.00722612               -0.02754759                0.06110365                0.05083293
              26.69623266                7.37684951               99.56002724                1.00000000                0.06978588               -0.00785104               -0.02534427                0.14206869                0.13635109                0.00422697
              27.69758703                6.81813028               99.15833499                1.00000000                0.25203638               -0.07956649               -0.10319123                0.76952180                0.36390094               -0.03999612
              28.70127339                6.26419204               98.75681944                1.00000000                0.51382318               -0.35303193               -0.30496794                7.09992107                0.83059829               -1.57098388
              29.70786350                5.70857979               98.35672511                1.00000000                0.71905900                1.33140773               -0.37415864               32.62612089                1.42535220               -6.01965872
              30.71565457                5.14436401               97.95811108                1.00000000                0.74015679                4.74916659               -0.30879765               71.53488402                1.85416765              -12.33404698
              31.72266663                4.57179782               97.55909697                1.00000000                0.60093806               11.27323122               -0.24356982              118.88396850                1.75076130              -16.34706340
              32.72767333                3.99224423               97.15131237                1.00000000                0.50066984              -44.95337178               -0.38738023              169.33021549                1.52839634              -63.67099333
              23.26485691               10.63769582              101.02851367                1.00000000               -0.12095469                0.22994981               -0.03852719                0.17477905                0.07600854                0.21175264
              24.26364736               10.06992179              100.62471304                1.00000000               -0.15371458                0.08395303                0.02179556                0.19650910                0.14037612                0.01527168
              25.26178262                9.50252627              100.22285581                1.00000000               -0.24960521               -0.09809397                0.09841997                0.46414238                0.29570460               -0.27169287
              26.25865526                8.93898428               99.82375175                1.00000000               -0.16998421               25.85931993                0.03947115              107.36681990                0.28989459              -14.47541215
              27.25838293                8.37694465               99.42201172                1.00000000                0.37647195               23.02682818               -0.07143487              157.28013843                0.24746888              -13.62034601
              28.26618470                7.81713125               99.01914344                1.00000000                6.75203839               21.76756514               -0.43032422              189.00506250               -0.43697052              -16.01598454
              29.39342370                7.25704570               98.58408705                1.00000000               32.49530845               20.25729719               -4.23879258              217.06516159                7.99081714              -19.61191117
              30.91609087                6.73488485               98.09546749                1.00000000               65.92284804               20.76826188              -13.33564761              243.43811584               55.21829553              -22.61604516
              32.71188066                6.23974132               97.57761387                1.00000000               87.95469824               24.90585002              -24.91138648              271.39299348              133.19784941              -28.96667495
              34.67518483                5.79755145               97.10651363                1.00000000               99.01492208               23.71977512              -31.05413252              239.80166312              184.14640119              -45.59184537
              36.69217910                4.09451619               95.76728983                1.00000000              101.69942728              -39.26206909             -113.68192092              193.84662777              229.24191203             -236.58290030
              23.83629689               11.64025250              100.88854892                1.00000000               -0.04862123                0.21701907               -0.04375498                0.33452593                0.06012233                0.28447100
              24.83581068               11.07067181              100.48223574                1.00000000                0.00590575                0.02846854                0.00443609                0.37366219                0.06053452               -0.00381494
              25.83641500               10.50070189              100.07587500                1.00000000              106.66493327               -0.18377355                0.05711671               26.72563395              -13.65890625               -0.40066728
              28.96910934               10.45574920               99.39499983                1.00000000              156.36367285               24.04439275              -54.65095619              151.66638550              140.64141986                1.43491062
              30.96368846                9.83738607               99.01280025                1.00000000               81.42389441               29.40454682              -36.66574120              206.27317440              187.94262681               -4.61565089
              32.59758723                9.25348159               98.56549360                1.00000000               58.05672824               29.17353356              -32.20037993              263.25452665              198.06562954               -8.07766066
              34.12482303                8.66933799               98.09754587                1.00000000               49.81714834               29.94714295              -28.72422645              303.38396447              207.00198014              -13.22361382
              35.59393020                8.12394502               97.56753711                1.00000000               47.80124031               30.57555840              -26.06336712              322.17970318              211.35010220              -18.77663429
              37.08084783                7.64248101               96.91463860                1.00000000               53.49974124               29.12908580              -22.25406179              319.96327703              211.99320794              -25.68593458
              38.66392502                7.04619332               95.93244895                1.00000000               46.49142876               12.25724244              -12.60404997              247.41237884              180.46316792              -57.08359805
              40.01067641                5.20700284               93.73141094                1.00000000               34.67513853                0.97798114              -26.15943240              163.39010353              117.15747688             -136.42068845
              24.41070881               12.64203620              100.74891167                1.00000000               -0.00375970                0.12768139               -0.02814534                0.34613582                0.03793233                0.30948074
              25.41067121               12.07049116              100.33950762                1.00000000                0.02545476               -0.02284043                0.00565206                0.36965404                0.03649453               -0.00712795
              26.41121791               11.49885080               99.92985230                1.00000000              127.23137849               -0.15172812                0.01877107               24.99361132              -16.14717934               -0.33614176
              29.95529878               11.41987213               99.19632167                1.00000000              208.74480625               -7.57181952              -65.05526603               65.37072224              136.50849149                2.14095531
              32.58611403               10.96503558               98.81255997                1.00000000              137.20122664                1.28488904              -44.93665626               88.67262729              197.78457992                4.80674803
              34.69932332               10.40060192               98.30591100                1.00000000              100.22627612                4.10629386              -37.52447640              125.79517251              210.51340382                1.96105746
              36.59063955                9.85598856               97.72602961                1.00000000               84.36092958                6.90240601              -31.55898138              162.87947768              219.00553403               -1.94873244
              38.38654191                9.34639601               97.00406805                1.00000000               79.91291745                8.29936883              -27.50946128              195.11479745              222.61270386               -7.92885886
              40.18889790                8.82232304               96.00600469                1.00000000               83.61843311                3.09264086              -24.29555380              211.15034765              218.30787297              -19.61664281
              42.05891057                8.04269630               94.42970883                1.00000000               72.47321128              -10.93355430              -19.80346557              165.74710586              169.52933396              -40.43522575
              43.63836213                6.11407582               91.32173032                1.00000000               57.94515580               -1.27792734              -61.32805947              122.67817050              125.36046770             -111.69402433
              24.98630969               13.64280613              100.60930728                1.00000000                0.00794651                0.05693297               -0.01078776                0.31267623                0.02381135                0.29800443
              25.98638915               13.07021500              100.19695830                1.00000000                0.02982840               -0.03281599                0.00335358                0.31896639                0.02318963               -0.00251768
              26.98690626               12.49766733               99.78435428                1.00000000              141.19749260               -0.09423843               -0.00238837               19.27554090              -20.01311686               -0.29550493
              30.81033901               12.30431281               98.97077249                1.00000000              238.47524808              -14.35315077              -75.16358850               48.39962531              138.53493673               -0.94545580
              33.75641122               11.86308386               98.59021850                1.00000000              170.60993485              -16.68071732              -52.05181579               58.31339377              203.32568435                1.51038875
              36.22253770               11.33560746               98.02999598                1.00000000              134.01036330              -15.21817503              -43.35006657               83.78474097              216.49979307                0.90037316
              38.43661848               10.80738611               97.33862729                1.00000000              115.36769838              -14.15364184              -35.89709733              112.76742824              224.86802771               -1.63894263
              40.52989167               10.28993240               96.43009558                1.00000000              108.54680052              -14.95494083              -31.00348052              136.12086003              227.27127709               -6.02598249
              42.60755450                9.70433382               95.14850965                1.00000000              107.86113434              -19.08502969              -28.04901895              141.17332167              220.49588060              -13.29872085
              44.68711436                8.82752224               93.17196459                1.00000000               85.69631466              -22.06121019              -26.08924000              103.73768991              172.72578022              -27.26078379
              46.32148079                7.18144430               89.58667026                1.00000000               63.43664308                7.65574109              -68.89405793               69.73415666              126.74771901              -66.88823118
              25.56214459               14.64317486              100.46952870                1.00000000                0.00447485                0.03810900               -0.00495076                0.26753553                0.02148152                0.28463971
              26.56218934               14.06983484              100.05457629                1.00000000                0.02431622               -0.04574446                0.00796932                0.28864761                0.01576019               -0.02156219
              27.56263092               13.49696604               99.63949694                1.00000000              149.78427113               -0.06436623                0.00059205               10.76061175              -23.00014798               -0.29334163
              31.55787476               13.13280912               98.76373380                1.00000000              257.92281665              -20.23925237              -80.90525248               28.41619518              137.77245396               -1.30297857
              34.72108725               12.63142124               98.37500327                1.00000000              193.64205602              -28.89154240              -56.59593454               38.33326193              205.94942126                0.12330472
              37.43071588               12.09623842               97.77231141                1.00000000              158.52879665              -30.84587938              -47.02444661               58.04343200              218.83600001                0.04669968
              39.89166318               11.57291572               96.98985929                1.00000000              139.06477534              -30.30325800              -38.95548736               79.25582370              227.09663417               -1.44930521
              42.21201139               11.04729720               95.93507649                1.00000000              129.15556584              -29.92814714              -33.81029904               93.69057646              229.23623198               -4.32594711
              44.47477450               10.44062244               94.44751539                1.00000000              122.22712525              -29.26826695              -31.15558107               92.59599460              222.47742983               -9.39544113
              46.65655390                9.60147210               92.21168063                1.00000000               92.52133191              -22.02335422              -29.84714054               64.07276811              173.95038669              -18.38561478
              48.32520114                8.26719064               88.34196885                1.00000000               66.86472420                7.87636157              -72.00119861               41.89957541              127.84595394              -42.13547367
              26.13834044               15.64356831              100.32954719                1.00000000                0.00304891                0.03679695               -0.00111000                0.22126978                0.02984363                0.28840473
              27.13837093               15.06930011               99.91203237                1.00000000                0.04018863               -0.04688685                0.00878828                0.29256779                0.03153573               -0.09190610
              28.13914422               14.49638000               99.49453280                1.00000000              155.29183879               -0.08469506               -0.02932485               -0.72675550              -24.46029878               -0.39876210
              32.24420771               13.89952776               98.58600723                1.00000000              271.02514701              -27.80903881              -83.87059274                5.77424582              137.63233223               -1.51573286
              35.55964716               13.28525301               98.19540019                1.00000000              209.88520748              -40.83752923              -58.85212454               20.64681954              207.61936927               -0.47818197
              38.44191186               12.71868988               97.56377959                1.00000000              175.55145128              -43.36568138              -49.00815718               39.94580122              220.36190857               -0.49813039
              41.07067618               12.20132095               96.71449943                1.00000000              154.70423126              -41.55235342              -40.82054338               55.51269253              228.37335179               -1.39256484
              43.53599648               11.69136946               95.55400746                1.00000000              141.73116520              -38.75269952              -35.66300611               63.50441470              230.37513283               -3.37596466
              45.90529948               11.11896849               93.92502863                1.00000000              130.30025203              -33.63703470              -33.11127551               60.27435611              223.43772896               -6.78198641
              48.14200152               10.38705515               91.52115537                1.00000000               96.13678660              -21.36921384              -31.74220776               40.60605359              174.90661641              -12.53475674
              49.82803522                9.33897153               87.47751885                1.00000000               68.60336939                6.18007763              -72.76074819               26.26558929              128.36943124              -27.30255971
              26.71510638               16.64391080              100.18926620                1.00000000                0.01226173                0.02647587                0.00448722                0.16778694                0.01768774                0.26498783
              27.71522900               16.06889710               99.76871168                1.00000000                0.13808871               -0.03095580               -0.00581894                0.25383533                0.03216291               -0.15462209
              28.71786816               15.49527213               99.34831488                1.00000000              158.46288379               -0.39645773               -0.10020845              -15.99988126              -23.35237394               -0.80356751
              32.88448668               14.57662834               98.45573411                1.00000000              279.84966833              -41.61903588              -83.93559318              -20.64866217              139.17519263               -1.35681344
              36.31486153               13.81467065               98.08574454                1.00000000              221.45386460              -54.29477006              -58.47734440                7.59268217              209.62916148               -0.57639279
              39.31356397               13.22892479               97.43895346                1.00000000              185.71879644              -52.14475249              -49.23904141               27.59690077              221.61868300               -0.22551521
              42.02923745               12.74186866               96.54344549                1.00000000              162.54440888              -47.88678154              -41.29402286               37.79258330              229.01630030               -1.01068399
              44.56445215               12.27224321               95.30881560                1.00000000              147.76692371              -43.37423321              -36.34495407               40.56649986              230.69338156               -2.50766738
              46.98457593               11.76788175               93.58536608                1.00000000              134.21098892              -36.39551299              -33.85066758               37.36873293              223.66037989               -4.81958268
              49.24867193               11.17408782               91.07291118                1.00000000               98.10521206              -22.14804393              -32.41575688               25.32111624              175.10885204               -8.40100374
              50.94668017               10.39079219               86.91664764                1.00000000               69.80082439                4.17306876              -73.05569365               16.75091547              128.63996438              -17.84155058
              27.29172358               17.64409783              100.04808631                1.00000000                0.03627277                0.00905889               -0.01226949                0.12794301                0.03708771                0.24632734
              28.29208630               17.06868100               99.62496382                1.00000000                0.98458879               -0.02245253               -0.01102102               -0.07817207               -0.21700138               -0.20090360
              29.31141535               16.48845085               99.19626403                1.00000000              160.98748206               -6.64494496               -0.73716715              -28.07925191              -16.51902411               -4.67000128
              33.51183594               15.06714704               98.41323836                1.00000000              287.38944980              -68.63505876              -79.08198773              -36.69460486              146.20760763               -1.27119075
              37.05920435               14.19935761               98.08587741                1.00000000              227.74079626              -62.25681442              -56.10463133                2.02873523              213.16665922                1.34532948
              40.06665187               13.67579483               97.43503877                1.00000000              186.20025419              -55.56865449              -47.47908472               18.05949765              222.39423921                0.79092996
              42.78320943               13.24358532               96.50005496                1.00000000              162.73307585              -49.63694724              -40.60846085               20.87244035              228.67097166               -0.26687127
              45.32131339               12.82388479               95.21685954                1.00000000              148.38100480              -44.98456194              -35.95050429               20.03029149              230.04499511               -1.33210252
              47.75082953               12.39105823               93.43721930                1.00000000              135.21000086              -39.19413380              -33.38693662               17.94684357              223.23587272               -2.48793996
              50.02551340               11.94409427               90.86271231                1.00000000               98.94076302              -24.21676066              -31.93828224               12.69226631              174.91398261               -4.41541507
              51.72964479               11.42243290               86.63481218                1.00000000               70.41313836                2.25456370              -72.76105764                8.72580710              128.71140986               -9.72540738
              27.86849891               18.64409198               99.90665587                1.00000000                0.08136292               -0.00058493                0.02948050                0.11314059                0.09647131                0.26305233
              28.86931254               18.06844805               99.48084153                1.00000000               14.46590827               -0.02329435               -0.04736390               -6.36331382               -3.48733209               -0.24571555
              30.15781707               17.36237323               98.98207340                1.00000000              178.51876436              -12.60776155               -7.87067201              -58.58587223               23.58140658              -19.00632039
              34.43968782               15.20392716               98.55851351                1.00000000              279.44856865              -86.32198776              -70.35494411              -46.85675559              167.97411872              -15.98968983
              37.74678845               14.56953436               98.26688751                1.00000000              209.54191943              -62.98232419              -49.67584308               14.43963661              211.65662737               -1.61174747
              40.63052621               14.11755170               97.56086554                1.00000000              177.59039246              -55.82431255              -45.21704149               15.36720155              218.67098990               -4.22240790
              43.29859630               13.74912971               96.59062475                1.00000000              159.35294275              -49.44556059              -39.59691499               14.28869966              227.51089476               -5.60240877
              45.81758507               13.37255197               95.29358927                1.00000000              146.23535124              -45.13328252              -34.78957349               11.37063611              231.32256320               -8.15180583
              48.22330332               12.98399907               93.51559932                1.00000000              132.67787532              -40.70591543              -31.01565841               13.10741131              224.58296628              -12.89944569
              50.47114257               12.68975261               90.92447716                1.00000000               97.06078644              -25.43416636              -29.61616049               17.15713664              175.24138167              -14.49262031
              52.16451905               12.43588347               86.67113521                1.00000000               69.33764746                1.34505614              -70.91353198               18.10051171              129.69120205              -18.51092054
         1          2         13         12        122        123        134        133  
         2          3         14         13        123        124        135        134  
         3          4         15         14        124        125        136        135  
         4          5         16         15        125        126        137        136  
         5          6         17         16        126        127        138        137  
         6          7         18         17        127        128        139        138  
         7          8         19         18        128        129        140        139  
         8          9         20         19        129        130        141        140  
         9         10         21         20        130        131        142        141  
        10         11         22         21        131        132        143        142  
        12         13         24         23        133        134        145        144  
        13         14         25         24        134        135        146        145  
        14         15         26         25        135        136        147        146  
        15         16         27         26        136        137        148        147  
        16         17         28         27        137        138        149        148  
        17         18         29         28        138        139        150        149  
        18         19         30         29        139        140        151        150  
        19         20         31         30        140        141        152        151  
        20         21         32         31        141        142        153        152  
        21         22         33         32        142        143        154        153  
        23         24         35         34        144        145        156        155  
        24         25         36         35        145        146        157        156  
        25         26         37         36        146        147        158        157  
        26         27         38         37        147        148        159        158  
        27         28         39         38        148        149        160        159  
        28         29         40         39        149        150        161        160  
        29         30         41         40        150        151        162        161  
        30         31         42         41        151        152        163        162  
        31         32         43         42        152        153        164        163  
        32         33         44         43        153        154        165        164  
        34         35         46         45        155        156        167        166  
        35         36         47         46        156        157        168        167  
        36         37         48         47        157        158        169        168  
        37         38         49         48        158        159        170        169  
        38         39         50         49        159        160        171        170  
        39         40         51         50        160        161        172        171  
        40         41         52         51        161        162        173        172  
        41         42         53         52        162        163        174        173  
        42         43         54         53        163        164        175        174  
        43         44         55         54        164        165        176        175  
        45         46         57         56        166        167        178        177  
        46         47         58         57        167        168        179        178  
        47         48         59         58        168        169        180        179  
        48         49         60         59        169        170        181        180  
        49         50         61         60        170        171        182        181  
        50         51         62         61        171        172        183        182  
        51         52         63         62        172        173        184        183  
        52         53         64         63        173        174        185        184  
        53         54         65         64        174        175        186        185  
        54         55         66         65        175        176        187        186  
        56         57         68         67        177        178        189        188  
        57         58         69         68        178        179        190        189  
        58         59         70         69        179        180        191        190  
        59         60         71         70        180        181        192        191  
        60         61         72         71        181        182        193        192  
        61         62         73         72        182        183        194        193  
        62         63         74         73        183        184        195        194  
        63         64         75         74        184        185        196        195  
        64         65         76         75        185        186        197        196  
        65         66         77         76        186        187        198        197  
        67         68         79         78        188        189        200        199  
        68         69         80         79        189        190        201        200  
        69         70         81         80        190        191        202        201  
        70         71         82         81        191        192        203        202  
        71         72         83         82        192        193        204        203  
        72         73         84         83        193        194        205        204  
        73         74         85         84        194        195        206        205  
        74         75         86         85        195        196        207        206  
        75         76         87         86        196        197        208        207  
        76         77         88         87        197        198        209        208  
        78         79         90         89        199        200        211        210  
        79         80         91         90        200        201        212        211  
        80         81         92         91        201        202        213        212  
        81         82         93         92        202        203        214        213  
        82         83         94         93        203        204        215        214  
        83         84         95         94        204        205        216        215  
        84         85         96         95        205        206        217        216  
        85         86         97         96        206        207        218        217  
        86         87         98         97        207        208        219        218  
        87         88         99         98        208        209        220        219  
        89         90        101        100        210        211        222        221  
        90         91        102        101        211        212        223        222  
        91         92        103        102        212        213        224        223  
        92         93        104        103        213        214        225        224  
        93         94        105        104        214        215        226        225  
        94         95        106        105        215        216        227        226  
        95         96        107        106        216        217        228        227  
        96         97        108        107        217        218        229        228  
        97         98        109        108        218        219        230        229  
        98         99        110        109        219        220        231        230  
       100        101        112        111        221        222        233        232  
       101        102        113        112        222        223        234        233  
       102        103        114        113        223        224        235        234  
       103        104        115        114        224        225        236        235  
       104        105        116        115        225        226        237        236  
       105        106        117        116        226        227        238        237  
       106        107        118        117        227        228        239        238  
       107        108        119        118        228        229        240        239  
       108        109        120        119        229        230        241        240  
       109        110        121        120        230        231        242        241  
       122        123        134        133        243        244        255        254  
       123        124        135        134        244        245        256        255  
       124        125        136        135        245        246        257        256  
       125        126        137        136        246        247        258        257  
       126        127        138        137        247        248        259        258  
       127        128        139        138        248        249        260        259  
       128        129        140        139        249        250        261        260  
       129        130        141        140        250        251        262        261  
       130        131        142        141        251        252        263        262  
       131        132        143        142        252        253        264        263  
       133        134        145        144        254        255        266        265  
       134        135        146        145        255        256        267        266  
       135        136        147        146        256        257        268        267  
       136        137        148        147        257        258        269        268  
       137        138        149        148        258        259        270        269  
       138        139        150        149        259        260        271        270  
       139        140        151        150        260        261        272        271  
       140        141        152        151        261        262        273        272  
       141        142        153        152        262        263        274        273  
       142        143        154        153        263        264        275        274  
       144        145        156        155        265        266        277        276  
       145        146        157        156        266        267        278        277  
       146        147        158        157        267        268        279        278  
       147        148        159        158        268        269        280        279  
       148        149        160        159        269        270        281        280  
       149        150        161        160        270        271        282        281  
       150        151        162        161        271        272        283        282  
       151        152        163        162        272        273        284        283  
       152        153        164        163        273        274        285        284  
       153        154        165        164        274        275        286        285  
       155        156        167        166        276        277        288        287  
       156        157        168        167        277        278        289        288  
       157        158        169        168        278        279        290        289  
       158        159        170        169        279        280        291        290  
       159        160        171        170        280        281        292        291  
       160        161        172        171        281        282        293        292  
       161        162        173        172        282        283        294        293  
       162        163        174        173        283        284        295        294  
       163        164        175        174        284        285        296        295  
       164        165        176        175        285        286        297        296  
       166        167        178        177        287        288        299        298  
       167        168        179        178        288        289        300        299  
       168        169        180        179        289        290        301        300  
       169        170        181        180        290        291        302        301  
       170        171        182        181        291        292        303        302  
       171        172        183        182        292        293        304        303  
       172        173        184        183        293        294        305        304  
       173        174        185        184        294        295        306        305  
       174        175        186        185        295        296        307        306  
       175        176        187        186        296        297        308        307  
       177        178        189        188        298        299        310        309  
       178        179        190        189        299        300        311        310  
       179        180        191        190        300        301        312        311  
       180        181        192        191        301        302        313        312  
       181        182        193        192        302        303        314        313  
       182        183        194        193        303        304        315        314  
       183        184        195        194        304        305        316        315  
       184        185        196        195        305        306        317        316  
       185        186        197        196        306        307        318        317  
       186        187        198        197        307        308        319        318  
       188        189        200        199        309        310        321        320  
       189        190        201        200        310        311        322        321  
       190        191        202        201        311        312        323        322  
       191        192        203        202        312        313        324        323  
       192        193        204        203        313        314        325        324  
       193        194        205        204        314        315        326        325  
       194        195        206        205        315        316        327        326  
       195        196        207        206        316        317        328        327  
       196        197        208        207        317        318        329        328  
       197        198        209        208        318        319        330        329  
       199        200        211        210        320        321        332        331  
       200        201        212        211        321        322        333        332  
       201        202        213        212        322        323        334        333  
       202        203        214        213        323        324        335        334  
       203        204        215        214        324        325        336        335  
       204        205        216        215        325        326        337        336  
       205        206        217        216        326        327        338        337  
       206        207        218        217        327        328        339        338  
       207        208        219        218        328        329        340        339  
       208        209        220        219        329        330        341        340  
       210        211        222        221        331        332        343        342  
       211        212        223        222        332        333        344        343  
       212        213        224        223        333        334        345        344  
       213        214        225        224        334        335        346        345  
       214        215        226        225        335        336        347        346  
       215        216        227        226        336        337        348        347  
       216        217        228        227        337        338        349        348  
       217        218        229        228        338        339        350        349  
       218        219        230        229        339        340        351        350  
       219        220        231        230        340        341        352        351  
       221        222        233        232        342        343        354        353  
       222        223        234        233        343        344        355        354  
       223        224        235        234        344        345        356        355  
       224        225        236        235        345        346        357        356  
       225        226        237        236        346        347        358        357  
       226        227        238        237        347        348        359        358  
       227        228        239        238        348        349        360        359  
       228        229        240        239        349        350        361        360  
       229        230        241        240        350        351        362        361  
       230        231        242        241        351        352        363        362  
       243        244        255        254        364        365        376        375  
       244        245        256        255        365        366        377        376  
       245        246        257        256        366        367        378        377  
       246        247        258        257        367        368        379        378  
       247        248        259        258        368        369        380        379  
       248        249        260        259        369        370        381        380  
       249        250        261        260        370        371        382        381  
       250        251        262        261        371        372        383        382  
       251        252        263        262        372        373        384        383  
       252        253        264        263        373        374        385        384  
       254        255        266        265        375        376        387        386  
       255        256        267        266        376        377        388        387  
       256        257        268        267        377        378        389        388  
       257        258        269        268        378        379        390        389  
       258        259        270        269        379        380        391        390  
       259        260        271        270        380        381        392        391  
       260        261        272        271        381        382        393        392  
       261        262        273        272        382        383        394        393  
       262        263        274        273        383        384        395        394  
       263        264        275        274        384        385        396        395  
       265        266        277        276        386        387        398        397  
       266        267        278        277        387        388        399        398  
       267        268        279        278        388        389        400        399  
       268        269        280        279        389        390        401        400  
       269        270        281        280        390        391        402        401  
       270        271        282        281        391        392        403        402  
       271        272        283        282        392        393        404        403  
       272        273        284        283        393        394        405        404  
       273        274        285        284        394        395        406        405  
       274        275        286        285        395        396        407        406  
       276        277        288        287        397        398        409        408  
       277        278        289        288        398        399        410        409  
       278        279        290        289        399        400        411        410  
       279        280        291        290        400        401        412        411  
       280        281        292        291        401        402        413        412  
       281        282        293        292        402        403        414        413  
       282        283        294        293        403        404        415        414  
       283        284        295        294        404        405        416        415  
       284        285        296        295        405        406        417        416  
       285        286        297        296        406        407        418        417  
       287        288        299        298        408        409        420        419  
       288        289        300        299        409        410        421        420  
       289        290        301        300        410        411        422        421  
       290        291        302        301        411        412        423        422  
       291        292        303        302        412        413        424        423  
       292        293        304        303        413        414        425        424  
       293        294        305        304        414        415        426        425  
       294        295        306        305        415        416        427        426  
       295        296        307        306        416        417        428        427  
       296        297        308        307        417        418        429        428  
       298        299        310        309        419        420        431        430  
       299        300        311        310        420        421        432        431  
       300        301        312        311        421        422        433        432  
       301        302        313        312        422        423        434        433  
       302        303        314        313        423        424        435        434  
       303        304        315        314        424        425        436        435  
       304        305        316        315        425        426        437        436  
       305        306        317        316        426        427        438        437  
       306        307        318        317        427        428        439        438  
       307        308        319        318        428        429        440        439  
       309        310        321        320        430        431        442        441  
       310        311        322        321        431        432        443        442  
       311        312        323        322        432        433        444        443  
       312        313        324        323        433        434        445        444  
       313        314        325        324        434        435        446        445  
       314        315        326        325        435        436        447        446  
       315        316        327        326        436        437        448        447  
       316        317        328        327        437        438        449        448  
       317        318        329        328        438        439        450        449  
       318        319        330        329        439        440        451        450  
       320        321        332        331        441        442        453        452  
       321        322        333        332        442        443        454        453  
       322        323        334        333        443        444        455        454  
       323        324        335        334        444        445        456        455  
       324        325        336        335        445        446        457        456  
       325        326        337        336        446        447        458        457  
       326        327        338        337        447        448        459        458  
       327        328        339        338        448        449        460        459  
       328        329        340        339        449        450        461        460  
       329        330        341        340        450        451        462        461  
       331        332        343        342        452        453        464        463  
       332        333        344        343        453        454        465        464  
       333        334        345        344        454        455        466        465  
       334        335        346        345        455        456        467        466  
       335        336        347        346        456        457        468        467  
       336        337        348        347        457        458        469        468  
       337        338        349        348        458        459        470        469  
       338        339        350        349        459        460        471        470  
       339        340        351        350        460        461        472        471  
       340        341        352        351        461        462        473        472  
       342        343        354        353        463        464        475        474  
       343        344        355        354        464        465        476        475  
       344        345        356        355        465        466        477        476  
       345        346        357        356        466        467        478        477  
       346        347        358        357        467        468        479        478  
       347        348        359        358        468        469        480        479  
       348        349        360        359        469        470        481        480  
       349        350        361        360        470        471        482        481  
       350        351        362        361        471        472        483        482  
       351        352        363        362        472        473        484        483  
       364        365        376        375        485        486        497        496  
       365        366        377        376        486        487        498        497  
       366        367        378        377        487        488        499        498  
       367        368        379        378        488        489        500        499  
       368        369        380        379        489        490        501        500  
       369        370        381        380        490        491        502        501  
       370        371        382        381        491        492        503        502  
       371        372        383        382        492        493        504        503  
       372        373        384        383        493        494        505        504  
       373        374        385        384        494        495        506        505  
       375        376        387        386        496        497        508        507  
       376        377        388        387        497        498        509        508  
       377        378        389        388        498        499        510        509  
       378        379        390        389        499        500        511        510  
       379        380        391        390        500        501        512        511  
       380        381        392        391        501        502        513        512  
       381        382        393        392        502        503        514        513  
       382        383        394        393        503        504        515        514  
       383        384        395        394        504        505        516        515  
       384        385        396        395        505        506        517        516  
       386        387        398        397        507        508        519        518  
       387        388        399        398        508        509        520        519  
       388        389        400        399        509        510        521        520  
       389        390        401        400        510        511        522        521  
       390        391        402        401        511        512        523        522  
       391        392        403        402        512        513        524        523  
       392        393        404        403        513        514        525        524  
       393        394        405        404        514        515        526        525  
       394        395        406        405        515        516        527        526  
       395        396        407        406        516        517        528        527  
       397        398        409        408        518        519        530        529  
       398        399        410        409        519        520        531        530  
       399        400        411        410        520        521        532        531  
       400        401        412        411        521        522        533        532  
       401        402        413        412        522        523        534        533  
       402        403        414        413        523        524        535        534  
       403        404        415        414        524        525        536        535  
       404        405        416        415        525        526        537        536  
       405        406        417        416        526        527        538        537  
       406        407        418        417        527        528        539        538  
       408        409        420        419        529        530        541        540  
       409        410        421        420        530        531        542        541  
       410        411        422        421        531        532        543        542  
       411        412        423        422        532        533        544        543  
       412        413        424        423        533        534        545        544  
       413        414        425        424        534        535        546        545  
       414        415        426        425        535        536        547        546  
       415        416        427        426        536        537        548        547  
       416        417        428        427        537        538        549        548  
       417        418        429        428        538        539        550        549  
       419        420        431        430        540        541        552        551  
       420        421        432        431        541        542        553        552  
       421        422        433        432        542        543        554        553  
       422        423        434        433        543        544        555        554  
       423        424        435        434        544        545        556        555  
       424        425        436        435        545        546        557        556  
       425        426        437        436        546        547        558        557  
       426        427        438        437        547        548        559        558  
       427        428        439        438        548        549        560        559  
       428        429        440        439        549        550        561        560  
       430        431        442        441        551        552        563        562  
       431        432        443        442        552        553        564        563  
       432        433        444        443        553        554        565        564  
       433        434        445        444        554        555        566        565  
       434        435        446        445        555        556        567        566  
       435        436        447        446        556        557        568        567  
       436        437        448        447        557        558        569        568  
       437        438        449        448        558        559        570        569  
       438        439        450        449        559        560        571        570  
       439        440        451        450        560        561        572        571  
       441        442        453        452        562        563        574        573  
       442        443        454        453        563        564        575        574  
       443        444        455        454        564        565        576        575  
       444        445        456        455        565        566        577        576  
       445        446        457        456        566        567        578        577  
       446        447        458        457        567        568        579        578  
       447        448        459        458        568        569        580        579  
       448        449        460        459        569        570        581        580  
       449        450        461        460        570        571        582        581  
       450        451        462        461        571        572        583        582  
       452        453        464        463        573        574        585        584  
       453        454        465        464        574        575        586        585  
       454        455        466        465        575        576        587        586  
       455        456        467        466        576        577        588        587  
       456        457        468        467        577        578        589        588  
       457        458        469        468        578        579        590        589  
       458        459        470        469        579        580        591        590  
       459        460        471        470        580        581        592        591  
       460        461        472        471        581        582        593        592  
       461        462        473        472        582        583        594        593  
       463        464        475        474        584        585        596        595  
       464        465        476        475        585        586        597        596  
       465        466        477        476        586        587        598        597  
       466        467        478        477        587        588        599        598  
       467        468        479        478        588        589        600        599  
       468        469        480        479        589        590        601        600  
       469        470        481        480        590        591        602        601  
       470        471        482        481        591        592        603        602  
       471        472        483        482        592        593        604        603  
       472        473        484        483        593        594        605        604  
       485        486        497        496        606        607        618        617  
       486        487        498        497        607        608        619        618  
       487        488        499        498        608        609        620        619  
       488        489        500        499        609        610        621        620  
       489        490        501        500        610        611        622        621  
       490        491        502        501        611        612        623        622  
       491        492        503        502        612        613        624        623  
       492        493        504        503        613        614        625        624  
       493        494        505        504        614        615        626        625  
       494        495        506        505        615        616        627        626  
       496        497        508        507        617        618        629        628  
       497        498        509        508        618        619        630        629  
       498        499        510        509        619        620        631        630  
       499        500        511        510        620        621        632        631  
       500        501        512        511        621        622        633        632  
       501        502        513        512        622        623        634        633  
       502        503        514        513        623        624        635        634  
       503        504        515        514        624        625        636        635  
       504        505        516        515        625        626        637        636  
       505        506        517        516        626        627        638        637  
       507        508        519        518        628        629        640        639  
       508        509        520        519        629        630        641        640  
       509        510        521        520        630        631        642        641  
       510        511        522        521        631        632        643        642  
       511        512        523        522        632        633        644        643  
       512        513        524        523        633        634        645        644  
       513        514        525        524        634        635        646        645  
       514        515        526        525        635        636        647        646  
       515        516        527        526        636        637        648        647  
       516        517        528        527        637        638        649        648  
       518        519        530        529        639        640        651        650  
       519        520        531        530        640        641        652        651  
       520        521        532        531        641        642        653        652  
       521        522        533        532        642        643        654        653  
       522        523        534        533        643        644        655        654  
       523        524        535        534        644        645        656        655  
       524        525        536        535        645        646        657        656  
       525        526        537        536        646        647        658        657  
       526        527        538        537        647        648        659        658  
       527        528        539        538        648        649        660        659  
       529        530        541        540        650        651        662        661  
       530        531        542        541        651        652        663        662  
       531        532        543        542        652        653        664        663  
       532        533        544        543        653        654        665        664  
       533        534        545        544        654        655        666        665  
       534        535        546        545        655        656        667        666  
       535        536        547        546        656        657        668        667  
       536        537        548        547        657        658        669        668  
       537        538        549        548        658        659        670        669  
       538        539        550        549        659        660        671        670  
       540        541        552        551        661        662        673        672  
       541        542        553        552        662        663        674        673  
       542        543        554        553        663        664        675        674  
       543        544        555        554        664        665        676        675  
       544        545        556        555        665        666        677        676  
       545        546        557        556        666        667        678        677  
       546        547        558        557        667        668        679        678  
       547        548        559        558        668        669        680        679  
       548        549        560        559        669        670        681        680  
       549        550        561        560        670        671        682        681  
       551        552        563        562        672        673        684        683  
       552        553        564        563        673        674        685        684  
       553        554        565        564        674        675        686        685  
       554        555        566        565        675        676        687        686  
       555        556        567        566        676        677        688        687  
       556        557        568        567        677        678        689        688  
       557        558        569        568        678        679        690        689  
       558        559        570        569        679        680        691        690  
       559        560        571        570        680        681        692        691  
       560        561        572        571        681        682        693        692  
       562        563        574        573        683        684        695        694  
       563        564        575        574        684        685        696        695  
       564        565        576        575        685        686        697        696  
       565        566        577        576        686        687        698        697  
       566        567        578        577        687        688        699        698  
       567        568        579        578        688        689        700        699  
       568        569        580        579        689        690        701        700  
       569        570        581        580        690        691        702        701  
       570        571        582        581        691        692        703        702  
       571        572        583        582        692        693        704        703  
       573        574        585        584        694        695        706        705  
       574        575        586        585        695        696        707        706  
       575        576        587        586        696        697        708        707  
       576        577        588        587        697        698        709        708  
       577        578        589        588        698        699        710        709  
       578        579        590        589        699        700        711        710  
       579        580        591        590        700        701        712        711  
       580        581        592        591        701        702        713        712  
       581        582        593        592        702        703        714        713  
       582        583        594        593        703        704        715        714  
       584        585        596        595        705        706        717        716  
       585        586        597        596        706        707        718        717  
       586        587        598        597        707        708        719        718  
       587        588        599        598        708        709        720        719  
       588        589        600        599        709        710        721        720  
       589        590        601        600        710        711        722        721  
       590        591        602        601        711        712        723        722  
       591        592        603        602        712        713        724        723  
       592        593        604        603        713        714        725        724  
       593        594        605        604        714        715        726        725  
       606        607        618        617        727        728        739        738  
       607        608        619        618        728        729        740        739  
       608        609        620        619        729        730        741        740  
       609        610        621        620        730        731        742        741  
       610        611        622        621        731        732        743        742  
       611        612        623        622        732        733        744        743  
       612        613        624        623        733        734        745        744  
       613        614        625        624        734        735        746        745  
       614        615        626        625        735        736        747        746  
       615        616        627        626        736        737        748        747  
       617        618        629        628        738        739        750        749  
       618        619        630        629        739        740        751        750  
       619        620        631        630        740        741        752        751  
       620        621        632        631        741        742        753        752  
       621        622        633        632        742        743        754        753  
       622        623        634        633        743        744        755        754  
       623        624        635        634        744        745        756        755  
       624        625        636        635        745        746        757        756  
       625        626        637        636        746        747        758        757  
       626        627        638        637        747        748        759        758  
       628        629        640        639        749        750        761        760  
       629        630        641        640        750        751        762        761  
       630        631        642        641        751        752        763        762  
       631        632        643        642        752        753        764        763  
       632        633        644        643        753        754        765        764  
       633        634        645        644        754        755        766        765  
       634        635        646        645        755        756        767        766  
       635        636        647        646        756        757        768        767  
       636        637        648        647        757        758        769        768  
       637        638        649        648        758        759        770        769  
       639        640        651        650        760        761        772        771  
       640        641        652        651        761        762        773        772  
       641        642        653        652        762        763        774        773  
       642        643        654        653        763        764        775        774  
       643        644        655        654        764        765        776        775  
       644        645        656        655        765        766        777        776  
       645        646        657        656        766        767        778        777  
       646        647        658        657        767        768        779        778  
       647        648        659        658        768        769        780        779  
       648        649        660        659        769        770        781        780  
       650        651        662        661        771        772        783        782  
       651        652        663        662        772        773        784        783  
       652        653        664        663        773        774        785        784  
       653        654        665        664        774        775        786        785  
       654        655        666        665        775        776        787        786  
       655        656        667        666        776        777        788        787  
       656        657        668        667        777        778        789        788  
       657        658        669        668        778        779        790        789  
       658        659        670        669        779        780        791        790  
       659        660        671        670        780        781        792        791  
       661        662        673        672        782        783        794        793  
       662        663        674        673        783        784        795        794  
       663        664        675        674        784        785        796        795  
       664        665        676        675        785        786        797        796  
       665        666        677        676        786        787        798        797  
       666        667        678        677        787        788        799        798  
       667        668        679        678        788        789        800        799  
       668        669        680        679        789        790        801        800  
       669        670        681        680        790        791        802        801  
       670        671        682        681        791        792        803        802  
       672        673        684        683        793        794        805        804  
       673        674        685        684        794        795        806        805  
       674        675        686        685        795        796        807        806  
       675        676        687        686        796        797        808        807  
       676        677        688        687        797        798        809        808  
       677        678        689        688        798        799        810        809  
       678        679        690        689        799        800        811        810  
       679        680        691        690        800        801        812        811  
       680        681        692        691        801        802        813        812  
       681        682        693        692        802        803        814        813  
       683        684        695        694        804        805        816        815  
       684        685        696        695        805        806        817        816  
       685        686        697        696        806        807        818        817  
       686        687        698        697        807        808        819        818  
       687        688        699        698        808        809        820        819  
       688        689        700        699        809        810        821        820  
       689        690        701        700        810        811        822        821  
       690        691        702        701        811        812        823        822  
       691        692        703        702        812        813        824        823  
       692        693        704        703        813        814        825        824  
       694        695        706        705        815        816        827        826  
       695        696        707        706        816        817        828        827  
       696        697        708        707        817        818        829        828  
       697        698        709        708        818        819        830        829  
       698        699        710        709        819        820        831        830  
       699        700        711        710        820        821        832        831  
       700        701        712        711        821        822        833        832  
       701        702        713        712        822        823        834        833  
       702        703        714        713        823        824        835        834  
       703        704        715        714        824        825        836        835  
       705        706        717        716        826        827        838        837  
       706        707        718        717        827        828        839        838  
       707        708        719        718        828        829        840        839  
       708        709        720        719        829        830        841        840  
       709        710        721        720        830        831        842        841  
       710        711        722        721        831        832        843        842  
       711        712        723        722        832        833        844        843  
       712        713        724        723        833        834        845        844  
       713        714        725        724        834        835        846        845  
       714        715        726        725        835        836        847        846  
       727        728        739        738        848        849        860        859  
       728        729        740        739        849        850        861        860  
       729        730        741        740        850        851        862        861  
       730        731        742        741        851        852        863        862  
       731        732        743        742        852        853        864        863  
       732        733        744        743        853        854        865        864  
       733        734        745        744        854        855        866        865  
       734        735        746        745        855        856        867        866  
       735        736        747        746        856        857        868        867  
       736        737        748        747        857        858        869        868  
       738        739        750        749        859        860        871        870  
       739        740        751        750        860        861        872        871  
       740        741        752        751        861        862        873        872  
       741        742        753        752        862        863        874        873  
       742        743        754        753        863        864        875        874  
       743        744        755        754        864        865        876        875  
       744        745        756        755        865        866        877        876  
       745        746        757        756        866        867        878        877  
       746        747        758        757        867        868        879        878  
       747        748        759        758        868        869        880        879  
       749        750        761        760        870        871        882        881  
       750        751        762        761        871        872        883        882  
       751        752        763        762        872        873        884        883  
       752        753        764        763        873        874        885        884  
       753        754        765        764        874        875        886        885  
       754        755        766        765        875        876        887        886  
       755        756        767        766        876        877        888        887  
       756        757        768        767        877        878        889        888  
       757        758        769        768        878        879        890        889  
       758        759        770        769        879        880        891        890  
       760        761        772        771        881        882        893        892  
       761        762        773        772        882        883        894        893  
       762        763        774        773        883        884        895        894  
       763        764        775        774        884        885        896        895  
       764        765        776        775        885        886        897        896  
       765        766        777        776        886        887        898        897  
       766        767        778        777        887        888        899        898  
       767        768        779        778        888        889        900        899  
       768        769        780        779        889        890        901        900  
       769        770        781        780        890        891        902        901  
       771        772        783        782        892        893        904        903  
       772        773        784        783        893        894        905        904  
       773        774        785        784        894        895        906        905  
       774        775        786        785        895        896        907        906  
       775        776        787        786        896        897        908        907  
       776        777        788        787        897        898        909        908  
       777        778        789        788        898        899        910        909  
       778        779        790        789        899        900        911        910  
       779        780        791        790        900        901        912        911  
       780        781        792        791        901        902        913        912  
       782        783        794        793        903        904        915        914  
       783        784        795        794        904        905        916        915  
       784        785        796        795        905        906        917        916  
       785        786        797        796        906        907        918        917  
       786        787        798        797        907        908        919        918  
       787        788        799        798        908        909        920        919  
       788        789        800        799        909        910        921        920  
       789        790        801        800        910        911        922        921  
       790        791        802        801        911        912        923        922  
       791        792        803        802        912        913        924        923  
       793        794        805        804        914        915        926        925  
       794        795        806        805        915        916        927        926  
       795        796        807        806        916        917        928        927  
       796        797        808        807        917        918        929        928  
       797        798        809        808        918        919        930        929  
       798        799        810        809        919        920        931        930  
       799        800        811        810        920        921        932        931  
       800        801        812        811        921        922        933        932  
       801        802        813        812        922        923        934        933  
       802        803        814        813        923        924        935        934  
       804        805        816        815        925        926        937        936  
       805        806        817        816        926        927        938        937  
       806        807        818        817        927        928        939        938  
       807        808        819        818        928        929        940        939  
       808        809        820        819        929        930        941        940  
       809        810        821        820        930        931        942        941  
       810        811        822        821        931        932        943        942  
       811        812        823        822        932        933        944        943  
       812        813        824        823        933        934        945        944  
       813        814        825        824        934        935        946        945  
       815        816        827        826        936        937        948        947  
       816        817        828        827        937        938        949        948  
       817        818        829        828        938        939        950        949  
       818        819        830        829        939        940        951        950  
       819        820        831        830        940        941        952        951  
       820        821        832        831        941        942        953        952  
       821        822        833        832        942        943        954        953  
       822        823        834        833        943        944        955        954  
       823        824        835        834        944        945        956        955  
       824        825        836        835        945        946        957        956  
       826        827        838        837        947        948        959        958  
       827        828        839        838        948        949        960        959  
       828        829        840        839        949        950        961        960  
       829        830        841        840        950        951        962        961  
       830        831        842        841        951        952        963        962  
       831        832        843        842        952        953        964        963  
       832        833        844        843        953        954        965        964  
       833        834        845        844        954        955        966        965  
       834        835        846        845        955        956        967        966  
       835        836        847        846        956        957        968        967  
       848        849        860        859        969        970        981        980  
       849        850        861        860        970        971        982        981  
       850        851        862        861        971        972        983        982  
       851        852        863        862        972        973        984        983  
       852        853        864        863        973        974        985        984  
       853        854        865        864        974        975        986        985  
       854        855        866        865        975        976        987        986  
       855        856        867        866        976        977        988        987  
       856        857        868        867        977        978        989        988  
       857        858        869        868        978        979        990        989  
       859        860        871        870        980        981        992        991  
       860        861        872        871        981        982        993        992  
       861        862        873        872        982        983        994        993  
       862        863        874        873        983        984        995        994  
       863        864        875        874        984        985        996        995  
       864        865        876        875        985        986        997        996  
       865        866        877        876        986        987        998        997  
       866        867        878        877        987        988        999        998  
       867        868        879        878        988        989       1000        999  
       868        869        880        879        989        990       1001       1000  
       870        871        882        881        991        992       1003       1002  
       871        872        883        882        992        993       1004       1003  
       872        873        884        883        993        994       1005       1004  
       873        874        885        884        994        995       1006       1005  
       874        875        886        885        995        996       1007       1006  
       875        876        887        886        996        997       1008       1007  
       876        877        888        887        997        998       1009       1008  
       877        878        889        888        998        999       1010       1009  
       878        879        890        889        999       1000       1011       1010  
       879        880        891        890       1000       1001       1012       1011  
       881        882        893        892       1002       1003       1014       1013  
       882        883        894        893       1003       1004       1015       1014  
       883        884        895        894       1004       1005       1016       1015  
       884        885        896        895       1005       1006       1017       1016  
       885        886        897        896       1006       1007       1018       1017  
       886        887        898        897       1007       1008       1019       1018  
       887        888        899        898       1008       1009       1020       1019  
       888        889        900        899       1009       1010       1021       1020  
       889        890        901        900       1010       1011       1022       1021  
       890        891        902        901       1011       1012       1023       1022  
       892        893        904        903       1013       1014       1025       1024  
       893        894        905        904       1014       1015       1026       1025  
       894        895        906        905       1015       1016       1027       1026  
       895        896        907        906       1016       1017       1028       1027  
       896        897        908        907       1017       1018       1029       1028  
       897        898        909        908       1018       1019       1030       1029  
       898        899        910        909       1019       1020       1031       1030  
       899        900        911        910       1020       1021       1032       1031  
       900        901        912        911       1021       1022       1033       1032  
       901        902        913        912       1022       1023       1034       1033  
       903        904        915        914       1024       1025       1036       1035  
       904        905        916        915       1025       1026       1037       1036  
       905        906        917        916       1026       1027       1038       1037  
       906        907        918        917       1027       1028       1039       1038  
       907        908        919        918       1028       1029       1040       1039  
       908        909        920        919       1029       1030       1041       1040  
       909        910        921        920       1030       1031       1042       1041  
       910        911        922        921       1031       1032       1043       1042  
       911        912        923        922       1032       1033       1044       1043  
       912        913        924        923       1033       1034       1045       1044  
       914        915        926        925       1035       1036       1047       1046  
       915        916        927        926       1036       1037       1048       1047  
       916        917        928        927       1037       1038       1049       1048  
       917        918        929        928       1038       1039       1050       1049  
       918        919        930        929       1039       1040       1051       1050  
       919        920        931        930       1040       1041       1052       1051  
       920        921        932        931       1041       1042       1053       1052  
       921        922        933        932       1042       1043       1054       1053  
       922        923        934        933       1043       1044       1055       1054  
       923        924        935        934       1044       1045       1056       1055  
       925        926        937        936       1046       1047       1058       1057  
       926        927        938        937       1047       1048       1059       1058  
       927        928        939        938       1048       1049       1060       1059  
       928        929        940        939       1049       1050       1061       1060  
       929        930        941        940       1050       1051       1062       1061  
       930        931        942        941       1051       1052       1063       1062  
       931        932        943        942       1052       1053       1064       1063  
       932        933        944        943       1053       1054       1065       1064  
       933        934        945        944       1054       1055       1066       1065  
       934        935        946        945       1055       1056       1067       1066  
       936        937        948        947       1057       1058       1069       1068  
       937        938        949        948       1058       1059       1070       1069  
       938        939        950        949       1059       1060       1071       1070  
       939        940        951        950       1060       1061       1072       1071  
       940        941        952        951       1061       1062       1073       1072  
       941        942        953        952       1062       1063       1074       1073  
       942        943        954        953       1063       1064       1075       1074  
       943        944        955        954       1064       1065       1076       1075  
       944        945        956        955       1065       1066       1077       1076  
       945        946        957        956       1066       1067       1078       1077  
       947        948        959        958       1068       1069       1080       1079  
       948        949        960        959       1069       1070       1081       1080  
       949        950        961        960       1070       1071       1082       1081  
       950        951        962        961       1071       1072       1083       1082  
       951        952        963        962       1072       1073       1084       1083  
       952        953        964        963       1073       1074       1085       1084  
       953        954        965        964       1074       1075       1086       1085  
       954        955        966        965       1075       1076       1087       1086  
       955        956        967        966       1076       1077       1088       1087  
       956        957        968        967       1077       1078       1089       1088  
       969        970        981        980       1090       1091       1102       1101  
       970        971        982        981       1091       1092       1103       1102  
       971        972        983        982       1092       1093       1104       1103  
       972        973        984        983       1093       1094       1105       1104  
       973        974        985        984       1094       1095       1106       1105  
       974        975        986        985       1095       1096       1107       1106  
       975        976        987        986       1096       1097       1108       1107  
       976        977        988        987       1097       1098       1109       1108  
       977        978        989        988       1098       1099       1110       1109  
       978        979        990        989       1099       1100       1111       1110  
       980        981        992        991       1101       1102       1113       1112  
       981        982        993        992       1102       1103       1114       1113  
       982        983        994        993       1103       1104       1115       1114  
       983        984        995        994       1104       1105       1116       1115  
       984        985        996        995       1105       1106       1117       1116  
       985        986        997        996       1106       1107       1118       1117  
       986        987        998        997       1107       1108       1119       1118  
       987        988        999        998       1108       1109       1120       1119  
       988        989       1000        999       1109       1110       1121       1120  
       989        990       1001       1000       1110       1111       1122       1121  
       991        992       1003       1002       1112       1113       1124       1123  
       992        993       1004       1003       1113       1114       1125       1124  
       993        994       1005       1004       1114       1115       1126       1125  
       994        995       1006       1005       1115       1116       1127       1126  
       995        996       1007       1006       1116       1117       1128       1127  
       996        997       1008       1007       1117       1118       1129       1128  
       997        998       1009       1008       1118       1119       1130       1129  
       998        999       1010       1009       1119       1120       1131       1130  
       999       1000       1011       1010       1120       1121       1132       1131  
      1000       1001       1012       1011       1121       1122       1133       1132  
      1002       1003       1014       1013       1123       1124       1135       1134  
      1003       1004       1015       1014       1124       1125       1136       1135  
      1004       1005       1016       1015       1125       1126       1137       1136  
      1005       1006       1017       1016       1126       1127       1138       1137  
      1006       1007       1018       1017       1127       1128       1139       1138  
      1007       1008       1019       1018       1128       1129       1140       1139  
      1008       1009       1020       1019       1129       1130       1141       1140  
      1009       1010       1021       1020       1130       1131       1142       1141  
      1010       1011       1022       1021       1131       1132       1143       1142  
      1011       1012       1023       1022       1132       1133       1144       1143  
      1013       1014       1025       1024       1134       1135       1146       1145  
      1014       1015       1026       1025       1135       1136       1147       1146  
      1015       1016       1027       1026       1136       1137       1148       1147  
      1016       1017       1028       1027       1137       1138       1149       1148  
      1017       1018       1029       1028       1138       1139       1150       1149  
      1018       1019       1030       1029       1139       1140       1151       1150  
      1019       1020       1031       1030       1140       1141       1152       1151  
      1020       1021       1032       1031       1141       1142       1153       1152  
      1021       1022       1033       1032       1142       1143       1154       1153  
      1022       1023       1034       1033       1143       1144       1155       1154  
      1024       1025       1036       1035       1145       1146       1157       1156  
      1025       1026       1037       1036       1146       1147       1158       1157  
      1026       1027       1038       1037       1147       1148       1159       1158  
      1027       1028       1039       1038       1148       1149       1160       1159  
      1028       1029       1040       1039       1149       1150       1161       1160  
      1029       1030       1041       1040       1150       1151       1162       1161  
      1030       1031       1042       1041       1151       1152       1163       1162  
      1031       1032       1043       1042       1152       1153       1164       1163  
      1032       1033       1044       1043       1153       1154       1165       1164  
      1033       1034       1045       1044       1154       1155       1166       1165  
      1035       1036       1047       1046       1156       1157       1168       1167  
      1036       1037       1048       1047       1157       1158       1169       1168  
      1037       1038       1049       1048       1158       1159       1170       1169  
      1038       1039       1050       1049       1159       1160       1171       1170  
      1039       1040       1051       1050       1160       1161       1172       1171  
      1040       1041       1052       1051       1161       1162       1173       1172  
      1041       1042       1053       1052       1162       1163       1174       1173  
      1042       1043       1054       1053       1163       1164       1175       1174  
      1043       1044       1055       1054       1164       1165       1176       1175  
      1044       1045       1056       1055       1165       1166       1177       1176  
      1046       1047       1058       1057       1167       1168       1179       1178  
      1047       1048       1059       1058       1168       1169       1180       1179  
      1048       1049       1060       1059       1169       1170       1181       1180  
      1049       1050       1061       1060       1170       1171       1182       1181  
      1050       1051       1062       1061       1171       1172       1183       1182  
      1051       1052       1063       1062       1172       1173       1184       1183  
      1052       1053       1064       1063       1173       1174       1185       1184  
      1053       1054       1065       1064       1174       1175       1186       1185  
      1054       1055       1066       1065       1175       1176       1187       1186  
      1055       1056       1067       1066       1176       1177       1188       1187  
      1057       1058       1069       1068       1178       1179       1190       1189  
      1058       1059       1070       1069       1179       1180       1191       1190  
      1059       1060       1071       1070       1180       1181       1192       1191  
      1060       1061       1072       1071       1181       1182       1193       1192  
      1061       1062       1073       1072       1182       1183       1194       1193  
      1062       1063       1074       1073       1183       1184       1195       1194  
      1063       1064       1075       1074       1184       1185       1196       1195  
      1064       1065       1076       1075       1185       1186       1197       1196  
      1065       1066       1077       1076       1186       1187       1198       1197  
      1066       1067       1078       1077       1187       1188       1199       1198  
      1068       1069       1080       1079       1189       1190       1201       1200  
      1069       1070       1081       1080       1190       1191       1202       1201  
      1070       1071       1082       1081       1191       1192       1203       1202  
      1071       1072       1083       1082       1192       1193       1204       1203  
      1072       1073       1084       1083       1193       1194       1205       1204  
      1073       1074       1085       1084       1194       1195       1206       1205  
      1074       1075       1086       1085       1195       1196       1207       1206  
      1075       1076       1087       1086       1196       1197       1208       1207  
      1076       1077       1088       1087       1197       1198       1209       1208  
      1077       1078       1089       1088       1198       1199       1210       1209  
      1090       1091       1102       1101       1211       1212       1223       1222  
      1091       1092       1103       1102       1212       1213       1224       1223  
      1092       1093       1104       1103       1213       1214       1225       1224  
      1093       1094       1105       1104       1214       1215       1226       1225  
      1094       1095       1106       1105       1215       1216       1227       1226  
      1095       1096       1107       1106       1216       1217       1228       1227  
      1096       1097       1108       1107       1217       1218       1229       1228  
      1097       1098       1109       1108       1218       1219       1230       1229  
      1098       1099       1110       1109       1219       1220       1231       1230  
      1099       1100       1111       1110       1220       1221       1232       1231  
      1101       1102       1113       1112       1222       1223       1234       1233  
      1102       1103       1114       1113       1223       1224       1235       1234  
      1103       1104       1115       1114       1224       1225       1236       1235  
      1104       1105       1116       1115       1225       1226       1237       1236  
      1105       1106       1117       1116       1226       1227       1238       1237  
      1106       1107       1118       1117       1227       1228       1239       1238  
      1107       1108       1119       1118       1228       1229       1240       1239  
      1108       1109       1120       1119       1229       1230       1241       1240  
      1109       1110       1121       1120       1230       1231       1242       1241  
      1110       1111       1122       1121       1231       1232       1243       1242  
      1112       1113       1124       1123       1233       1234       1245       1244  
      1113       1114       1125       1124       1234       1235       1246       1245  
      1114       1115       1126       1125       1235       1236       1247       1246  
      1115       1116       1127       1126       1236       1237       1248       1247  
      1116       1117       1128       1127       1237       1238       1249       1248  
      1117       1118       1129       1128       1238       1239       1250       1249  
      1118       1119       1130       1129       1239       1240       1251       1250  
      1119       1120       1131       1130       1240       1241       1252       1251  
      1120       1121       1132       1131       1241       1242       1253       1252  
      1121       1122       1133       1132       1242       1243       1254       1253  
      1123       1124       1135       1134       1244       1245       1256       1255  
      1124       1125       1136       1135       1245       1246       1257       1256  
      1125       1126       1137       1136       1246       1247       1258       1257  
      1126       1127       1138       1137       1247       1248       1259       1258  
      1127       1128       1139       1138       1248       1249       1260       1259  
      1128       1129       1140       1139       1249       1250       1261       1260  
      1129       1130       1141       1140       1250       1251       1262       1261  
      1130       1131       1142       1141       1251       1252       1263       1262  
      1131       1132       1143       1142       1252       1253       1264       1263  
      1132       1133       1144       1143       1253       1254       1265       1264  
      1134       1135       1146       1145       1255       1256       1267       1266  
      1135       1136       1147       1146       1256       1257       1268       1267  
      1136       1137       1148       1147       1257       1258       1269       1268  
      1137       1138       1149       1148       1258       1259       1270       1269  
      1138       1139       1150       1149       1259       1260       1271       1270  
      1139       1140       1151       1150       1260       1261       1272       1271  
      1140       1141       1152       1151       1261       1262       1273       1272  
      1141       1142       1153       1152       1262       1263       1274       1273  
      1142       1143       1154       1153       1263       1264       1275       1274  
      1143       1144       1155       1154       1264       1265       1276       1275  
      1145       1146       1157       1156       1266       1267       1278       1277  
      1146       1147       1158       1157       1267       1268       1279       1278  
      1147       1148       1159       1158       1268       1269       1280       1279  
      1148       1149       1160       1159       1269       1270       1281       1280  
      1149       1150       1161       1160       1270       1271       1282       1281  
      1150       1151       1162       1161       1271       1272       1283       1282  
      1151       1152       1163       1162       1272       1273       1284       1283  
      1152       1153       1164       1163       1273       1274       1285       1284  
      1153       1154       1165       1164       1274       1275       1286       1285  
      1154       1155       1166       1165       1275       1276       1287       1286  
      1156       1157       1168       1167       1277       1278       1289       1288  
      1157       1158       1169       1168       1278       1279       1290       1289  
      1158       1159       1170       1169       1279       1280       1291       1290  
      1159       1160       1171       1170       1280       1281       1292       1291  
      1160       1161       1172       1171       1281       1282       1293       1292  
      1161       1162       1173       1172       1282       1283       1294       1293  
      1162       1163       1174       1173       1283       1284       1295       1294  
      1163       1164       1175       1174       1284       1285       1296       1295  
      1164       1165       1176       1175       1285       1286       1297       1296  
      1165       1166       1177       1176       1286       1287       1298       1297  
      1167       1168       1179       1178       1288       1289       1300       1299  
      1168       1169       1180       1179       1289       1290       1301       1300  
      1169       1170       1181       1180       1290       1291       1302       1301  
      1170       1171       1182       1181       1291       1292       1303       1302  
      1171       1172       1183       1182       1292       1293       1304       1303  
      1172       1173       1184       1183       1293       1294       1305       1304  
      1173       1174       1185       1184       1294       1295       1306       1305  
      1174       1175       1186       1185       1295       1296       1307       1306  
      1175       1176       1187       1186       1296       1297       1308       1307  
      1176       1177       1188       1187       1297       1298       1309       1308  
      1178       1179       1190       1189       1299       1300       1311       1310  
      1179       1180       1191       1190       1300       1301       1312       1311  
      1180       1181       1192       1191       1301       1302       1313       1312  
      1181       1182       1193       1192       1302       1303       1314       1313  
      1182       1183       1194       1193       1303       1304       1315       1314  
      1183       1184       1195       1194       1304       1305       1316       1315  
      1184       1185       1196       1195       1305       1306       1317       1316  
      1185       1186       1197       1196       1306       1307       1318       1317  
      1186       1187       1198       1197       1307       1308       1319       1318  
      1187       1188       1199       1198       1308       1309       1320       1319  
      1189       1190       1201       1200       1310       1311       1322       1321  
      1190       1191       1202       1201       1311       1312       1323       1322  
      1191       1192       1203       1202       1312       1313       1324       1323  
      1192       1193       1204       1203       1313       1314       1325       1324  
      1193       1194       1205       1204       1314       1315       1326       1325  
      1194       1195       1206       1205       1315       1316       1327       1326  
      1195       1196       1207       1206       1316       1317       1328       1327  
      1196       1197       1208       1207       1317       1318       1329       1328  
      1197       1198       1209       1208       1318       1319       1330       1329  
      1198       1199       1210       1209       1319       1320       1331       1330  
      1211       1212       1223       1222       1332       1333       1344       1343  
      1212       1213       1224       1223       1333       1334       1345       1344  
      1213       1214       1225       1224       1334       1335       1346       1345  
      1214       1215       1226       1225       1335       1336       1347       1346  
      1215       1216       1227       1226       1336       1337       1348       1347  
      1216       1217       1228       1227       1337       1338       1349       1348  
      1217       1218       1229       1228       1338       1339       1350       1349  
      1218       1219       1230       1229       1339       1340       1351       1350  
      1219       1220       1231       1230       1340       1341       1352       1351  
      1220       1221       1232       1231       1341       1342       1353       1352  
      1222       1223       1234       1233       1343       1344       1355       1354  
      1223       1224       1235       1234       1344       1345       1356       1355  
      1224       1225       1236       1235       1345       1346       1357       1356  
      1225       1226       1237       1236       1346       1347       1358       1357  
      1226       1227       1238       1237       1347       1348       1359       1358  
      1227       1228       1239       1238       1348       1349       1360       1359  
      1228       1229       1240       1239       1349       1350       1361       1360  
      1229       1230       1241       1240       1350       1351       1362       1361  
      1230       1231       1242       1241       1351       1352       1363       1362  
      1231       1232       1243       1242       1352       1353       1364       1363  
      1233       1234       1245       1244       1354       1355       1366       1365  
      1234       1235       1246       1245       1355       1356       1367       1366  
      1235       1236       1247       1246       1356       1357       1368       1367  
      1236       1237       1248       1247       1357       1358       1369       1368  
      1237       1238       1249       1248       1358       1359       1370       1369  
      1238       1239       1250       1249       1359       1360       1371       1370  
      1239       1240       1251       1250       1360       1361       1372       1371  
      1240       1241       1252       1251       1361       1362       1373       1372  
      1241       1242       1253       1252       1362       1363       1374       1373  
      1242       1243       1254       1253       1363       1364       1375       1374  
      1244       1245       1256       1255       1365       1366       1377       1376  
      1245       1246       1257       1256       1366       1367       1378       1377  
      1246       1247       1258       1257       1367       1368       1379       1378  
      1247       1248       1259       1258       1368       1369       1380       1379  
      1248       1249       1260       1259       1369       1370       1381       1380  
      1249       1250       1261       1260       1370       1371       1382       1381  
      1250       1251       1262       1261       1371       1372       1383       1382  
      1251       1252       1263       1262       1372       1373       1384       1383  
      1252       1253       1264       1263       1373       1374       1385       1384  
      1253       1254       1265       1264       1374       1375       1386       1385  
      1255       1256       1267       1266       1376       1377       1388       1387  
      1256       1257       1268       1267       1377       1378       1389       1388  
      1257       1258       1269       1268       1378       1379       1390       1389  
      1258       1259       1270       1269       1379       1380       1391       1390  
      1259       1260       1271       1270       1380       1381       1392       1391  
      1260       1261       1272       1271       1381       1382       1393       1392  
      1261       1262       1273       1272       1382       1383       1394       1393  
      1262       1263       1274       1273       1383       1384       1395       1394  
      1263       1264       1275       1274       1384       1385       1396       1395  
      1264       1265       1276       1275       1385       1386       1397       1396  
      1266       1267       1278       1277       1387       1388       1399       1398  
      1267       1268       1279       1278       1388       1389       1400       1399  
      1268       1269       1280       1279       1389       1390       1401       1400  
      1269       1270       1281       1280       1390       1391       1402       1401  
      1270       1271       1282       1281       1391       1392       1403       1402  
      1271       1272       1283       1282       1392       1393       1404       1403  
      1272       1273       1284       1283       1393       1394       1405       1404  
      1273       1274       1285       1284       1394       1395       1406       1405  
      1274       1275       1286       1285       1395       1396       1407       1406  
      1275       1276       1287       1286       1396       1397       1408       1407  
      1277       1278       1289       1288       1398       1399       1410       1409  
      1278       1279       1290       1289       1399       1400       1411       1410  
      1279       1280       1291       1290       1400       1401       1412       1411  
      1280       1281       1292       1291       1401       1402       1413       1412  
      1281       1282       1293       1292       1402       1403       1414       1413  
      1282       1283       1294       1293       1403       1404       1415       1414  
      1283       1284       1295       1294       1404       1405       1416       1415  
      1284       1285       1296       1295       1405       1406       1417       1416  
      1285       1286       1297       1296       1406       1407       1418       1417  
      1286       1287       1298       1297       1407       1408       1419       1418  
      1288       1289       1300       1299       1409       1410       1421       1420  
      1289       1290       1301       1300       1410       1411       1422       1421  
      1290       1291       1302       1301       1411       1412       1423       1422  
      1291       1292       1303       1302       1412       1413       1424       1423  
      1292       1293       1304       1303       1413       1414       1425       1424  
      1293       1294       1305       1304       1414       1415       1426       1425  
      1294       1295       1306       1305       1415       1416       1427       1426  
      1295       1296       1307       1306       1416       1417       1428       1427  
      1296       1297       1308       1307       1417       1418       1429       1428  
      1297       1298       1309       1308       1418       1419       1430       1429  
      1299       1300       1311       1310       1420       1421       1432       1431  
      1300       1301       1312       1311       1421       1422       1433       1432  
      1301       1302       1313       1312       1422       1423       1434       1433  
      1302       1303       1314       1313       1423       1424       1435       1434  
      1303       1304       1315       1314       1424       1425       1436       1435  
      1304       1305       1316       1315       1425       1426       1437       1436  
      1305       1306       1317       1316       1426       1427       1438       1437  
      1306       1307       1318       1317       1427       1428       1439       1438  
      1307       1308       1319       1318       1428       1429       1440       1439  
      1308       1309       1320       1319       1429       1430       1441       1440  
      1310       1311       1322       1321       1431       1432       1443       1442  
      1311       1312       1323       1322       1432       1433       1444       1443  
      1312       1313       1324       1323       1433       1434       1445       1444  
      1313       1314       1325       1324       1434       1435       1446       1445  
      1314       1315       1326       1325       1435       1436       1447       1446  
      1315       1316       1327       1326       1436       1437       1448       1447  
      1316       1317       1328       1327       1437       1438       1449       1448  
      1317       1318       1329       1328       1438       1439       1450       1449  
      1318       1319       1330       1329       1439       1440       1451       1450  
      1319       1320       1331       1330       1440       1441       1452       1451  
      1332       1333       1344       1343       1453       1454       1465       1464  
      1333       1334       1345       1344       1454       1455       1466       1465  
      1334       1335       1346       1345       1455       1456       1467       1466  
      1335       1336       1347       1346       1456       1457       1468       1467  
      1336       1337       1348       1347       1457       1458       1469       1468  
      1337       1338       1349       1348       1458       1459       1470       1469  
      1338       1339       1350       1349       1459       1460       1471       1470  
      1339       1340       1351       1350       1460       1461       1472       1471  
      1340       1341       1352       1351       1461       1462       1473       1472  
      1341       1342       1353       1352       1462       1463       1474       1473  
      1343       1344       1355       1354       1464       1465       1476       1475  
      1344       1345       1356       1355       1465       1466       1477       1476  
      1345       1346       1357       1356       1466       1467       1478       1477  
      1346       1347       1358       1357       1467       1468       1479       1478  
      1347       1348       1359       1358       1468       1469       1480       1479  
      1348       1349       1360       1359       1469       1470       1481       1480  
      1349       1350       1361       1360       1470       1471       1482       1481  
      1350       1351       1362       1361       1471       1472       1483       1482  
      1351       1352       1363       1362       1472       1473       1484       1483  
      1352       1353       1364       1363       1473       1474       1485       1484  
      1354       1355       1366       1365       1475       1476       1487       1486  
      1355       1356       1367       1366       1476       1477       1488       1487  
      1356       1357       1368       1367       1477       1478       1489       1488  
      1357       1358       1369       1368       1478       1479       1490       1489  
      1358       1359       1370       1369       1479       1480       1491       1490  
      1359       1360       1371       1370       1480       1481       1492       1491  
      1360       1361       1372       1371       1481       1482       1493       1492  
      1361       1362       1373       1372       1482       1483       1494       1493  
      1362       1363       1374       1373       1483       1484       1495       1494  
      1363       1364       1375       1374       1484       1485       1496       1495  
      1365       1366       1377       1376       1486       1487       1498       1497  
      1366       1367       1378       1377       1487       1488       1499       1498  
      1367       1368       1379       1378       1488       1489       1500       1499  
      1368       1369       1380       1379       1489       1490       1501       1500  
      1369       1370       1381       1380       1490       1491       1502       1501  
      1370       1371       1382       1381       1491       1492       1503       1502  
      1371       1372       1383       1382       1492       1493       1504       1503  
      1372       1373       1384       1383       1493       1494       1505       1504  
      1373       1374       1385       1384       1494       1495       1506       1505  
      1374       1375       1386       1385       1495       1496       1507       1506  
      1376       1377       1388       1387       1497       1498       1509       1508  
      1377       1378       1389       1388       1498       1499       1510       1509  
      1378       1379       1390       1389       1499       1500       1511       1510  
      1379       1380       1391       1390       1500       1501       1512       1511  
      1380       1381       1392       1391       1501       1502       1513       1512  
      1381       1382       1393       1392       1502       1503       1514       1513  
      1382       1383       1394       1393       1503       1504       1515       1514  
      1383       1384       1395       1394       1504       1505       1516       1515  
      1384       1385       1396       1395       1505       1506       1517       1516  
      1385       1386       1397       1396       1506       1507       1518       1517  
      1387       1388       1399       1398       1508       1509       1520       1519  
      1388       1389       1400       1399       1509       1510       1521       1520  
      1389       1390       1401       1400       1510       1511       1522       1521  
      1390       1391       1402       1401       1511       1512       1523       1522  
      1391       1392       1403       1402       1512       1513       1524       1523  
      1392       1393       1404       1403       1513       1514       1525       1524  
      1393       1394       1405       1404       1514       1515       1526       1525  
      1394       1395       1406       1405       1515       1516       1527       1526  
      1395       1396       1407       1406       1516       1517       1528       1527  
      1396       1397       1408       1407       1517       1518       1529       1528  
      1398       1399       1410       1409       1519       1520       1531       1530  
      1399       1400       1411       1410       1520       1521       1532       1531  
      1400       1401       1412       1411       1521       1522       1533       1532  
      1401       1402       1413       1412       1522       1523       1534       1533  
      1402       1403       1414       1413       1523       1524       1535       1534  
      1403       1404       1415       1414       1524       1525       1536       1535  
      1404       1405       1416       1415       1525       1526       1537       1536  
      1405       1406       1417       1416       1526       1527       1538       1537  
      1406       1407       1418       1417       1527       1528       1539       1538  
      1407       1408       1419       1418       1528       1529       1540       1539  
      1409       1410       1421       1420       1530       1531       1542       1541  
      1410       1411       1422       1421       1531       1532       1543       1542  
      1411       1412       1423       1422       1532       1533       1544       1543  
      1412       1413       1424       1423       1533       1534       1545       1544  
      1413       1414       1425       1424       1534       1535       1546       1545  
      1414       1415       1426       1425       1535       1536       1547       1546  
      1415       1416       1427       1426       1536       1537       1548       1547  
      1416       1417       1428       1427       1537       1538       1549       1548  
      1417       1418       1429       1428       1538       1539       1550       1549  
      1418       1419       1430       1429       1539       1540       1551       1550  
      1420       1421       1432       1431       1541       1542       1553       1552  
      1421       1422       1433       1432       1542       1543       1554       1553  
      1422       1423       1434       1433       1543       1544       1555       1554  
      1423       1424       1435       1434       1544       1545       1556       1555  
      1424       1425       1436       1435       1545       1546       1557       1556  
      1425       1426       1437       1436       1546       1547       1558       1557  
      1426       1427       1438       1437       1547       1548       1559       1558  
      1427       1428       1439       1438       1548       1549       1560       1559  
      1428       1429       1440       1439       1549       1550       1561       1560  
      1429       1430       1441       1440       1550       1551       1562       1561  
      1431       1432       1443       1442       1552       1553       1564       1563  
      1432       1433       1444       1443       1553       1554       1565       1564  
      1433       1434       1445       1444       1554       1555       1566       1565  
      1434       1435       1446       1445       1555       1556       1567       1566  
      1435       1436       1447       1446       1556       1557       1568       1567  
      1436       1437       1448       1447       1557       1558       1569       1568  
      1437       1438       1449       1448       1558       1559       1570       1569  
      1438       1439       1450       1449       1559       1560       1571       1570  
      1439       1440       1451       1450       1560       1561       1572       1571  
      1440       1441       1452       1451       1561       1562       1573       1572  
      1453       1454       1465       1464       1574       1575       1586       1585  
      1454       1455       1466       1465       1575       1576       1587       1586  
      1455       1456       1467       1466       1576       1577       1588       1587  
      1456       1457       1468       1467       1577       1578       1589       1588  
      1457       1458       1469       1468       1578       1579       1590       1589  
      1458       1459       1470       1469       1579       1580       1591       1590  
      1459       1460       1471       1470       1580       1581       1592       1591  
      1460       1461       1472       1471       1581       1582       1593       1592  
      1461       1462       1473       1472       1582       1583       1594       1593  
      1462       1463       1474       1473       1583       1584       1595       1594  
      1464       1465       1476       1475       1585       1586       1597       1596  
      1465       1466       1477       1476       1586       1587       1598       1597  
      1466       1467       1478       1477       1587       1588       1599       1598  
      1467       1468       1479       1478       1588       1589       1600       1599  
      1468       1469       1480       1479       1589       1590       1601       1600  
      1469       1470       1481       1480       1590       1591       1602       1601  
      1470       1471       1482       1481       1591       1592       1603       1602  
      1471       1472       1483       1482       1592       1593       1604       1603  
      1472       1473       1484       1483       1593       1594       1605       1604  
      1473       1474       1485       1484       1594       1595       1606       1605  
      1475       1476       1487       1486       1596       1597       1608       1607  
      1476       1477       1488       1487       1597       1598       1609       1608  
      1477       1478       1489       1488       1598       1599       1610       1609  
      1478       1479       1490       1489       1599       1600       1611       1610  
      1479       1480       1491       1490       1600       1601       1612       1611  
      1480       1481       1492       1491       1601       1602       1613       1612  
      1481       1482       1493       1492       1602       1603       1614       1613  
      1482       1483       1494       1493       1603       1604       1615       1614  
      1483       1484       1495       1494       1604       1605       1616       1615  
      1484       1485       1496       1495       1605       1606       1617       1616  
      1486       1487       1498       1497       1607       1608       1619       1618  
      1487       1488       1499       1498       1608       1609       1620       1619  
      1488       1489       1500       1499       1609       1610       1621       1620  
      1489       1490       1501       1500       1610       1611       1622       1621  
      1490       1491       1502       1501       1611       1612       1623       1622  
      1491       1492       1503       1502       1612       1613       1624       1623  
      1492       1493       1504       1503       1613       1614       1625       1624  
      1493       1494       1505       1504       1614       1615       1626       1625  
      1494       1495       1506       1505       1615       1616       1627       1626  
      1495       1496       1507       1506       1616       1617       1628       1627  
      1497       1498       1509       1508       1618       1619       1630       1629  
      1498       1499       1510       1509       1619       1620       1631       1630  
      1499       1500       1511       1510       1620       1621       1632       1631  
      1500       1501       1512       1511       1621       1622       1633       1632  
      1501       1502       1513       1512       1622       1623       1634       1633  
      1502       1503       1514       1513       1623       1624       1635       1634  
      1503       1504       1515       1514       1624       1625       1636       1635  
      1504       1505       1516       1515       1625       1626       1637       1636  
      1505       1506       1517       1516       1626       1627       1638       1637  
      1506       1507       1518       1517       1627       1628       1639       1638  
      1508       1509       1520       1519       1629       1630       1641       1640  
      1509       1510       1521       1520       1630       1631       1642       1641  
      1510       1511       1522       1521       1631       1632       1643       1642  
      1511       1512       1523       1522       1632       1633       1644       1643  
      1512       1513       1524       1523       1633       1634       1645       1644  
      1513       1514       1525       1524       1634       1635       1646       1645  
      1514       1515       1526       1525       1635       1636       1647       1646  
      1515       1516       1527       1526       1636       1637       1648       1647  
      1516       1517       1528       1527       1637       1638       1649       1648  
      1517       1518       1529       1528       1638       1639       1650       1649  
      1519       1520       1531       1530       1640       1641       1652       1651  
      1520       1521       1532       1531       1641       1642       1653       1652  
      1521       1522       1533       1532       1642       1643       1654       1653  
      1522       1523       1534       1533       1643       1644       1655       1654  
      1523       1524       1535       1534       1644       1645       1656       1655  
      1524       1525       1536       1535       1645       1646       1657       1656  
      1525       1526       1537       1536       1646       1647       1658       1657  
      1526       1527       1538       1537       1647       1648       1659       1658  
      1527       1528       1539       1538       1648       1649       1660       1659  
      1528       1529       1540       1539       1649       1650       1661       1660  
      1530       1531       1542       1541       1651       1652       1663       1662  
      1531       1532       1543       1542       1652       1653       1664       1663  
      1532       1533       1544       1543       1653       1654       1665       1664  
      1533       1534       1545       1544       1654       1655       1666       1665  
      1534       1535       1546       1545       1655       1656       1667       1666  
      1535       1536       1547       1546       1656       1657       1668       1667  
      1536       1537       1548       1547       1657       1658       1669       1668  
      1537       1538       1549       1548       1658       1659       1670       1669  
      1538       1539       1550       1549       1659       1660       1671       1670  
      1539       1540       1551       1550       1660       1661       1672       1671  
      1541       1542       1553       1552       1662       1663       1674       1673  
      1542       1543       1554       1553       1663       1664       1675       1674  
      1543       1544       1555       1554       1664       1665       1676       1675  
      1544       1545       1556       1555       1665       1666       1677       1676  
      1545       1546       1557       1556       1666       1667       1678       1677  
      1546       1547       1558       1557       1667       1668       1679       1678  
      1547       1548       1559       1558       1668       1669       1680       1679  
      1548       1549       1560       1559       1669       1670       1681       1680  
      1549       1550       1561       1560       1670       1671       1682       1681  
      1550       1551       1562       1561       1671       1672       1683       1682  
      1552       1553       1564       1563       1673       1674       1685       1684  
      1553       1554       1565       1564       1674       1675       1686       1685  
      1554       1555       1566       1565       1675       1676       1687       1686  
      1555       1556       1567       1566       1676       1677       1688       1687  
      1556       1557       1568       1567       1677       1678       1689       1688  
      1557       1558       1569       1568       1678       1679       1690       1689  
      1558       1559       1570       1569       1679       1680       1691       1690  
      1559       1560       1571       1570       1680       1681       1692       1691  
      1560       1561       1572       1571       1681       1682       1693       1692  
      1561       1562       1573       1572       1682       1683       1694       1693  
      1574       1575       1586       1585       1695       1696       1707       1706  
      1575       1576       1587       1586       1696       1697       1708       1707  
      1576       1577       1588       1587       1697       1698       1709       1708  
      1577       1578       1589       1588       1698       1699       1710       1709  
      1578       1579       1590       1589       1699       1700       1711       1710  
      1579       1580       1591       1590       1700       1701       1712       1711  
      1580       1581       1592       1591       1701       1702       1713       1712  
      1581       1582       1593       1592       1702       1703       1714       1713  
      1582       1583       1594       1593       1703       1704       1715       1714  
      1583       1584       1595       1594       1704       1705       1716       1715  
      1585       1586       1597       1596       1706       1707       1718       1717  
      1586       1587       1598       1597       1707       1708       1719       1718  
      1587       1588       1599       1598       1708       1709       1720       1719  
      1588       1589       1600       1599       1709       1710       1721       1720  
      1589       1590       1601       1600       1710       1711       1722       1721  
      1590       1591       1602       1601       1711       1712       1723       1722  
      1591       1592       1603       1602       1712       1713       1724       1723  
      1592       1593       1604       1603       1713       1714       1725       1724  
      1593       1594       1605       1604       1714       1715       1726       1725  
      1594       1595       1606       1605       1715       1716       1727       1726  
      1596       1597       1608       1607       1717       1718       1729       1728  
      1597       1598       1609       1608       1718       1719       1730       1729  
      1598       1599       1610       1609       1719       1720       1731       1730  
      1599       1600       1611       1610       1720       1721       1732       1731  
      1600       1601       1612       1611       1721       1722       1733       1732  
      1601       1602       1613       1612       1722       1723       1734       1733  
      1602       1603       1614       1613       1723       1724       1735       1734  
      1603       1604       1615       1614       1724       1725       1736       1735  
      1604       1605       1616       1615       1725       1726       1737       1736  
      1605       1606       1617       1616       1726       1727       1738       1737  
      1607       1608       1619       1618       1728       1729       1740       1739  
      1608       1609       1620       1619       1729       1730       1741       1740  
      1609       1610       1621       1620       1730       1731       1742       1741  
      1610       1611       1622       1621       1731       1732       1743       1742  
      1611       1612       1623       1622       1732       1733       1744       1743  
      1612       1613       1624       1623       1733       1734       1745       1744  
      1613       1614       1625       1624       1734       1735       1746       1745  
      1614       1615       1626       1625       1735       1736       1747       1746  
      1615       1616       1627       1626       1736       1737       1748       1747  
      1616       1617       1628       1627       1737       1738       1749       1748  
      1618       1619       1630       1629       1739       1740       1751       1750  
      1619       1620       1631       1630       1740       1741       1752       1751  
      1620       1621       1632       1631       1741       1742       1753       1752  
      1621       1622       1633       1632       1742       1743       1754       1753  
      1622       1623       1634       1633       1743       1744       1755       1754  
      1623       1624       1635       1634       1744       1745       1756       1755  
      1624       1625       1636       1635       1745       1746       1757       1756  
      1625       1626       1637       1636       1746       1747       1758       1757  
      1626       1627       1638       1637       1747       1748       1759       1758  
      1627       1628       1639       1638       1748       1749       1760       1759  
      1629       1630       1641       1640       1750       1751       1762       1761  
      1630       1631       1642       1641       1751       1752       1763       1762  
      1631       1632       1643       1642       1752       1753       1764       1763  
      1632       1633       1644       1643       1753       1754       1765       1764  
      1633       1634       1645       1644       1754       1755       1766       1765  
      1634       1635       1646       1645       1755       1756       1767       1766  
      1635       1636       1647       1646       1756       1757       1768       1767  
      1636       1637       1648       1647       1757       1758       1769       1768  
      1637       1638       1649       1648       1758       1759       1770       1769  
      1638       1639       1650       1649       1759       1760       1771       1770  
      1640       1641       1652       1651       1761       1762       1773       1772  
      1641       1642       1653       1652       1762       1763       1774       1773  
      1642       1643       1654       1653       1763       1764       1775       1774  
      1643       1644       1655       1654       1764       1765       1776       1775  
      1644       1645       1656       1655       1765       1766       1777       1776  
      1645       1646       1657       1656       1766       1767       1778       1777  
      1646       1647       1658       1657       1767       1768       1779       1778  
      1647       1648       1659       1658       1768       1769       1780       1779  
      1648       1649       1660       1659       1769       1770       1781       1780  
      1649       1650       1661       1660       1770       1771       1782       1781  
      1651       1652       1663       1662       1772       1773       1784       1783  
      1652       1653       1664       1663       1773       1774       1785       1784  
      1653       1654       1665       1664       1774       1775       1786       1785  
      1654       1655       1666       1665       1775       1776       1787       1786  
      1655       1656       1667       1666       1776       1777       1788       1787  
      1656       1657       1668       1667       1777       1778       1789       1788  
      1657       1658       1669       1668       1778       1779       1790       1789  
      1658       1659       1670       1669       1779       1780       1791       1790  
      1659       1660       1671       1670       1780       1781       1792       1791  
      1660       1661       1672       1671       1781       1782       1793       1792  
      1662       1663       1674       1673       1783       1784       1795       1794  
      1663       1664       1675       1674       1784       1785       1796       1795  
      1664       1665       1676       1675       1785       1786       1797       1796  
      1665       1666       1677       1676       1786       1787       1798       1797  
      1666       1667       1678       1677       1787       1788       1799       1798  
      1667       1668       1679       1678       1788       1789       1800       1799  
      1668       1669       1680       1679       1789       1790       1801       1800  
      1669       1670       1681       1680       1790       1791       1802       1801  
      1670       1671       1682       1681       1791       1792       1803       1802  
      1671       1672       1683       1682       1792       1793       1804       1803  
      1673       1674       1685       1684       1794       1795       1806       1805  
      1674       1675       1686       1685       1795       1796       1807       1806  
      1675       1676       1687       1686       1796       1797       1808       1807  
      1676       1677       1688       1687       1797       1798       1809       1808  
      1677       1678       1689       1688       1798       1799       1810       1809  
      1678       1679       1690       1689       1799       1800       1811       1810  
      1679       1680       1691       1690       1800       1801       1812       1811  
      1680       1681       1692       1691       1801       1802       1813       1812  
      1681       1682       1693       1692       1802       1803       1814       1813  
      1682       1683       1694       1693       1803       1804       1815       1814  
      1695       1696       1707       1706       1816       1817       1828       1827  
      1696       1697       1708       1707       1817       1818       1829       1828  
      1697       1698       1709       1708       1818       1819       1830       1829  
      1698       1699       1710       1709       1819       1820       1831       1830  
      1699       1700       1711       1710       1820       1821       1832       1831  
      1700       1701       1712       1711       1821       1822       1833       1832  
      1701       1702       1713       1712       1822       1823       1834       1833  
      1702       1703       1714       1713       1823       1824       1835       1834  
      1703       1704       1715       1714       1824       1825       1836       1835  
      1704       1705       1716       1715       1825       1826       1837       1836  
      1706       1707       1718       1717       1827       1828       1839       1838  
      1707       1708       1719       1718       1828       1829       1840       1839  
      1708       1709       1720       1719       1829       1830       1841       1840  
      1709       1710       1721       1720       1830       1831       1842       1841  
      1710       1711       1722       1721       1831       1832       1843       1842  
      1711       1712       1723       1722       1832       1833       1844       1843  
      1712       1713       1724       1723       1833       1834       1845       1844  
      1713       1714       1725       1724       1834       1835       1846       1845  
      1714       1715       1726       1725       1835       1836       1847       1846  
      1715       1716       1727       1726       1836       1837       1848       1847  
      1717       1718       1729       1728       1838       1839       1850       1849  
      1718       1719       1730       1729       1839       1840       1851       1850  
      1719       1720       1731       1730       1840       1841       1852       1851  
      1720       1721       1732       1731       1841       1842       1853       1852  
      1721       1722       1733       1732       1842       1843       1854       1853  
      1722       1723       1734       1733       1843       1844       1855       1854  
      1723       1724       1735       1734       1844       1845       1856       1855  
      1724       1725       1736       1735       1845       1846       1857       1856  
      1725       1726       1737       1736       1846       1847       1858       1857  
      1726       1727       1738       1737       1847       1848       1859       1858  
      1728       1729       1740       1739       1849       1850       1861       1860  
      1729       1730       1741       1740       1850       1851       1862       1861  
      1730       1731       1742       1741       1851       1852       1863       1862  
      1731       1732       1743       1742       1852       1853       1864       1863  
      1732       1733       1744       1743       1853       1854       1865       1864  
      1733       1734       1745       1744       1854       1855       1866       1865  
      1734       1735       1746       1745       1855       1856       1867       1866  
      1735       1736       1747       1746       1856       1857       1868       1867  
      1736       1737       1748       1747       1857       1858       1869       1868  
      1737       1738       1749       1748       1858       1859       1870       1869  
      1739       1740       1751       1750       1860       1861       1872       1871  
      1740       1741       1752       1751       1861       1862       1873       1872  
      1741       1742       1753       1752       1862       1863       1874       1873  
      1742       1743       1754       1753       1863       1864       1875       1874  
      1743       1744       1755       1754       1864       1865       1876       1875  
      1744       1745       1756       1755       1865       1866       1877       1876  
      1745       1746       1757       1756       1866       1867       1878       1877  
      1746       1747       1758       1757       1867       1868       1879       1878  
      1747       1748       1759       1758       1868       1869       1880       1879  
      1748       1749       1760       1759       1869       1870       1881       1880  
      1750       1751       1762       1761       1871       1872       1883       1882  
      1751       1752       1763       1762       1872       1873       1884       1883  
      1752       1753       1764       1763       1873       1874       1885       1884  
      1753       1754       1765       1764       1874       1875       1886       1885  
      1754       1755       1766       1765       1875       1876       1887       1886  
      1755       1756       1767       1766       1876       1877       1888       1887  
      1756       1757       1768       1767       1877       1878       1889       1888  
      1757       1758       1769       1768       1878       1879       1890       1889  
      1758       1759       1770       1769       1879       1880       1891       1890  
      1759       1760       1771       1770       1880       1881       1892       1891  
      1761       1762       1773       1772       1882       1883       1894       1893  
      1762       1763       1774       1773       1883       1884       1895       1894  
      1763       1764       1775       1774       1884       1885       1896       1895  
      1764       1765       1776       1775       1885       1886       1897       1896  
      1765       1766       1777       1776       1886       1887       1898       1897  
      1766       1767       1778       1777       1887       1888       1899       1898  
      1767       1768       1779       1778       1888       1889       1900       1899  
      1768       1769       1780       1779       1889       1890       1901       1900  
      1769       1770       1781       1780       1890       1891       1902       1901  
      1770       1771       1782       1781       1891       1892       1903       1902  
      1772       1773       1784       1783       1893       1894       1905       1904  
      1773       1774       1785       1784       1894       1895       1906       1905  
      1774       1775       1786       1785       1895       1896       1907       1906  
      1775       1776       1787       1786       1896       1897       1908       1907  
      1776       1777       1788       1787       1897       1898       1909       1908  
      1777       1778       1789       1788       1898       1899       1910       1909  
      1778       1779       1790       1789       1899       1900       1911       1910  
      1779       1780       1791       1790       1900       1901       1912       1911  
      1780       1781       1792       1791       1901       1902       1913       1912  
      1781       1782       1793       1792       1902       1903       1914       1913  
      1783       1784       1795       1794       1904       1905       1916       1915  
      1784       1785       1796       1795       1905       1906       1917       1916  
      1785       1786       1797       1796       1906       1907       1918       1917  
      1786       1787       1798       1797       1907       1908       1919       1918  
      1787       1788       1799       1798       1908       1909       1920       1919  
      1788       1789       1800       1799       1909       1910       1921       1920  
      1789       1790       1801       1800       1910       1911       1922       1921  
      1790       1791       1802       1801       1911       1912       1923       1922  
      1791       1792       1803       1802       1912       1913       1924       1923  
      1792       1793       1804       1803       1913       1914       1925       1924  
      1794       1795       1806       1805       1915       1916       1927       1926  
      1795       1796       1807       1806       1916       1917       1928       1927  
      1796       1797       1808       1807       1917       1918       1929       1928  
      1797       1798       1809       1808       1918       1919       1930       1929  
      1798       1799       1810       1809       1919       1920       1931       1930  
      1799       1800       1811       1810       1920       1921       1932       1931  
      1800       1801       1812       1811       1921       1922       1933       1932  
      1801       1802       1813       1812       1922       1923       1934       1933  
      1802       1803       1814       1813       1923       1924       1935       1934  
      1803       1804       1815       1814       1924       1925       1936       1935  
      1816       1817       1828       1827       1937       1938       1949       1948  
      1817       1818       1829       1828       1938       1939       1950       1949  
      1818       1819       1830       1829       1939       1940       1951       1950  
      1819       1820       1831       1830       1940       1941       1952       1951  
      1820       1821       1832       1831       1941       1942       1953       1952  
      1821       1822       1833       1832       1942       1943       1954       1953  
      1822       1823       1834       1833       1943       1944       1955       1954  
      1823       1824       1835       1834       1944       1945       1956       1955  
      1824       1825       1836       1835       1945       1946       1957       1956  
      1825       1826       1837       1836       1946       1947       1958       1957  
      1827       1828       1839       1838       1948       1949       1960       1959  
      1828       1829       1840       1839       1949       1950       1961       1960  
      1829       1830       1841       1840       1950       1951       1962       1961  
      1830       1831       1842       1841       1951       1952       1963       1962  
      1831       1832       1843       1842       1952       1953       1964       1963  
      1832       1833       1844       1843       1953       1954       1965       1964  
      1833       1834       1845       1844       1954       1955       1966       1965  
      1834       1835       1846       1845       1955       1956       1967       1966  
      1835       1836       1847       1846       1956       1957       1968       1967  
      1836       1837       1848       1847       1957       1958       1969       1968  
      1838       1839       1850       1849       1959       1960       1971       1970  
      1839       1840       1851       1850       1960       1961       1972       1971  
      1840       1841       1852       1851       1961       1962       1973       1972  
      1841       1842       1853       1852       1962       1963       1974       1973  
      1842       1843       1854       1853       1963       1964       1975       1974  
      1843       1844       1855       1854       1964       1965       1976       1975  
      1844       1845       1856       1855       1965       1966       1977       1976  
      1845       1846       1857       1856       1966       1967       1978       1977  
      1846       1847       1858       1857       1967       1968       1979       1978  
      1847       1848       1859       1858       1968       1969       1980       1979  
      1849       1850       1861       1860       1970       1971       1982       1981  
      1850       1851       1862       1861       1971       1972       1983       1982  
      1851       1852       1863       1862       1972       1973       1984       1983  
      1852       1853       1864       1863       1973       1974       1985       1984  
      1853       1854       1865       1864       1974       1975       1986       1985  
      1854       1855       1866       1865       1975       1976       1987       1986  
      1855       1856       1867       1866       1976       1977       1988       1987  
      1856       1857       1868       1867       1977       1978       1989       1988  
      1857       1858       1869       1868       1978       1979       1990       1989  
      1858       1859       1870       1869       1979       1980       1991       1990  
      1860       1861       1872       1871       1981       1982       1993       1992  
      1861       1862       1873       1872       1982       1983       1994       1993  
      1862       1863       1874       1873       1983       1984       1995       1994  
      1863       1864       1875       1874       1984       1985       1996       1995  
      1864       1865       1876       1875       1985       1986       1997       1996  
      1865       1866       1877       1876       1986       1987       1998       1997  
      1866       1867       1878       1877       1987       1988       1999       1998  
      1867       1868       1879       1878       1988       1989       2000       1999  
      1868       1869       1880       1879       1989       1990       2001       2000  
      1869       1870       1881       1880       1990       1991       2002       2001  
      1871       1872       1883       1882       1992       1993       2004       2003  
      1872       1873       1884       1883       1993       1994       2005       2004  
      1873       1874       1885       1884       1994       1995       2006       2005  
      1874       1875       1886       1885       1995       1996       2007       2006  
      1875       1876       1887       1886       1996       1997       2008       2007  
      1876       1877       1888       1887       1997       1998       2009       2008  
      1877       1878       1889       1888       1998       1999       2010       2009  
      1878       1879       1890       1889       1999       2000       2011       2010  
      1879       1880       1891       1890       2000       2001       2012       2011  
      1880       1881       1892       1891       2001       2002       2013       2012  
      1882       1883       1894       1893       2003       2004       2015       2014  
      1883       1884       1895       1894       2004       2005       2016       2015  
      1884       1885       1896       1895       2005       2006       2017       2016  
      1885       1886       1897       1896       2006       2007       2018       2017  
      1886       1887       1898       1897       2007       2008       2019       2018  
      1887       1888       1899       1898       2008       2009       2020       2019  
      1888       1889       1900       1899       2009       2010       2021       2020  
      1889       1890       1901       1900       2010       2011       2022       2021  
      1890       1891       1902       1901       2011       2012       2023       2022  
      1891       1892       1903       1902       2012       2013       2024       2023  
      1893       1894       1905       1904       2014       2015       2026       2025  
      1894       1895       1906       1905       2015       2016       2027       2026  
      1895       1896       1907       1906       2016       2017       2028       2027  
      1896       1897       1908       1907       2017       2018       2029       2028  
      1897       1898       1909       1908       2018       2019       2030       2029  
      1898       1899       1910       1909       2019       2020       2031       2030  
      1899       1900       1911       1910       2020       2021       2032       2031  
      1900       1901       1912       1911       2021       2022       2033       2032  
      1901       1902       1913       1912       2022       2023       2034       2033  
      1902       1903       1914       1913       2023       2024       2035       2034  
      1904       1905       1916       1915       2025       2026       2037       2036  
      1905       1906       1917       1916       2026       2027       2038       2037  
      1906       1907       1918       1917       2027       2028       2039       2038  
      1907       1908       1919       1918       2028       2029       2040       2039  
      1908       1909       1920       1919       2029       2030       2041       2040  
      1909       1910       1921       1920       2030       2031       2042       2041  
      1910       1911       1922       1921       2031       2032       2043       2042  
      1911       1912       1923       1922       2032       2033       2044       2043  
      1912       1913       1924       1923       2033       2034       2045       2044  
      1913       1914       1925       1924       2034       2035       2046       2045  
      1915       1916       1927       1926       2036       2037       2048       2047  
      1916       1917       1928       1927       2037       2038       2049       2048  
      1917       1918       1929       1928       2038       2039       2050       2049  
      1918       1919       1930       1929       2039       2040       2051       2050  
      1919       1920       1931       1930       2040       2041       2052       2051  
      1920       1921       1932       1931       2041       2042       2053       2052  
      1921       1922       1933       1932       2042       2043       2054       2053  
      1922       1923       1934       1933       2043       2044       2055       2054  
      1923       1924       1935       1934       2044       2045       2056       2055  
      1924       1925       1936       1935       2045       2046       2057       2056  
      1937       1938       1949       1948       2058       2059       2070       2069  
      1938       1939       1950       1949       2059       2060       2071       2070  
      1939       1940       1951       1950       2060       2061       2072       2071  
      1940       1941       1952       1951       2061       2062       2073       2072  
      1941       1942       1953       1952       2062       2063       2074       2073  
      1942       1943       1954       1953       2063       2064       2075       2074  
      1943       1944       1955       1954       2064       2065       2076       2075  
      1944       1945       1956       1955       2065       2066       2077       2076  
      1945       1946       1957       1956       2066       2067       2078       2077  
      1946       1947       1958       1957       2067       2068       2079       2078  
      1948       1949       1960       1959       2069       2070       2081       2080  
      1949       1950       1961       1960       2070       2071       2082       2081  
      1950       1951       1962       1961       2071       2072       2083       2082  
      1951       1952       1963       1962       2072       2073       2084       2083  
      1952       1953       1964       1963       2073       2074       2085       2084  
      1953       1954       1965       1964       2074       2075       2086       2085  
      1954       1955       1966       1965       2075       2076       2087       2086  
      1955       1956       1967       1966       2076       2077       2088       2087  
      1956       1957       1968       1967       2077       2078       2089       2088  
      1957       1958       1969       1968       2078       2079       2090       2089  
      1959       1960       1971       1970       2080       2081       2092       2091  
      1960       1961       1972       1971       2081       2082       2093       2092  
      1961       1962       1973       1972       2082       2083       2094       2093  
      1962       1963       1974       1973       2083       2084       2095       2094  
      1963       1964       1975       1974       2084       2085       2096       2095  
      1964       1965       1976       1975       2085       2086       2097       2096  
      1965       1966       1977       1976       2086       2087       2098       2097  
      1966       1967       1978       1977       2087       2088       2099       2098  
      1967       1968       1979       1978       2088       2089       2100       2099  
      1968       1969       1980       1979       2089       2090       2101       2100  
      1970       1971       1982       1981       2091       2092       2103       2102  
      1971       1972       1983       1982       2092       2093       2104       2103  
      1972       1973       1984       1983       2093       2094       2105       2104  
      1973       1974       1985       1984       2094       2095       2106       2105  
      1974       1975       1986       1985       2095       2096       2107       2106  
      1975       1976       1987       1986       2096       2097       2108       2107  
      1976       1977       1988       1987       2097       2098       2109       2108  
      1977       1978       1989       1988       2098       2099       2110       2109  
      1978       1979       1990       1989       2099       2100       2111       2110  
      1979       1980       1991       1990       2100       2101       2112       2111  
      1981       1982       1993       1992       2102       2103       2114       2113  
      1982       1983       1994       1993       2103       2104       2115       2114  
      1983       1984       1995       1994       2104       2105       2116       2115  
      1984       1985       1996       1995       2105       2106       2117       2116  
      1985       1986       1997       1996       2106       2107       2118       2117  
      1986       1987       1998       1997       2107       2108       2119       2118  
      1987       1988       1999       1998       2108       2109       2120       2119  
      1988       1989       2000       1999       2109       2110       2121       2120  
      1989       1990       2001       2000       2110       2111       2122       2121  
      1990       1991       2002       2001       2111       2112       2123       2122  
      1992       1993       2004       2003       2113       2114       2125       2124  
      1993       1994       2005       2004       2114       2115       2126       2125  
      1994       1995       2006       2005       2115       2116       2127       2126  
      1995       1996       2007       2006       2116       2117       2128       2127  
      1996       1997       2008       2007       2117       2118       2129       2128  
      1997       1998       2009       2008       2118       2119       2130       2129  
      1998       1999       2010       2009       2119       2120       2131       2130  
      1999       2000       2011       2010       2120       2121       2132       2131  
      2000       2001       2012       2011       2121       2122       2133       2132  
      2001       2002       2013       2012       2122       2123       2134       2133  
      2003       2004       2015       2014       2124       2125       2136       2135  
      2004       2005       2016       2015       2125       2126       2137       2136  
      2005       2006       2017       2016       2126       2127       2138       2137  
      2006       2007       2018       2017       2127       2128       2139       2138  
      2007       2008       2019       2018       2128       2129       2140       2139  
      2008       2009       2020       2019       2129       2130       2141       2140  
      2009       2010       2021       2020       2130       2131       2142       2141  
      2010       2011       2022       2021       2131       2132       2143       2142  
      2011       2012       2023       2022       2132       2133       2144       2143  
      2012       2013       2024       2023       2133       2134       2145       2144  
      2014       2015       2026       2025       2135       2136       2147       2146  
      2015       2016       2027       2026       2136       2137       2148       2147  
      2016       2017       2028       2027       2137       2138       2149       2148  
      2017       2018       2029       2028       2138       2139       2150       2149  
      2018       2019       2030       2029       2139       2140       2151       2150  
      2019       2020       2031       2030       2140       2141       2152       2151  
      2020       2021       2032       2031       2141       2142       2153       2152  
      2021       2022       2033       2032       2142       2143       2154       2153  
      2022       2023       2034       2033       2143       2144       2155       2154  
      2023       2024       2035       2034       2144       2145       2156       2155  
      2025       2026       2037       2036       2146       2147       2158       2157  
      2026       2027       2038       2037       2147       2148       2159       2158  
      2027       2028       2039       2038       2148       2149       2160       2159  
      2028       2029       2040       2039       2149       2150       2161       2160  
      2029       2030       2041       2040       2150       2151       2162       2161  
      2030       2031       2042       2041       2151       2152       2163       2162  
      2031       2032       2043       2042       2152       2153       2164       2163  
      2032       2033       2044       2043       2153       2154       2165       2164  
      2033       2034       2045       2044       2154       2155       2166       2165  
      2034       2035       2046       2045       2155       2156       2167       2166  
      2036       2037       2048       2047       2157       2158       2169       2168  
      2037       2038       2049       2048       2158       2159       2170       2169  
      2038       2039       2050       2049       2159       2160       2171       2170  
      2039       2040       2051       2050       2160       2161       2172       2171  
      2040       2041       2052       2051       2161       2162       2173       2172  
      2041       2042       2053       2052       2162       2163       2174       2173  
      2042       2043       2054       2053       2163       2164       2175       2174  
      2043       2044       2055       2054       2164       2165       2176       2175  
      2044       2045       2056       2055       2165       2166       2177       2176  
      2045       2046       2057       2056       2166       2167       2178       2177  
      2058       2059       2070       2069       2179       2180       2191       2190  
      2059       2060       2071       2070       2180       2181       2192       2191  
      2060       2061       2072       2071       2181       2182       2193       2192  
      2061       2062       2073       2072       2182       2183       2194       2193  
      2062       2063       2074       2073       2183       2184       2195       2194  
      2063       2064       2075       2074       2184       2185       2196       2195  
      2064       2065       2076       2075       2185       2186       2197       2196  
      2065       2066       2077       2076       2186       2187       2198       2197  
      2066       2067       2078       2077       2187       2188       2199       2198  
      2067       2068       2079       2078       2188       2189       2200       2199  
      2069       2070       2081       2080       2190       2191       2202       2201  
      2070       2071       2082       2081       2191       2192       2203       2202  
      2071       2072       2083       2082       2192       2193       2204       2203  
      2072       2073       2084       2083       2193       2194       2205       2204  
      2073       2074       2085       2084       2194       2195       2206       2205  
      2074       2075       2086       2085       2195       2196       2207       2206  
      2075       2076       2087       2086       2196       2197       2208       2207  
      2076       2077       2088       2087       2197       2198       2209       2208  
      2077       2078       2089       2088       2198       2199       2210       2209  
      2078       2079       2090       2089       2199       2200       2211       2210  
      2080       2081       2092       2091       2201       2202       2213       2212  
      2081       2082       2093       2092       2202       2203       2214       2213  
      2082       2083       2094       2093       2203       2204       2215       2214  
      2083       2084       2095       2094       2204       2205       2216       2215  
      2084       2085       2096       2095       2205       2206       2217       2216  
      2085       2086       2097       2096       2206       2207       2218       2217  
      2086       2087       2098       2097       2207       2208       2219       2218  
      2087       2088       2099       2098       2208       2209       2220       2219  
      2088       2089       2100       2099       2209       2210       2221       2220  
      2089       2090       2101       2100       2210       2211       2222       2221  
      2091       2092       2103       2102       2212       2213       2224       2223  
      2092       2093       2104       2103       2213       2214       2225       2224  
      2093       2094       2105       2104       2214       2215       2226       2225  
      2094       2095       2106       2105       2215       2216       2227       2226  
      2095       2096       2107       2106       2216       2217       2228       2227  
      2096       2097       2108       2107       2217       2218       2229       2228  
      2097       2098       2109       2108       2218       2219       2230       2229  
      2098       2099       2110       2109       2219       2220       2231       2230  
      2099       2100       2111       2110       2220       2221       2232       2231  
      2100       2101       2112       2111       2221       2222       2233       2232  
      2102       2103       2114       2113       2223       2224       2235       2234  
      2103       2104       2115       2114       2224       2225       2236       2235  
      2104       2105       2116       2115       2225       2226       2237       2236  
      2105       2106       2117       2116       2226       2227       2238       2237  
      2106       2107       2118       2117       2227       2228       2239       2238  
      2107       2108       2119       2118       2228       2229       2240       2239  
      2108       2109       2120       2119       2229       2230       2241       2240  
      2109       2110       2121       2120       2230       2231       2242       2241  
      2110       2111       2122       2121       2231       2232       2243       2242  
      2111       2112       2123       2122       2232       2233       2244       2243  
      2113       2114       2125       2124       2234       2235       2246       2245  
      2114       2115       2126       2125       2235       2236       2247       2246  
      2115       2116       2127       2126       2236       2237       2248       2247  
      2116       2117       2128       2127       2237       2238       2249       2248  
      2117       2118       2129       2128       2238       2239       2250       2249  
      2118       2119       2130       2129       2239       2240       2251       2250  
      2119       2120       2131       2130       2240       2241       2252       2251  
      2120       2121       2132       2131       2241       2242       2253       2252  
      2121       2122       2133       2132       2242       2243       2254       2253  
      2122       2123       2134       2133       2243       2244       2255       2254  
      2124       2125       2136       2135       2245       2246       2257       2256  
      2125       2126       2137       2136       2246       2247       2258       2257  
      2126       2127       2138       2137       2247       2248       2259       2258  
      2127       2128       2139       2138       2248       2249       2260       2259  
      2128       2129       2140       2139       2249       2250       2261       2260  
      2129       2130       2141       2140       2250       2251       2262       2261  
      2130       2131       2142       2141       2251       2252       2263       2262  
      2131       2132       2143       2142       2252       2253       2264       2263  
      2132       2133       2144       2143       2253       2254       2265       2264  
      2133       2134       2145       2144       2254       2255       2266       2265  
      2135       2136       2147       2146       2256       2257       2268       2267  
      2136       2137       2148       2147       2257       2258       2269       2268  
      2137       2138       2149       2148       2258       2259       2270       2269  
      2138       2139       2150       2149       2259       2260       2271       2270  
      2139       2140       2151       2150       2260       2261       2272       2271  
      2140       2141       2152       2151       2261       2262       2273       2272  
      2141       2142       2153       2152       2262       2263       2274       2273  
      2142       2143       2154       2153       2263       2264       2275       2274  
      2143       2144       2155       2154       2264       2265       2276       2275  
      2144       2145       2156       2155       2265       2266       2277       2276  
      2146       2147       2158       2157       2267       2268       2279       2278  
      2147       2148       2159       2158       2268       2269       2280       2279  
      2148       2149       2160       2159       2269       2270       2281       2280  
      2149       2150       2161       2160       2270       2271       2282       2281  
      2150       2151       2162       2161       2271       2272       2283       2282  
      2151       2152       2163       2162       2272       2273       2284       2283  
      2152       2153       2164       2163       2273       2274       2285       2284  
      2153       2154       2165       2164       2274       2275       2286       2285  
      2154       2155       2166       2165       2275       2276       2287       2286  
      2155       2156       2167       2166       2276       2277       2288       2287  
      2157       2158       2169       2168       2278       2279       2290       2289  
      2158       2159       2170       2169       2279       2280       2291       2290  
      2159       2160       2171       2170       2280       2281       2292       2291  
      2160       2161       2172       2171       2281       2282       2293       2292  
      2161       2162       2173       2172       2282       2283       2294       2293  
      2162       2163       2174       2173       2283       2284       2295       2294  
      2163       2164       2175       2174       2284       2285       2296       2295  
      2164       2165       2176       2175       2285       2286       2297       2296  
      2165       2166       2177       2176       2286       2287       2298       2297  
      2166       2167       2178       2177       2287       2288       2299       2298  
      2179       2180       2191       2190       2300       2301       2312       2311  
      2180       2181       2192       2191       2301       2302       2313       2312  
      2181       2182       2193       2192       2302       2303       2314       2313  
      2182       2183       2194       2193       2303       2304       2315       2314  
      2183       2184       2195       2194       2304       2305       2316       2315  
      2184       2185       2196       2195       2305       2306       2317       2316  
      2185       2186       2197       2196       2306       2307       2318       2317  
      2186       2187       2198       2197       2307       2308       2319       2318  
      2187       2188       2199       2198       2308       2309       2320       2319  
      2188       2189       2200       2199       2309       2310       2321       2320  
      2190       2191       2202       2201       2311       2312       2323       2322  
      2191       2192       2203       2202       2312       2313       2324       2323  
      2192       2193       2204       2203       2313       2314       2325       2324  
      2193       2194       2205       2204       2314       2315       2326       2325  
      2194       2195       2206       2205       2315       2316       2327       2326  
      2195       2196       2207       2206       2316       2317       2328       2327  
      2196       2197       2208       2207       2317       2318       2329       2328  
      2197       2198       2209       2208       2318       2319       2330       2329  
      2198       2199       2210       2209       2319       2320       2331       2330  
      2199       2200       2211       2210       2320       2321       2332       2331  
      2201       2202       2213       2212       2322       2323       2334       2333  
      2202       2203       2214       2213       2323       2324       2335       2334  
      2203       2204       2215       2214       2324       2325       2336       2335  
      2204       2205       2216       2215       2325       2326       2337       2336  
      2205       2206       2217       2216       2326       2327       2338       2337  
      2206       2207       2218       2217       2327       2328       2339       2338  
      2207       2208       2219       2218       2328       2329       2340       2339  
      2208       2209       2220       2219       2329       2330       2341       2340  
      2209       2210       2221       2220       2330       2331       2342       2341  
      2210       2211       2222       2221       2331       2332       2343       2342  
      2212       2213       2224       2223       2333       2334       2345       2344  
      2213       2214       2225       2224       2334       2335       2346       2345  
      2214       2215       2226       2225       2335       2336       2347       2346  
      2215       2216       2227       2226       2336       2337       2348       2347  
      2216       2217       2228       2227       2337       2338       2349       2348  
      2217       2218       2229       2228       2338       2339       2350       2349  
      2218       2219       2230       2229       2339       2340       2351       2350  
      2219       2220       2231       2230       2340       2341       2352       2351  
      2220       2221       2232       2231       2341       2342       2353       2352  
      2221       2222       2233       2232       2342       2343       2354       2353  
      2223       2224       2235       2234       2344       2345       2356       2355  
      2224       2225       2236       2235       2345       2346       2357       2356  
      2225       2226       2237       2236       2346       2347       2358       2357  
      2226       2227       2238       2237       2347       2348       2359       2358  
      2227       2228       2239       2238       2348       2349       2360       2359  
      2228       2229       2240       2239       2349       2350       2361       2360  
      2229       2230       2241       2240       2350       2351       2362       2361  
      2230       2231       2242       2241       2351       2352       2363       2362  
      2231       2232       2243       2242       2352       2353       2364       2363  
      2232       2233       2244       2243       2353       2354       2365       2364  
      2234       2235       2246       2245       2355       2356       2367       2366  
      2235       2236       2247       2246       2356       2357       2368       2367  
      2236       2237       2248       2247       2357       2358       2369       2368  
      2237       2238       2249       2248       2358       2359       2370       2369  
      2238       2239       2250       2249       2359       2360       2371       2370  
      2239       2240       2251       2250       2360       2361       2372       2371  
      2240       2241       2252       2251       2361       2362       2373       2372  
      2241       2242       2253       2252       2362       2363       2374       2373  
      2242       2243       2254       2253       2363       2364       2375       2374  
      2243       2244       2255       2254       2364       2365       2376       2375  
      2245       2246       2257       2256       2366       2367       2378       2377  
      2246       2247       2258       2257       2367       2368       2379       2378  
      2247       2248       2259       2258       2368       2369       2380       2379  
      2248       2249       2260       2259       2369       2370       2381       2380  
      2249       2250       2261       2260       2370       2371       2382       2381  
      2250       2251       2262       2261       2371       2372       2383       2382  
      2251       2252       2263       2262       2372       2373       2384       2383  
      2252       2253       2264       2263       2373       2374       2385       2384  
      2253       2254       2265       2264       2374       2375       2386       2385  
      2254       2255       2266       2265       2375       2376       2387       2386  
      2256       2257       2268       2267       2377       2378       2389       2388  
      2257       2258       2269       2268       2378       2379       2390       2389  
      2258       2259       2270       2269       2379       2380       2391       2390  
      2259       2260       2271       2270       2380       2381       2392       2391  
      2260       2261       2272       2271       2381       2382       2393       2392  
      2261       2262       2273       2272       2382       2383       2394       2393  
      2262       2263       2274       2273       2383       2384       2395       2394  
      2263       2264       2275       2274       2384       2385       2396       2395  
      2264       2265       2276       2275       2385       2386       2397       2396  
      2265       2266       2277       2276       2386       2387       2398       2397  
      2267       2268       2279       2278       2388       2389       2400       2399  
      2268       2269       2280       2279       2389       2390       2401       2400  
      2269       2270       2281       2280       2390       2391       2402       2401  
      2270       2271       2282       2281       2391       2392       2403       2402  
      2271       2272       2283       2282       2392       2393       2404       2403  
      2272       2273       2284       2283       2393       2394       2405       2404  
      2273       2274       2285       2284       2394       2395       2406       2405  
      2274       2275       2286       2285       2395       2396       2407       2406  
      2275       2276       2287       2286       2396       2397       2408       2407  
      2276       2277       2288       2287       2397       2398       2409       2408  
      2278       2279       2290       2289       2399       2400       2411       2410  
      2279       2280       2291       2290       2400       2401       2412       2411  
      2280       2281       2292       2291       2401       2402       2413       2412  
      2281       2282       2293       2292       2402       2403       2414       2413  
      2282       2283       2294       2293       2403       2404       2415       2414  
      2283       2284       2295       2294       2404       2405       2416       2415  
      2284       2285       2296       2295       2405       2406       2417       2416  
      2285       2286       2297       2296       2406       2407       2418       2417  
      2286       2287       2298       2297       2407       2408       2419       2418  
      2287       2288       2299       2298       2408       2409       2420       2419  
      2300       2301       2312       2311       2421       2422       2433       2432  
      2301       2302       2313       2312       2422       2423       2434       2433  
      2302       2303       2314       2313       2423       2424       2435       2434  
      2303       2304       2315       2314       2424       2425       2436       2435  
      2304       2305       2316       2315       2425       2426       2437       2436  
      2305       2306       2317       2316       2426       2427       2438       2437  
      2306       2307       2318       2317       2427       2428       2439       2438  
      2307       2308       2319       2318       2428       2429       2440       2439  
      2308       2309       2320       2319       2429       2430       2441       2440  
      2309       2310       2321       2320       2430       2431       2442       2441  
      2311       2312       2323       2322       2432       2433       2444       2443  
      2312       2313       2324       2323       2433       2434       2445       2444  
      2313       2314       2325       2324       2434       2435       2446       2445  
      2314       2315       2326       2325       2435       2436       2447       2446  
      2315       2316       2327       2326       2436       2437       2448       2447  
      2316       2317       2328       2327       2437       2438       2449       2448  
      2317       2318       2329       2328       2438       2439       2450       2449  
      2318       2319       2330       2329       2439       2440       2451       2450  
      2319       2320       2331       2330       2440       2441       2452       2451  
      2320       2321       2332       2331       2441       2442       2453       2452  
      2322       2323       2334       2333       2443       2444       2455       2454  
      2323       2324       2335       2334       2444       2445       2456       2455  
      2324       2325       2336       2335       2445       2446       2457       2456  
      2325       2326       2337       2336       2446       2447       2458       2457  
      2326       2327       2338       2337       2447       2448       2459       2458  
      2327       2328       2339       2338       2448       2449       2460       2459  
      2328       2329       2340       2339       2449       2450       2461       2460  
      2329       2330       2341       2340       2450       2451       2462       2461  
      2330       2331       2342       2341       2451       2452       2463       2462  
      2331       2332       2343       2342       2452       2453       2464       2463  
      2333       2334       2345       2344       2454       2455       2466       2465  
      2334       2335       2346       2345       2455       2456       2467       2466  
      2335       2336       2347       2346       2456       2457       2468       2467  
      2336       2337       2348       2347       2457       2458       2469       2468  
      2337       2338       2349       2348       2458       2459       2470       2469  
      2338       2339       2350       2349       2459       2460       2471       2470  
      2339       2340       2351       2350       2460       2461       2472       2471  
      2340       2341       2352       2351       2461       2462       2473       2472  
      2341       2342       2353       2352       2462       2463       2474       2473  
      2342       2343       2354       2353       2463       2464       2475       2474  
      2344       2345       2356       2355       2465       2466       2477       2476  
      2345       2346       2357       2356       2466       2467       2478       2477  
      2346       2347       2358       2357       2467       2468       2479       2478  
      2347       2348       2359       2358       2468       2469       2480       2479  
      2348       2349       2360       2359       2469       2470       2481       2480  
      2349       2350       2361       2360       2470       2471       2482       2481  
      2350       2351       2362       2361       2471       2472       2483       2482  
      2351       2352       2363       2362       2472       2473       2484       2483  
      2352       2353       2364       2363       2473       2474       2485       2484  
      2353       2354       2365       2364       2474       2475       2486       2485  
      2355       2356       2367       2366       2476       2477       2488       2487  
      2356       2357       2368       2367       2477       2478       2489       2488  
      2357       2358       2369       2368       2478       2479       2490       2489  
      2358       2359       2370       2369       2479       2480       2491       2490  
      2359       2360       2371       2370       2480       2481       2492       2491  
      2360       2361       2372       2371       2481       2482       2493       2492  
      2361       2362       2373       2372       2482       2483       2494       2493  
      2362       2363       2374       2373       2483       2484       2495       2494  
      2363       2364       2375       2374       2484       2485       2496       2495  
      2364       2365       2376       2375       2485       2486       2497       2496  
      2366       2367       2378       2377       2487       2488       2499       2498  
      2367       2368       2379       2378       2488       2489       2500       2499  
      2368       2369       2380       2379       2489       2490       2501       2500  
      2369       2370       2381       2380       2490       2491       2502       2501  
      2370       2371       2382       2381       2491       2492       2503       2502  
      2371       2372       2383       2382       2492       2493       2504       2503  
      2372       2373       2384       2383       2493       2494       2505       2504  
      2373       2374       2385       2384       2494       2495       2506       2505  
      2374       2375       2386       2385       2495       2496       2507       2506  
      2375       2376       2387       2386       2496       2497       2508       2507  
      2377       2378       2389       2388       2498       2499       2510       2509  
      2378       2379       2390       2389       2499       2500       2511       2510  
      2379       2380       2391       2390       2500       2501       2512       2511  
      2380       2381       2392       2391       2501       2502       2513       2512  
      2381       2382       2393       2392       2502       2503       2514       2513  
      2382       2383       2394       2393       2503       2504       2515       2514  
      2383       2384       2395       2394       2504       2505       2516       2515  
      2384       2385       2396       2395       2505       2506       2517       2516  
      2385       2386       2397       2396       2506       2507       2518       2517  
      2386       2387       2398       2397       2507       2508       2519       2518  
      2388       2389       2400       2399       2509       2510       2521       2520  
      2389       2390       2401       2400       2510       2511       2522       2521  
      2390       2391       2402       2401       2511       2512       2523       2522  
      2391       2392       2403       2402       2512       2513       2524       2523  
      2392       2393       2404       2403       2513       2514       2525       2524  
      2393       2394       2405       2404       2514       2515       2526       2525  
      2394       2395       2406       2405       2515       2516       2527       2526  
      2395       2396       2407       2406       2516       2517       2528       2527  
      2396       2397       2408       2407       2517       2518       2529       2528  
      2397       2398       2409       2408       2518       2519       2530       2529  
      2399       2400       2411       2410       2520       2521       2532       2531  
      2400       2401       2412       2411       2521       2522       2533       2532  
      2401       2402       2413       2412       2522       2523       2534       2533  
      2402       2403       2414       2413       2523       2524       2535       2534  
      2403       2404       2415       2414       2524       2525       2536       2535  
      2404       2405       2416       2415       2525       2526       2537       2536  
      2405       2406       2417       2416       2526       2527       2538       2537  
      2406       2407       2418       2417       2527       2528       2539       2538  
      2407       2408       2419       2418       2528       2529       2540       2539  
      2408       2409       2420       2419       2529       2530       2541       2540  
      2421       2422       2433       2432       2542       2543       2554       2553  
      2422       2423       2434       2433       2543       2544       2555       2554  
      2423       2424       2435       2434       2544       2545       2556       2555  
      2424       2425       2436       2435       2545       2546       2557       2556  
      2425       2426       2437       2436       2546       2547       2558       2557  
      2426       2427       2438       2437       2547       2548       2559       2558  
      2427       2428       2439       2438       2548       2549       2560       2559  
      2428       2429       2440       2439       2549       2550       2561       2560  
      2429       2430       2441       2440       2550       2551       2562       2561  
      2430       2431       2442       2441       2551       2552       2563       2562  
      2432       2433       2444       2443       2553       2554       2565       2564  
      2433       2434       2445       2444       2554       2555       2566       2565  
      2434       2435       2446       2445       2555       2556       2567       2566  
      2435       2436       2447       2446       2556       2557       2568       2567  
      2436       2437       2448       2447       2557       2558       2569       2568  
      2437       2438       2449       2448       2558       2559       2570       2569  
      2438       2439       2450       2449       2559       2560       2571       2570  
      2439       2440       2451       2450       2560       2561       2572       2571  
      2440       2441       2452       2451       2561       2562       2573       2572  
      2441       2442       2453       2452       2562       2563       2574       2573  
      2443       2444       2455       2454       2564       2565       2576       2575  
      2444       2445       2456       2455       2565       2566       2577       2576  
      2445       2446       2457       2456       2566       2567       2578       2577  
      2446       2447       2458       2457       2567       2568       2579       2578  
      2447       2448       2459       2458       2568       2569       2580       2579  
      2448       2449       2460       2459       2569       2570       2581       2580  
      2449       2450       2461       2460       2570       2571       2582       2581  
      2450       2451       2462       2461       2571       2572       2583       2582  
      2451       2452       2463       2462       2572       2573       2584       2583  
      2452       2453       2464       2463       2573       2574       2585       2584  
      2454       2455       2466       2465       2575       2576       2587       2586  
      2455       2456       2467       2466       2576       2577       2588       2587  
      2456       2457       2468       2467       2577       2578       2589       2588  
      2457       2458       2469       2468       2578       2579       2590       2589  
      2458       2459       2470       2469       2579       2580       2591       2590  
      2459       2460       2471       2470       2580       2581       2592       2591  
      2460       2461       2472       2471       2581       2582       2593       2592  
      2461       2462       2473       2472       2582       2583       2594       2593  
      2462       2463       2474       2473       2583       2584       2595       2594  
      2463       2464       2475       2474       2584       2585       2596       2595  
      2465       2466       2477       2476       2586       2587       2598       2597  
      2466       2467       2478       2477       2587       2588       2599       2598  
      2467       2468       2479       2478       2588       2589       2600       2599  
      2468       2469       2480       2479       2589       2590       2601       2600  
      2469       2470       2481       2480       2590       2591       2602       2601  
      2470       2471       2482       2481       2591       2592       2603       2602  
      2471       2472       2483       2482       2592       2593       2604       2603  
      2472       2473       2484       2483       2593       2594       2605       2604  
      2473       2474       2485       2484       2594       2595       2606       2605  
      2474       2475       2486       2485       2595       2596       2607       2606  
      2476       2477       2488       2487       2597       2598       2609       2608  
      2477       2478       2489       2488       2598       2599       2610       2609  
      2478       2479       2490       2489       2599       2600       2611       2610  
      2479       2480       2491       2490       2600       2601       2612       2611  
      2480       2481       2492       2491       2601       2602       2613       2612  
      2481       2482       2493       2492       2602       2603       2614       2613  
      2482       2483       2494       2493       2603       2604       2615       2614  
      2483       2484       2495       2494       2604       2605       2616       2615  
      2484       2485       2496       2495       2605       2606       2617       2616  
      2485       2486       2497       2496       2606       2607       2618       2617  
      2487       2488       2499       2498       2608       2609       2620       2619  
      2488       2489       2500       2499       2609       2610       2621       2620  
      2489       2490       2501       2500       2610       2611       2622       2621  
      2490       2491       2502       2501       2611       2612       2623       2622  
      2491       2492       2503       2502       2612       2613       2624       2623  
      2492       2493       2504       2503       2613       2614       2625       2624  
      2493       2494       2505       2504       2614       2615       2626       2625  
      2494       2495       2506       2505       2615       2616       2627       2626  
      2495       2496       2507       2506       2616       2617       2628       2627  
      2496       2497       2508       2507       2617       2618       2629       2628  
      2498       2499       2510       2509       2619       2620       2631       2630  
      2499       2500       2511       2510       2620       2621       2632       2631  
      2500       2501       2512       2511       2621       2622       2633       2632  
      2501       2502       2513       2512       2622       2623       2634       2633  
      2502       2503       2514       2513       2623       2624       2635       2634  
      2503       2504       2515       2514       2624       2625       2636       2635  
      2504       2505       2516       2515       2625       2626       2637       2636  
      2505       2506       2517       2516       2626       2627       2638       2637  
      2506       2507       2518       2517       2627       2628       2639       2638  
      2507       2508       2519       2518       2628       2629       2640       2639  
      2509       2510       2521       2520       2630       2631       2642       2641  
      2510       2511       2522       2521       2631       2632       2643       2642  
      2511       2512       2523       2522       2632       2633       2644       2643  
      2512       2513       2524       2523       2633       2634       2645       2644  
      2513       2514       2525       2524       2634       2635       2646       2645  
      2514       2515       2526       2525       2635       2636       2647       2646  
      2515       2516       2527       2526       2636       2637       2648       2647  
      2516       2517       2528       2527       2637       2638       2649       2648  
      2517       2518       2529       2528       2638       2639       2650       2649  
      2518       2519       2530       2529       2639       2640       2651       2650  
      2520       2521       2532       2531       2641       2642       2653       2652  
      2521       2522       2533       2532       2642       2643       2654       2653  
      2522       2523       2534       2533       2643       2644       2655       2654  
      2523       2524       2535       2534       2644       2645       2656       2655  
      2524       2525       2536       2535       2645       2646       2657       2656  
      2525       2526       2537       2536       2646       2647       2658       2657  
      2526       2527       2538       2537       2647       2648       2659       2658  
      2527       2528       2539       2538       2648       2649       2660       2659  
      2528       2529       2540       2539       2649       2650       2661       2660  
      2529       2530       2541       2540       2650       2651       2662       2661  
      2542       2543       2554       2553       2663       2664       2675       2674  
      2543       2544       2555       2554       2664       2665       2676       2675  
      2544       2545       2556       2555       2665       2666       2677       2676  
      2545       2546       2557       2556       2666       2667       2678       2677  
      2546       2547       2558       2557       2667       2668       2679       2678  
      2547       2548       2559       2558       2668       2669       2680       2679  
      2548       2549       2560       2559       2669       2670       2681       2680  
      2549       2550       2561       2560       2670       2671       2682       2681  
      2550       2551       2562       2561       2671       2672       2683       2682  
      2551       2552       2563       2562       2672       2673       2684       2683  
      2553       2554       2565       2564       2674       2675       2686       2685  
      2554       2555       2566       2565       2675       2676       2687       2686  
      2555       2556       2567       2566       2676       2677       2688       2687  
      2556       2557       2568       2567       2677       2678       2689       2688  
      2557       2558       2569       2568       2678       2679       2690       2689  
      2558       2559       2570       2569       2679       2680       2691       2690  
      2559       2560       2571       2570       2680       2681       2692       2691  
      2560       2561       2572       2571       2681       2682       2693       2692  
      2561       2562       2573       2572       2682       2683       2694       2693  
      2562       2563       2574       2573       2683       2684       2695       2694  
      2564       2565       2576       2575       2685       2686       2697       2696  
      2565       2566       2577       2576       2686       2687       2698       2697  
      2566       2567       2578       2577       2687       2688       2699       2698  
      2567       2568       2579       2578       2688       2689       2700       2699  
      2568       2569       2580       2579       2689       2690       2701       2700  
      2569       2570       2581       2580       2690       2691       2702       2701  
      2570       2571       2582       2581       2691       2692       2703       2702  
      2571       2572       2583       2582       2692       2693       2704       2703  
      2572       2573       2584       2583       2693       2694       2705       2704  
      2573       2574       2585       2584       2694       2695       2706       2705  
      2575       2576       2587       2586       2696       2697       2708       2707  
      2576       2577       2588       2587       2697       2698       2709       2708  
      2577       2578       2589       2588       2698       2699       2710       2709  
      2578       2579       2590       2589       2699       2700       2711       2710  
      2579       2580       2591       2590       2700       2701       2712       2711  
      2580       2581       2592       2591       2701       2702       2713       2712  
      2581       2582       2593       2592       2702       2703       2714       2713  
      2582       2583       2594       2593       2703       2704       2715       2714  
      2583       2584       2595       2594       2704       2705       2716       2715  
      2584       2585       2596       2595       2705       2706       2717       2716  
      2586       2587       2598       2597       2707       2708       2719       2718  
      2587       2588       2599       2598       2708       2709       2720       2719  
      2588       2589       2600       2599       2709       2710       2721       2720  
      2589       2590       2601       2600       2710       2711       2722       2721  
      2590       2591       2602       2601       2711       2712       2723       2722  
      2591       2592       2603       2602       2712       2713       2724       2723  
      2592       2593       2604       2603       2713       2714       2725       2724  
      2593       2594       2605       2604       2714       2715       2726       2725  
      2594       2595       2606       2605       2715       2716       2727       2726  
      2595       2596       2607       2606       2716       2717       2728       2727  
      2597       2598       2609       2608       2718       2719       2730       2729  
      2598       2599       2610       2609       2719       2720       2731       2730  
      2599       2600       2611       2610       2720       2721       2732       2731  
      2600       2601       2612       2611       2721       2722       2733       2732  
      2601       2602       2613       2612       2722       2723       2734       2733  
      2602       2603       2614       2613       2723       2724       2735       2734  
      2603       2604       2615       2614       2724       2725       2736       2735  
      2604       2605       2616       2615       2725       2726       2737       2736  
      2605       2606       2617       2616       2726       2727       2738       2737  
      2606       2607       2618       2617       2727       2728       2739       2738  
      2608       2609       2620       2619       2729       2730       2741       2740  
      2609       2610       2621       2620       2730       2731       2742       2741  
      2610       2611       2622       2621       2731       2732       2743       2742  
      2611       2612       2623       2622       2732       2733       2744       2743  
      2612       2613       2624       2623       2733       2734       2745       2744  
      2613       2614       2625       2624       2734       2735       2746       2745  
      2614       2615       2626       2625       2735       2736       2747       2746  
      2615       2616       2627       2626       2736       2737       2748       2747  
      2616       2617       2628       2627       2737       2738       2749       2748  
      2617       2618       2629       2628       2738       2739       2750       2749  
      2619       2620       2631       2630       2740       2741       2752       2751  
      2620       2621       2632       2631       2741       2742       2753       2752  
      2621       2622       2633       2632       2742       2743       2754       2753  
      2622       2623       2634       2633       2743       2744       2755       2754  
      2623       2624       2635       2634       2744       2745       2756       2755  
      2624       2625       2636       2635       2745       2746       2757       2756  
      2625       2626       2637       2636       2746       2747       2758       2757  
      2626       2627       2638       2637       2747       2748       2759       2758  
      2627       2628       2639       2638       2748       2749       2760       2759  
      2628       2629       2640       2639       2749       2750       2761       2760  
      2630       2631       2642       2641       2751       2752       2763       2762  
      2631       2632       2643       2642       2752       2753       2764       2763  
      2632       2633       2644       2643       2753       2754       2765       2764  
      2633       2634       2645       2644       2754       2755       2766       2765  
      2634       2635       2646       2645       2755       2756       2767       2766  
      2635       2636       2647       2646       2756       2757       2768       2767  
      2636       2637       2648       2647       2757       2758       2769       2768  
      2637       2638       2649       2648       2758       2759       2770       2769  
      2638       2639       2650       2649       2759       2760       2771       2770  
      2639       2640       2651       2650       2760       2761       2772       2771  
      2641       2642       2653       2652       2762       2763       2774       2773  
      2642       2643       2654       2653       2763       2764       2775       2774  
      2643       2644       2655       2654       2764       2765       2776       2775  
      2644       2645       2656       2655       2765       2766       2777       2776  
      2645       2646       2657       2656       2766       2767       2778       2777  
      2646       2647       2658       2657       2767       2768       2779       2778  
      2647       2648       2659       2658       2768       2769       2780       2779  
      2648       2649       2660       2659       2769       2770       2781       2780  
      2649       2650       2661       2660       2770       2771       2782       2781  
      2650       2651       2662       2661       2771       2772       2783       2782  
      2663       2664       2675       2674       2784       2785       2796       2795  
      2664       2665       2676       2675       2785       2786       2797       2796  
      2665       2666       2677       2676       2786       2787       2798       2797  
      2666       2667       2678       2677       2787       2788       2799       2798  
      2667       2668       2679       2678       2788       2789       2800       2799  
      2668       2669       2680       2679       2789       2790       2801       2800  
      2669       2670       2681       2680       2790       2791       2802       2801  
      2670       2671       2682       2681       2791       2792       2803       2802  
      2671       2672       2683       2682       2792       2793       2804       2803  
      2672       2673       2684       2683       2793       2794       2805       2804  
      2674       2675       2686       2685       2795       2796       2807       2806  
      2675       2676       2687       2686       2796       2797       2808       2807  
      2676       2677       2688       2687       2797       2798       2809       2808  
      2677       2678       2689       2688       2798       2799       2810       2809  
      2678       2679       2690       2689       2799       2800       2811       2810  
      2679       2680       2691       2690       2800       2801       2812       2811  
      2680       2681       2692       2691       2801       2802       2813       2812  
      2681       2682       2693       2692       2802       2803       2814       2813  
      2682       2683       2694       2693       2803       2804       2815       2814  
      2683       2684       2695       2694       2804       2805       2816       2815  
      2685       2686       2697       2696       2806       2807       2818       2817  
      2686       2687       2698       2697       2807       2808       2819       2818  
      2687       2688       2699       2698       2808       2809       2820       2819  
      2688       2689       2700       2699       2809       2810       2821       2820  
      2689       2690       2701       2700       2810       2811       2822       2821  
      2690       2691       2702       2701       2811       2812       2823       2822  
      2691       2692       2703       2702       2812       2813       2824       2823  
      2692       2693       2704       2703       2813       2814       2825       2824  
      2693       2694       2705       2704       2814       2815       2826       2825  
      2694       2695       2706       2705       2815       2816       2827       2826  
      2696       2697       2708       2707       2817       2818       2829       2828  
      2697       2698       2709       2708       2818       2819       2830       2829  
      2698       2699       2710       2709       2819       2820       2831       2830  
      2699       2700       2711       2710       2820       2821       2832       2831  
      2700       2701       2712       2711       2821       2822       2833       2832  
      2701       2702       2713       2712       2822       2823       2834       2833  
      2702       2703       2714       2713       2823       2824       2835       2834  
      2703       2704       2715       2714       2824       2825       2836       2835  
      2704       2705       2716       2715       2825       2826       2837       2836  
      2705       2706       2717       2716       2826       2827       2838       2837  
      2707       2708       2719       2718       2828       2829       2840       2839  
      2708       2709       2720       2719       2829       2830       2841       2840  
      2709       2710       2721       2720       2830       2831       2842       2841  
      2710       2711       2722       2721       2831       2832       2843       2842  
      2711       2712       2723       2722       2832       2833       2844       2843  
      2712       2713       2724       2723       2833       2834       2845       2844  
      2713       2714       2725       2724       2834       2835       2846       2845  
      2714       2715       2726       2725       2835       2836       2847       2846  
      2715       2716       2727       2726       2836       2837       2848       2847  
      2716       2717       2728       2727       2837       2838       2849       2848  
      2718       2719       2730       2729       2839       2840       2851       2850  
      2719       2720       2731       2730       2840       2841       2852       2851  
      2720       2721       2732       2731       2841       2842       2853       2852  
      2721       2722       2733       2732       2842       2843       2854       2853  
      2722       2723       2734       2733       2843       2844       2855       2854  
      2723       2724       2735       2734       2844       2845       2856       2855  
      2724       2725       2736       2735       2845       2846       2857       2856  
      2725       2726       2737       2736       2846       2847       2858       2857  
      2726       2727       2738       2737       2847       2848       2859       2858  
      2727       2728       2739       2738       2848       2849       2860       2859  
      2729       2730       2741       2740       2850       2851       2862       2861  
      2730       2731       2742       2741       2851       2852       2863       2862  
      2731       2732       2743       2742       2852       2853       2864       2863  
      2732       2733       2744       2743       2853       2854       2865       2864  
      2733       2734       2745       2744       2854       2855       2866       2865  
      2734       2735       2746       2745       2855       2856       2867       2866  
      2735       2736       2747       2746       2856       2857       2868       2867  
      2736       2737       2748       2747       2857       2858       2869       2868  
      2737       2738       2749       2748       2858       2859       2870       2869  
      2738       2739       2750       2749       2859       2860       2871       2870  
      2740       2741       2752       2751       2861       2862       2873       2872  
      2741       2742       2753       2752       2862       2863       2874       2873  
      2742       2743       2754       2753       2863       2864       2875       2874  
      2743       2744       2755       2754       2864       2865       2876       2875  
      2744       2745       2756       2755       2865       2866       2877       2876  
      2745       2746       2757       2756       2866       2867       2878       2877  
      2746       2747       2758       2757       2867       2868       2879       2878  
      2747       2748       2759       2758       2868       2869       2880       2879  
      2748       2749       2760       2759       2869       2870       2881       2880  
      2749       2750       2761       2760       2870       2871       2882       2881  
      2751       2752       2763       2762       2872       2873       2884       2883  
      2752       2753       2764       2763       2873       2874       2885       2884  
      2753       2754       2765       2764       2874       2875       2886       2885  
      2754       2755       2766       2765       2875       2876       2887       2886  
      2755       2756       2767       2766       2876       2877       2888       2887  
      2756       2757       2768       2767       2877       2878       2889       2888  
      2757       2758       2769       2768       2878       2879       2890       2889  
      2758       2759       2770       2769       2879       2880       2891       2890  
      2759       2760       2771       2770       2880       2881       2892       2891  
      2760       2761       2772       2771       2881       2882       2893       2892  
      2762       2763       2774       2773       2883       2884       2895       2894  
      2763       2764       2775       2774       2884       2885       2896       2895  
      2764       2765       2776       2775       2885       2886       2897       2896  
      2765       2766       2777       2776       2886       2887       2898       2897  
      2766       2767       2778       2777       2887       2888       2899       2898  
      2767       2768       2779       2778       2888       2889       2900       2899  
      2768       2769       2780       2779       2889       2890       2901       2900  
      2769       2770       2781       2780       2890       2891       2902       2901  
      2770       2771       2782       2781       2891       2892       2903       2902  
      2771       2772       2783       2782       2892       2893       2904       2903  
      2784       2785       2796       2795       2905       2906       2917       2916  
      2785       2786       2797       2796       2906       2907       2918       2917  
      2786       2787       2798       2797       2907       2908       2919       2918  
      2787       2788       2799       2798       2908       2909       2920       2919  
      2788       2789       2800       2799       2909       2910       2921       2920  
      2789       2790       2801       2800       2910       2911       2922       2921  
      2790       2791       2802       2801       2911       2912       2923       2922  
      2791       2792       2803       2802       2912       2913       2924       2923  
      2792       2793       2804       2803       2913       2914       2925       2924  
      2793       2794       2805       2804       2914       2915       2926       2925  
      2795       2796       2807       2806       2916       2917       2928       2927  
      2796       2797       2808       2807       2917       2918       2929       2928  
      2797       2798       2809       2808       2918       2919       2930       2929  
      2798       2799       2810       2809       2919       2920       2931       2930  
      2799       2800       2811       2810       2920       2921       2932       2931  
      2800       2801       2812       2811       2921       2922       2933       2932  
      2801       2802       2813       2812       2922       2923       2934       2933  
      2802       2803       2814       2813       2923       2924       2935       2934  
      2803       2804       2815       2814       2924       2925       2936       2935  
      2804       2805       2816       2815       2925       2926       2937       2936  
      2806       2807       2818       2817       2927       2928       2939       2938  
      2807       2808       2819       2818       2928       2929       2940       2939  
      2808       2809       2820       2819       2929       2930       2941       2940  
      2809       2810       2821       2820       2930       2931       2942       2941  
      2810       2811       2822       2821       2931       2932       2943       2942  
      2811       2812       2823       2822       2932       2933       2944       2943  
      2812       2813       2824       2823       2933       2934       2945       2944  
      2813       2814       2825       2824       2934       2935       2946       2945  
      2814       2815       2826       2825       2935       2936       2947       2946  
      2815       2816       2827       2826       2936       2937       2948       2947  
      2817       2818       2829       2828       2938       2939       2950       2949  
      2818       2819       2830       2829       2939       2940       2951       2950  
      2819       2820       2831       2830       2940       2941       2952       2951  
      2820       2821       2832       2831       2941       2942       2953       2952  
      2821       2822       2833       2832       2942       2943       2954       2953  
      2822       2823       2834       2833       2943       2944       2955       2954  
      2823       2824       2835       2834       2944       2945       2956       2955  
      2824       2825       2836       2835       2945       2946       2957       2956  
      2825       2826       2837       2836       2946       2947       2958       2957  
      2826       2827       2838       2837       2947       2948       2959       2958  
      2828       2829       2840       2839       2949       2950       2961       2960  
      2829       2830       2841       2840       2950       2951       2962       2961  
      2830       2831       2842       2841       2951       2952       2963       2962  
      2831       2832       2843       2842       2952       2953       2964       2963  
      2832       2833       2844       2843       2953       2954       2965       2964  
      2833       2834       2845       2844       2954       2955       2966       2965  
      2834       2835       2846       2845       2955       2956       2967       2966  
      2835       2836       2847       2846       2956       2957       2968       2967  
      2836       2837       2848       2847       2957       2958       2969       2968  
      2837       2838       2849       2848       2958       2959       2970       2969  
      2839       2840       2851       2850       2960       2961       2972       2971  
      2840       2841       2852       2851       2961       2962       2973       2972  
      2841       2842       2853       2852       2962       2963       2974       2973  
      2842       2843       2854       2853       2963       2964       2975       2974  
      2843       2844       2855       2854       2964       2965       2976       2975  
      2844       2845       2856       2855       2965       2966       2977       2976  
      2845       2846       2857       2856       2966       2967       2978       2977  
      2846       2847       2858       2857       2967       2968       2979       2978  
      2847       2848       2859       2858       2968       2969       2980       2979  
      2848       2849       2860       2859       2969       2970       2981       2980  
      2850       2851       2862       2861       2971       2972       2983       2982  
      2851       2852       2863       2862       2972       2973       2984       2983  
      2852       2853       2864       2863       2973       2974       2985       2984  
      2853       2854       2865       2864       2974       2975       2986       2985  
      2854       2855       2866       2865       2975       2976       2987       2986  
      2855       2856       2867       2866       2976       2977       2988       2987  
      2856       2857       2868       2867       2977       2978       2989       2988  
      2857       2858       2869       2868       2978       2979       2990       2989  
      2858       2859       2870       2869       2979       2980       2991       2990  
      2859       2860       2871       2870       2980       2981       2992       2991  
      2861       2862       2873       2872       2982       2983       2994       2993  
      2862       2863       2874       2873       2983       2984       2995       2994  
      2863       2864       2875       2874       2984       2985       2996       2995  
      2864       2865       2876       2875       2985       2986       2997       2996  
      2865       2866       2877       2876       2986       2987       2998       2997  
      2866       2867       2878       2877       2987       2988       2999       2998  
      2867       2868       2879       2878       2988       2989       3000       2999  
      2868       2869       2880       2879       2989       2990       3001       3000  
      2869       2870       2881       2880       2990       2991       3002       3001  
      2870       2871       2882       2881       2991       2992       3003       3002  
      2872       2873       2884       2883       2993       2994       3005       3004  
      2873       2874       2885       2884       2994       2995       3006       3005  
      2874       2875       2886       2885       2995       2996       3007       3006  
      2875       2876       2887       2886       2996       2997       3008       3007  
      2876       2877       2888       2887       2997       2998       3009       3008  
      2877       2878       2889       2888       2998       2999       3010       3009  
      2878       2879       2890       2889       2999       3000       3011       3010  
      2879       2880       2891       2890       3000       3001       3012       3011  
      2880       2881       2892       2891       3001       3002       3013       3012  
      2881       2882       2893       2892       3002       3003       3014       3013  
      2883       2884       2895       2894       3004       3005       3016       3015  
      2884       2885       2896       2895       3005       3006       3017       3016  
      2885       2886       2897       2896       3006       3007       3018       3017  
      2886       2887       2898       2897       3007       3008       3019       3018  
      2887       2888       2899       2898       3008       3009       3020       3019  
      2888       2889       2900       2899       3009       3010       3021       3020  
      2889       2890       2901       2900       3010       3011       3022       3021  
      2890       2891       2902       2901       3011       3012       3023       3022  
      2891       2892       2903       2902       3012       3013       3024       3023  
      2892       2893       2904       2903       3013       3014       3025       3024  
      2905       2906       2917       2916       3026       3027       3038       3037  
      2906       2907       2918       2917       3027       3028       3039       3038  
      2907       2908       2919       2918       3028       3029       3040       3039  
      2908       2909       2920       2919       3029       3030       3041       3040  
      2909       2910       2921       2920       3030       3031       3042       3041  
      2910       2911       2922       2921       3031       3032       3043       3042  
      2911       2912       2923       2922       3032       3033       3044       3043  
      2912       2913       2924       2923       3033       3034       3045       3044  
      2913       2914       2925       2924       3034       3035       3046       3045  
      2914       2915       2926       2925       3035       3036       3047       3046  
      2916       2917       2928       2927       3037       3038       3049       3048  
      2917       2918       2929       2928       3038       3039       3050       3049  
      2918       2919       2930       2929       3039       3040       3051       3050  
      2919       2920       2931       2930       3040       3041       3052       3051  
      2920       2921       2932       2931       3041       3042       3053       3052  
      2921       2922       2933       2932       3042       3043       3054       3053  
      2922       2923       2934       2933       3043       3044       3055       3054  
      2923       2924       2935       2934       3044       3045       3056       3055  
      2924       2925       2936       2935       3045       3046       3057       3056  
      2925       2926       2937       2936       3046       3047       3058       3057  
      2927       2928       2939       2938       3048       3049       3060       3059  
      2928       2929       2940       2939       3049       3050       3061       3060  
      2929       2930       2941       2940       3050       3051       3062       3061  
      2930       2931       2942       2941       3051       3052       3063       3062  
      2931       2932       2943       2942       3052       3053       3064       3063  
      2932       2933       2944       2943       3053       3054       3065       3064  
      2933       2934       2945       2944       3054       3055       3066       3065  
      2934       2935       2946       2945       3055       3056       3067       3066  
      2935       2936       2947       2946       3056       3057       3068       3067  
      2936       2937       2948       2947       3057       3058       3069       3068  
      2938       2939       2950       2949       3059       3060       3071       3070  
      2939       2940       2951       2950       3060       3061       3072       3071  
      2940       2941       2952       2951       3061       3062       3073       3072  
      2941       2942       2953       2952       3062       3063       3074       3073  
      2942       2943       2954       2953       3063       3064       3075       3074  
      2943       2944       2955       2954       3064       3065       3076       3075  
      2944       2945       2956       2955       3065       3066       3077       3076  
      2945       2946       2957       2956       3066       3067       3078       3077  
      2946       2947       2958       2957       3067       3068       3079       3078  
      2947       2948       2959       2958       3068       3069       3080       3079  
      2949       2950       2961       2960       3070       3071       3082       3081  
      2950       2951       2962       2961       3071       3072       3083       3082  
      2951       2952       2963       2962       3072       3073       3084       3083  
      2952       2953       2964       2963       3073       3074       3085       3084  
      2953       2954       2965       2964       3074       3075       3086       3085  
      2954       2955       2966       2965       3075       3076       3087       3086  
      2955       2956       2967       2966       3076       3077       3088       3087  
      2956       2957       2968       2967       3077       3078       3089       3088  
      2957       2958       2969       2968       3078       3079       3090       3089  
      2958       2959       2970       2969       3079       3080       3091       3090  
      2960       2961       2972       2971       3081       3082       3093       3092  
      2961       2962       2973       2972       3082       3083       3094       3093  
      2962       2963       2974       2973       3083       3084       3095       3094  
      2963       2964       2975       2974       3084       3085       3096       3095  
      2964       2965       2976       2975       3085       3086       3097       3096  
      2965       2966       2977       2976       3086       3087       3098       3097  
      2966       2967       2978       2977       3087       3088       3099       3098  
      2967       2968       2979       2978       3088       3089       3100       3099  
      2968       2969       2980       2979       3089       3090       3101       3100  
      2969       2970       2981       2980       3090       3091       3102       3101  
      2971       2972       2983       2982       3092       3093       3104       3103  
      2972       2973       2984       2983       3093       3094       3105       3104  
      2973       2974       2985       2984       3094       3095       3106       3105  
      2974       2975       2986       2985       3095       3096       3107       3106  
      2975       2976       2987       2986       3096       3097       3108       3107  
      2976       2977       2988       2987       3097       3098       3109       3108  
      2977       2978       2989       2988       3098       3099       3110       3109  
      2978       2979       2990       2989       3099       3100       3111       3110  
      2979       2980       2991       2990       3100       3101       3112       3111  
      2980       2981       2992       2991       3101       3102       3113       3112  
      2982       2983       2994       2993       3103       3104       3115       3114  
      2983       2984       2995       2994       3104       3105       3116       3115  
      2984       2985       2996       2995       3105       3106       3117       3116  
      2985       2986       2997       2996       3106       3107       3118       3117  
      2986       2987       2998       2997       3107       3108       3119       3118  
      2987       2988       2999       2998       3108       3109       3120       3119  
      2988       2989       3000       2999       3109       3110       3121       3120  
      2989       2990       3001       3000       3110       3111       3122       3121  
      2990       2991       3002       3001       3111       3112       3123       3122  
      2991       2992       3003       3002       3112       3113       3124       3123  
      2993       2994       3005       3004       3114       3115       3126       3125  
      2994       2995       3006       3005       3115       3116       3127       3126  
      2995       2996       3007       3006       3116       3117       3128       3127  
      2996       2997       3008       3007       3117       3118       3129       3128  
      2997       2998       3009       3008       3118       3119       3130       3129  
      2998       2999       3010       3009       3119       3120       3131       3130  
      2999       3000       3011       3010       3120       3121       3132       3131  
      3000       3001       3012       3011       3121       3122       3133       3132  
      3001       3002       3013       3012       3122       3123       3134       3133  
      3002       3003       3014       3013       3123       3124       3135       3134  
      3004       3005       3016       3015       3125       3126       3137       3136  
      3005       3006       3017       3016       3126       3127       3138       3137  
      3006       3007       3018       3017       3127       3128       3139       3138  
      3007       3008       3019       3018       3128       3129       3140       3139  
      3008       3009       3020       3019       3129       3130       3141       3140  
      3009       3010       3021       3020       3130       3131       3142       3141  
      3010       3011       3022       3021       3131       3132       3143       3142  
      3011       3012       3023       3022       3132       3133       3144       3143  
      3012       3013       3024       3023       3133       3134       3145       3144  
      3013       3014       3025       3024       3134       3135       3146       3145  
      3026       3027       3038       3037       3147       3148       3159       3158  
      3027       3028       3039       3038       3148       3149       3160       3159  
      3028       3029       3040       3039       3149       3150       3161       3160  
      3029       3030       3041       3040       3150       3151       3162       3161  
      3030       3031       3042       3041       3151       3152       3163       3162  
      3031       3032       3043       3042       3152       3153       3164       3163  
      3032       3033       3044       3043       3153       3154       3165       3164  
      3033       3034       3045       3044       3154       3155       3166       3165  
      3034       3035       3046       3045       3155       3156       3167       3166  
      3035       3036       3047       3046       3156       3157       3168       3167  
      3037       3038       3049       3048       3158       3159       3170       3169  
      3038       3039       3050       3049       3159       3160       3171       3170  
      3039       3040       3051       3050       3160       3161       3172       3171  
      3040       3041       3052       3051       3161       3162       3173       3172  
      3041       3042       3053       3052       3162       3163       3174       3173  
      3042       3043       3054       3053       3163       3164       3175       3174  
      3043       3044       3055       3054       3164       3165       3176       3175  
      3044       3045       3056       3055       3165       3166       3177       3176  
      3045       3046       3057       3056       3166       3167       3178       3177  
      3046       3047       3058       3057       3167       3168       3179       3178  
      3048       3049       3060       3059       3169       3170       3181       3180  
      3049       3050       3061       3060       3170       3171       3182       3181  
      3050       3051       3062       3061       3171       3172       3183       3182  
      3051       3052       3063       3062       3172       3173       3184       3183  
      3052       3053       3064       3063       3173       3174       3185       3184  
      3053       3054       3065       3064       3174       3175       3186       3185  
      3054       3055       3066       3065       3175       3176       3187       3186  
      3055       3056       3067       3066       3176       3177       3188       3187  
      3056       3057       3068       3067       3177       3178       3189       3188  
      3057       3058       3069       3068       3178       3179       3190       3189  
      3059       3060       3071       3070       3180       3181       3192       3191  
      3060       3061       3072       3071       3181       3182       3193       3192  
      3061       3062       3073       3072       3182       3183       3194       3193  
      3062       3063       3074       3073       3183       3184       3195       3194  
      3063       3064       3075       3074       3184       3185       3196       3195  
      3064       3065       3076       3075       3185       3186       3197       3196  
      3065       3066       3077       3076       3186       3187       3198       3197  
      3066       3067       3078       3077       3187       3188       3199       3198  
      3067       3068       3079       3078       3188       3189       3200       3199  
      3068       3069       3080       3079       3189       3190       3201       3200  
      3070       3071       3082       3081       3191       3192       3203       3202  
      3071       3072       3083       3082       3192       3193       3204       3203  
      3072       3073       3084       3083       3193       3194       3205       3204  
      3073       3074       3085       3084       3194       3195       3206       3205  
      3074       3075       3086       3085       3195       3196       3207       3206  
      3075       3076       3087       3086       3196       3197       3208       3207  
      3076       3077       3088       3087       3197       3198       3209       3208  
      3077       3078       3089       3088       3198       3199       3210       3209  
      3078       3079       3090       3089       3199       3200       3211       3210  
      3079       3080       3091       3090       3200       3201       3212       3211  
      3081       3082       3093       3092       3202       3203       3214       3213  
      3082       3083       3094       3093       3203       3204       3215       3214  
      3083       3084       3095       3094       3204       3205       3216       3215  
      3084       3085       3096       3095       3205       3206       3217       3216  
      3085       3086       3097       3096       3206       3207       3218       3217  
      3086       3087       3098       3097       3207       3208       3219       3218  
      3087       3088       3099       3098       3208       3209       3220       3219  
      3088       3089       3100       3099       3209       3210       3221       3220  
      3089       3090       3101       3100       3210       3211       3222       3221  
      3090       3091       3102       3101       3211       3212       3223       3222  
      3092       3093       3104       3103       3213       3214       3225       3224  
      3093       3094       3105       3104       3214       3215       3226       3225  
      3094       3095       3106       3105       3215       3216       3227       3226  
      3095       3096       3107       3106       3216       3217       3228       3227  
      3096       3097       3108       3107       3217       3218       3229       3228  
      3097       3098       3109       3108       3218       3219       3230       3229  
      3098       3099       3110       3109       3219       3220       3231       3230  
      3099       3100       3111       3110       3220       3221       3232       3231  
      3100       3101       3112       3111       3221       3222       3233       3232  
      3101       3102       3113       3112       3222       3223       3234       3233  
      3103       3104       3115       3114       3224       3225       3236       3235  
      3104       3105       3116       3115       3225       3226       3237       3236  
      3105       3106       3117       3116       3226       3227       3238       3237  
      3106       3107       3118       3117       3227       3228       3239       3238  
      3107       3108       3119       3118       3228       3229       3240       3239  
      3108       3109       3120       3119       3229       3230       3241       3240  
      3109       3110       3121       3120       3230       3231       3242       3241  
      3110       3111       3122       3121       3231       3232       3243       3242  
      3111       3112       3123       3122       3232       3233       3244       3243  
      3112       3113       3124       3123       3233       3234       3245       3244  
      3114       3115       3126       3125       3235       3236       3247       3246  
      3115       3116       3127       3126       3236       3237       3248       3247  
      3116       3117       3128       3127       3237       3238       3249       3248  
      3117       3118       3129       3128       3238       3239       3250       3249  
      3118       3119       3130       3129       3239       3240       3251       3250  
      3119       3120       3131       3130       3240       3241       3252       3251  
      3120       3121       3132       3131       3241       3242       3253       3252  
      3121       3122       3133       3132       3242       3243       3254       3253  
      3122       3123       3134       3133       3243       3244       3255       3254  
      3123       3124       3135       3134       3244       3245       3256       3255  
      3125       3126       3137       3136       3246       3247       3258       3257  
      3126       3127       3138       3137       3247       3248       3259       3258  
      3127       3128       3139       3138       3248       3249       3260       3259  
      3128       3129       3140       3139       3249       3250       3261       3260  
      3129       3130       3141       3140       3250       3251       3262       3261  
      3130       3131       3142       3141       3251       3252       3263       3262  
      3131       3132       3143       3142       3252       3253       3264       3263  
      3132       3133       3144       3143       3253       3254       3265       3264  
      3133       3134       3145       3144       3254       3255       3266       3265  
      3134       3135       3146       3145       3255       3256       3267       3266  
      3147       3148       3159       3158       3268       3269       3280       3279  
      3148       3149       3160       3159       3269       3270       3281       3280  
      3149       3150       3161       3160       3270       3271       3282       3281  
      3150       3151       3162       3161       3271       3272       3283       3282  
      3151       3152       3163       3162       3272       3273       3284       3283  
      3152       3153       3164       3163       3273       3274       3285       3284  
      3153       3154       3165       3164       3274       3275       3286       3285  
      3154       3155       3166       3165       3275       3276       3287       3286  
      3155       3156       3167       3166       3276       3277       3288       3287  
      3156       3157       3168       3167       3277       3278       3289       3288  
      3158       3159       3170       3169       3279       3280       3291       3290  
      3159       3160       3171       3170       3280       3281       3292       3291  
      3160       3161       3172       3171       3281       3282       3293       3292  
      3161       3162       3173       3172       3282       3283       3294       3293  
      3162       3163       3174       3173       3283       3284       3295       3294  
      3163       3164       3175       3174       3284       3285       3296       3295  
      3164       3165       3176       3175       3285       3286       3297       3296  
      3165       3166       3177       3176       3286       3287       3298       3297  
      3166       3167       3178       3177       3287       3288       3299       3298  
      3167       3168       3179       3178       3288       3289       3300       3299  
      3169       3170       3181       3180       3290       3291       3302       3301  
      3170       3171       3182       3181       3291       3292       3303       3302  
      3171       3172       3183       3182       3292       3293       3304       3303  
      3172       3173       3184       3183       3293       3294       3305       3304  
      3173       3174       3185       3184       3294       3295       3306       3305  
      3174       3175       3186       3185       3295       3296       3307       3306  
      3175       3176       3187       3186       3296       3297       3308       3307  
      3176       3177       3188       3187       3297       3298       3309       3308  
      3177       3178       3189       3188       3298       3299       3310       3309  
      3178       3179       3190       3189       3299       3300       3311       3310  
      3180       3181       3192       3191       3301       3302       3313       3312  
      3181       3182       3193       3192       3302       3303       3314       3313  
      3182       3183       3194       3193       3303       3304       3315       3314  
      3183       3184       3195       3194       3304       3305       3316       3315  
      3184       3185       3196       3195       3305       3306       3317       3316  
      3185       3186       3197       3196       3306       3307       3318       3317  
      3186       3187       3198       3197       3307       3308       3319       3318  
      3187       3188       3199       3198       3308       3309       3320       3319  
      3188       3189       3200       3199       3309       3310       3321       3320  
      3189       3190       3201       3200       3310       3311       3322       3321  
      3191       3192       3203       3202       3312       3313       3324       3323  
      3192       3193       3204       3203       3313       3314       3325       3324  
      3193       3194       3205       3204       3314       3315       3326       3325  
      3194       3195       3206       3205       3315       3316       3327       3326  
      3195       3196       3207       3206       3316       3317       3328       3327  
      3196       3197       3208       3207       3317       3318       3329       3328  
      3197       3198       3209       3208       3318       3319       3330       3329  
      3198       3199       3210       3209       3319       3320       3331       3330  
      3199       3200       3211       3210       3320       3321       3332       3331  
      3200       3201       3212       3211       3321       3322       3333       3332  
      3202       3203       3214       3213       3323       3324       3335       3334  
      3203       3204       3215       3214       3324       3325       3336       3335  
      3204       3205       3216       3215       3325       3326       3337       3336  
      3205       3206       3217       3216       3326       3327       3338       3337  
      3206       3207       3218       3217       3327       3328       3339       3338  
      3207       3208       3219       3218       3328       3329       3340       3339  
      3208       3209       3220       3219       3329       3330       3341       3340  
      3209       3210       3221       3220       3330       3331       3342       3341  
      3210       3211       3222       3221       3331       3332       3343       3342  
      3211       3212       3223       3222       3332       3333       3344       3343  
      3213       3214       3225       3224       3334       3335       3346       3345  
      3214       3215       3226       3225       3335       3336       3347       3346  
      3215       3216       3227       3226       3336       3337       3348       3347  
      3216       3217       3228       3227       3337       3338       3349       3348  
      3217       3218       3229       3228       3338       3339       3350       3349  
      3218       3219       3230       3229       3339       3340       3351       3350  
      3219       3220       3231       3230       3340       3341       3352       3351  
      3220       3221       3232       3231       3341       3342       3353       3352  
      3221       3222       3233       3232       3342       3343       3354       3353  
      3222       3223       3234       3233       3343       3344       3355       3354  
      3224       3225       3236       3235       3345       3346       3357       3356  
      3225       3226       3237       3236       3346       3347       3358       3357  
      3226       3227       3238       3237       3347       3348       3359       3358  
      3227       3228       3239       3238       3348       3349       3360       3359  
      3228       3229       3240       3239       3349       3350       3361       3360  
      3229       3230       3241       3240       3350       3351       3362       3361  
      3230       3231       3242       3241       3351       3352       3363       3362  
      3231       3232       3243       3242       3352       3353       3364       3363  
      3232       3233       3244       3243       3353       3354       3365       3364  
      3233       3234       3245       3244       3354       3355       3366       3365  
      3235       3236       3247       3246       3356       3357       3368       3367  
      3236       3237       3248       3247       3357       3358       3369       3368  
      3237       3238       3249       3248       3358       3359       3370       3369  
      3238       3239       3250       3249       3359       3360       3371       3370  
      3239       3240       3251       3250       3360       3361       3372       3371  
      3240       3241       3252       3251       3361       3362       3373       3372  
      3241       3242       3253       3252       3362       3363       3374       3373  
      3242       3243       3254       3253       3363       3364       3375       3374  
      3243       3244       3255       3254       3364       3365       3376       3375  
      3244       3245       3256       3255       3365       3366       3377       3376  
      3246       3247       3258       3257       3367       3368       3379       3378  
      3247       3248       3259       3258       3368       3369       3380       3379  
      3248       3249       3260       3259       3369       3370       3381       3380  
      3249       3250       3261       3260       3370       3371       3382       3381  
      3250       3251       3262       3261       3371       3372       3383       3382  
      3251       3252       3263       3262       3372       3373       3384       3383  
      3252       3253       3264       3263       3373       3374       3385       3384  
      3253       3254       3265       3264       3374       3375       3386       3385  
      3254       3255       3266       3265       3375       3376       3387       3386  
      3255       3256       3267       3266       3376       3377       3388       3387  
      3268       3269       3280       3279       3389       3390       3401       3400  
      3269       3270       3281       3280       3390       3391       3402       3401  
      3270       3271       3282       3281       3391       3392       3403       3402  
      3271       3272       3283       3282       3392       3393       3404       3403  
      3272       3273       3284       3283       3393       3394       3405       3404  
      3273       3274       3285       3284       3394       3395       3406       3405  
      3274       3275       3286       3285       3395       3396       3407       3406  
      3275       3276       3287       3286       3396       3397       3408       3407  
      3276       3277       3288       3287       3397       3398       3409       3408  
      3277       3278       3289       3288       3398       3399       3410       3409  
      3279       3280       3291       3290       3400       3401       3412       3411  
      3280       3281       3292       3291       3401       3402       3413       3412  
      3281       3282       3293       3292       3402       3403       3414       3413  
      3282       3283       3294       3293       3403       3404       3415       3414  
      3283       3284       3295       3294       3404       3405       3416       3415  
      3284       3285       3296       3295       3405       3406       3417       3416  
      3285       3286       3297       3296       3406       3407       3418       3417  
      3286       3287       3298       3297       3407       3408       3419       3418  
      3287       3288       3299       3298       3408       3409       3420       3419  
      3288       3289       3300       3299       3409       3410       3421       3420  
      3290       3291       3302       3301       3411       3412       3423       3422  
      3291       3292       3303       3302       3412       3413       3424       3423  
      3292       3293       3304       3303       3413       3414       3425       3424  
      3293       3294       3305       3304       3414       3415       3426       3425  
      3294       3295       3306       3305       3415       3416       3427       3426  
      3295       3296       3307       3306       3416       3417       3428       3427  
      3296       3297       3308       3307       3417       3418       3429       3428  
      3297       3298       3309       3308       3418       3419       3430       3429  
      3298       3299       3310       3309       3419       3420       3431       3430  
      3299       3300       3311       3310       3420       3421       3432       3431  
      3301       3302       3313       3312       3422       3423       3434       3433  
      3302       3303       3314       3313       3423       3424       3435       3434  
      3303       3304       3315       3314       3424       3425       3436       3435  
      3304       3305       3316       3315       3425       3426       3437       3436  
      3305       3306       3317       3316       3426       3427       3438       3437  
      3306       3307       3318       3317       3427       3428       3439       3438  
      3307       3308       3319       3318       3428       3429       3440       3439  
      3308       3309       3320       3319       3429       3430       3441       3440  
      3309       3310       3321       3320       3430       3431       3442       3441  
      3310       3311       3322       3321       3431       3432       3443       3442  
      3312       3313       3324       3323       3433       3434       3445       3444  
      3313       3314       3325       3324       3434       3435       3446       3445  
      3314       3315       3326       3325       3435       3436       3447       3446  
      3315       3316       3327       3326       3436       3437       3448       3447  
      3316       3317       3328       3327       3437       3438       3449       3448  
      3317       3318       3329       3328       3438       3439       3450       3449  
      3318       3319       3330       3329       3439       3440       3451       3450  
      3319       3320       3331       3330       3440       3441       3452       3451  
      3320       3321       3332       3331       3441       3442       3453       3452  
      3321       3322       3333       3332       3442       3443       3454       3453  
      3323       3324       3335       3334       3444       3445       3456       3455  
      3324       3325       3336       3335       3445       3446       3457       3456  
      3325       3326       3337       3336       3446       3447       3458       3457  
      3326       3327       3338       3337       3447       3448       3459       3458  
      3327       3328       3339       3338       3448       3449       3460       3459  
      3328       3329       3340       3339       3449       3450       3461       3460  
      3329       3330       3341       3340       3450       3451       3462       3461  
      3330       3331       3342       3341       3451       3452       3463       3462  
      3331       3332       3343       3342       3452       3453       3464       3463  
      3332       3333       3344       3343       3453       3454       3465       3464  
      3334       3335       3346       3345       3455       3456       3467       3466  
      3335       3336       3347       3346       3456       3457       3468       3467  
      3336       3337       3348       3347       3457       3458       3469       3468  
      3337       3338       3349       3348       3458       3459       3470       3469  
      3338       3339       3350       3349       3459       3460       3471       3470  
      3339       3340       3351       3350       3460       3461       3472       3471  
      3340       3341       3352       3351       3461       3462       3473       3472  
      3341       3342       3353       3352       3462       3463       3474       3473  
      3342       3343       3354       3353       3463       3464       3475       3474  
      3343       3344       3355       3354       3464       3465       3476       3475  
      3345       3346       3357       3356       3466       3467       3478       3477  
      3346       3347       3358       3357       3467       3468       3479       3478  
      3347       3348       3359       3358       3468       3469       3480       3479  
      3348       3349       3360       3359       3469       3470       3481       3480  
      3349       3350       3361       3360       3470       3471       3482       3481  
      3350       3351       3362       3361       3471       3472       3483       3482  
      3351       3352       3363       3362       3472       3473       3484       3483  
      3352       3353       3364       3363       3473       3474       3485       3484  
      3353       3354       3365       3364       3474       3475       3486       3485  
      3354       3355       3366       3365       3475       3476       3487       3486  
      3356       3357       3368       3367       3477       3478       3489       3488  
      3357       3358       3369       3368       3478       3479       3490       3489  
      3358       3359       3370       3369       3479       3480       3491       3490  
      3359       3360       3371       3370       3480       3481       3492       3491  
      3360       3361       3372       3371       3481       3482       3493       3492  
      3361       3362       3373       3372       3482       3483       3494       3493  
      3362       3363       3374       3373       3483       3484       3495       3494  
      3363       3364       3375       3374       3484       3485       3496       3495  
      3364       3365       3376       3375       3485       3486       3497       3496  
      3365       3366       3377       3376       3486       3487       3498       3497  
      3367       3368       3379       3378       3488       3489       3500       3499  
      3368       3369       3380       3379       3489       3490       3501       3500  
      3369       3370       3381       3380       3490       3491       3502       3501  
      3370       3371       3382       3381       3491       3492       3503       3502  
      3371       3372       3383       3382       3492       3493       3504       3503  
      3372       3373       3384       3383       3493       3494       3505       3504  
      3373       3374       3385       3384       3494       3495       3506       3505  
      3374       3375       3386       3385       3495       3496       3507       3506  
      3375       3376       3387       3386       3496       3497       3508       3507  
      3376       3377       3388       3387       3497       3498       3509       3508  
      3389       3390       3401       3400       3510       3511       3522       3521  
      3390       3391       3402       3401       3511       3512       3523       3522  
      3391       3392       3403       3402       3512       3513       3524       3523  
      3392       3393       3404       3403       3513       3514       3525       3524  
      3393       3394       3405       3404       3514       3515       3526       3525  
      3394       3395       3406       3405       3515       3516       3527       3526  
      3395       3396       3407       3406       3516       3517       3528       3527  
      3396       3397       3408       3407       3517       3518       3529       3528  
      3397       3398       3409       3408       3518       3519       3530       3529  
      3398       3399       3410       3409       3519       3520       3531       3530  
      3400       3401       3412       3411       3521       3522       3533       3532  
      3401       3402       3413       3412       3522       3523       3534       3533  
      3402       3403       3414       3413       3523       3524       3535       3534  
      3403       3404       3415       3414       3524       3525       3536       3535  
      3404       3405       3416       3415       3525       3526       3537       3536  
      3405       3406       3417       3416       3526       3527       3538       3537  
      3406       3407       3418       3417       3527       3528       3539       3538  
      3407       3408       3419       3418       3528       3529       3540       3539  
      3408       3409       3420       3419       3529       3530       3541       3540  
      3409       3410       3421       3420       3530       3531       3542       3541  
      3411       3412       3423       3422       3532       3533       3544       3543  
      3412       3413       3424       3423       3533       3534       3545       3544  
      3413       3414       3425       3424       3534       3535       3546       3545  
      3414       3415       3426       3425       3535       3536       3547       3546  
      3415       3416       3427       3426       3536       3537       3548       3547  
      3416       3417       3428       3427       3537       3538       3549       3548  
      3417       3418       3429       3428       3538       3539       3550       3549  
      3418       3419       3430       3429       3539       3540       3551       3550  
      3419       3420       3431       3430       3540       3541       3552       3551  
      3420       3421       3432       3431       3541       3542       3553       3552  
      3422       3423       3434       3433       3543       3544       3555       3554  
      3423       3424       3435       3434       3544       3545       3556       3555  
      3424       3425       3436       3435       3545       3546       3557       3556  
      3425       3426       3437       3436       3546       3547       3558       3557  
      3426       3427       3438       3437       3547       3548       3559       3558  
      3427       3428       3439       3438       3548       3549       3560       3559  
      3428       3429       3440       3439       3549       3550       3561       3560  
      3429       3430       3441       3440       3550       3551       3562       3561  
      3430       3431       3442       3441       3551       3552       3563       3562  
      3431       3432       3443       3442       3552       3553       3564       3563  
      3433       3434       3445       3444       3554       3555       3566       3565  
      3434       3435       3446       3445       3555       3556       3567       3566  
      3435       3436       3447       3446       3556       3557       3568       3567  
      3436       3437       3448       3447       3557       3558       3569       3568  
      3437       3438       3449       3448       3558       3559       3570       3569  
      3438       3439       3450       3449       3559       3560       3571       3570  
      3439       3440       3451       3450       3560       3561       3572       3571  
      3440       3441       3452       3451       3561       3562       3573       3572  
      3441       3442       3453       3452       3562       3563       3574       3573  
      3442       3443       3454       3453       3563       3564       3575       3574  
      3444       3445       3456       3455       3565       3566       3577       3576  
      3445       3446       3457       3456       3566       3567       3578       3577  
      3446       3447       3458       3457       3567       3568       3579       3578  
      3447       3448       3459       3458       3568       3569       3580       3579  
      3448       3449       3460       3459       3569       3570       3581       3580  
      3449       3450       3461       3460       3570       3571       3582       3581  
      3450       3451       3462       3461       3571       3572       3583       3582  
      3451       3452       3463       3462       3572       3573       3584       3583  
      3452       3453       3464       3463       3573       3574       3585       3584  
      3453       3454       3465       3464       3574       3575       3586       3585  
      3455       3456       3467       3466       3576       3577       3588       3587  
      3456       3457       3468       3467       3577       3578       3589       3588  
      3457       3458       3469       3468       3578       3579       3590       3589  
      3458       3459       3470       3469       3579       3580       3591       3590  
      3459       3460       3471       3470       3580       3581       3592       3591  
      3460       3461       3472       3471       3581       3582       3593       3592  
      3461       3462       3473       3472       3582       3583       3594       3593  
      3462       3463       3474       3473       3583       3584       3595       3594  
      3463       3464       3475       3474       3584       3585       3596       3595  
      3464       3465       3476       3475       3585       3586       3597       3596  
      3466       3467       3478       3477       3587       3588       3599       3598  
      3467       3468       3479       3478       3588       3589       3600       3599  
      3468       3469       3480       3479       3589       3590       3601       3600  
      3469       3470       3481       3480       3590       3591       3602       3601  
      3470       3471       3482       3481       3591       3592       3603       3602  
      3471       3472       3483       3482       3592       3593       3604       3603  
      3472       3473       3484       3483       3593       3594       3605       3604  
      3473       3474       3485       3484       3594       3595       3606       3605  
      3474       3475       3486       3485       3595       3596       3607       3606  
      3475       3476       3487       3486       3596       3597       3608       3607  
      3477       3478       3489       3488       3598       3599       3610       3609  
      3478       3479       3490       3489       3599       3600       3611       3610  
      3479       3480       3491       3490       3600       3601       3612       3611  
      3480       3481       3492       3491       3601       3602       3613       3612  
      3481       3482       3493       3492       3602       3603       3614       3613  
      3482       3483       3494       3493       3603       3604       3615       3614  
      3483       3484       3495       3494       3604       3605       3616       3615  
      3484       3485       3496       3495       3605       3606       3617       3616  
      3485       3486       3497       3496       3606       3607       3618       3617  
      3486       3487       3498       3497       3607       3608       3619       3618  
      3488       3489       3500       3499       3609       3610       3621       3620  
      3489       3490       3501       3500       3610       3611       3622       3621  
      3490       3491       3502       3501       3611       3612       3623       3622  
      3491       3492       3503       3502       3612       3613       3624       3623  
      3492       3493       3504       3503       3613       3614       3625       3624  
      3493       3494       3505       3504       3614       3615       3626       3625  
      3494       3495       3506       3505       3615       3616       3627       3626  
      3495       3496       3507       3506       3616       3617       3628       3627  
      3496       3497       3508       3507       3617       3618       3629       3628  
      3497       3498       3509       3508       3618       3619       3630       3629  
      3510       3511       3522       3521       3631       3632       3643       3642  
      3511       3512       3523       3522       3632       3633       3644       3643  
      3512       3513       3524       3523       3633       3634       3645       3644  
      3513       3514       3525       3524       3634       3635       3646       3645  
      3514       3515       3526       3525       3635       3636       3647       3646  
      3515       3516       3527       3526       3636       3637       3648       3647  
      3516       3517       3528       3527       3637       3638       3649       3648  
      3517       3518       3529       3528       3638       3639       3650       3649  
      3518       3519       3530       3529       3639       3640       3651       3650  
      3519       3520       3531       3530       3640       3641       3652       3651  
      3521       3522       3533       3532       3642       3643       3654       3653  
      3522       3523       3534       3533       3643       3644       3655       3654  
      3523       3524       3535       3534       3644       3645       3656       3655  
      3524       3525       3536       3535       3645       3646       3657       3656  
      3525       3526       3537       3536       3646       3647       3658       3657  
      3526       3527       3538       3537       3647       3648       3659       3658  
      3527       3528       3539       3538       3648       3649       3660       3659  
      3528       3529       3540       3539       3649       3650       3661       3660  
      3529       3530       3541       3540       3650       3651       3662       3661  
      3530       3531       3542       3541       3651       3652       3663       3662  
      3532       3533       3544       3543       3653       3654       3665       3664  
      3533       3534       3545       3544       3654       3655       3666       3665  
      3534       3535       3546       3545       3655       3656       3667       3666  
      3535       3536       3547       3546       3656       3657       3668       3667  
      3536       3537       3548       3547       3657       3658       3669       3668  
      3537       3538       3549       3548       3658       3659       3670       3669  
      3538       3539       3550       3549       3659       3660       3671       3670  
      3539       3540       3551       3550       3660       3661       3672       3671  
      3540       3541       3552       3551       3661       3662       3673       3672  
      3541       3542       3553       3552       3662       3663       3674       3673  
      3543       3544       3555       3554       3664       3665       3676       3675  
      3544       3545       3556       3555       3665       3666       3677       3676  
      3545       3546       3557       3556       3666       3667       3678       3677  
      3546       3547       3558       3557       3667       3668       3679       3678  
      3547       3548       3559       3558       3668       3669       3680       3679  
      3548       3549       3560       3559       3669       3670       3681       3680  
      3549       3550       3561       3560       3670       3671       3682       3681  
      3550       3551       3562       3561       3671       3672       3683       3682  
      3551       3552       3563       3562       3672       3673       3684       3683  
      3552       3553       3564       3563       3673       3674       3685       3684  
      3554       3555       3566       3565       3675       3676       3687       3686  
      3555       3556       3567       3566       3676       3677       3688       3687  
      3556       3557       3568       3567       3677       3678       3689       3688  
      3557       3558       3569       3568       3678       3679       3690       3689  
      3558       3559       3570       3569       3679       3680       3691       3690  
      3559       3560       3571       3570       3680       3681       3692       3691  
      3560       3561       3572       3571       3681       3682       3693       3692  
      3561       3562       3573       3572       3682       3683       3694       3693  
      3562       3563       3574       3573       3683       3684       3695       3694  
      3563       3564       3575       3574       3684       3685       3696       3695  
      3565       3566       3577       3576       3686       3687       3698       3697  
      3566       3567       3578       3577       3687       3688       3699       3698  
      3567       3568       3579       3578       3688       3689       3700       3699  
      3568       3569       3580       3579       3689       3690       3701       3700  
      3569       3570       3581       3580       3690       3691       3702       3701  
      3570       3571       3582       3581       3691       3692       3703       3702  
      3571       3572       3583       3582       3692       3693       3704       3703  
      3572       3573       3584       3583       3693       3694       3705       3704  
      3573       3574       3585       3584       3694       3695       3706       3705  
      3574       3575       3586       3585       3695       3696       3707       3706  
      3576       3577       3588       3587       3697       3698       3709       3708  
      3577       3578       3589       3588       3698       3699       3710       3709  
      3578       3579       3590       3589       3699       3700       3711       3710  
      3579       3580       3591       3590       3700       3701       3712       3711  
      3580       3581       3592       3591       3701       3702       3713       3712  
      3581       3582       3593       3592       3702       3703       3714       3713  
      3582       3583       3594       3593       3703       3704       3715       3714  
      3583       3584       3595       3594       3704       3705       3716       3715  
      3584       3585       3596       3595       3705       3706       3717       3716  
      3585       3586       3597       3596       3706       3707       3718       3717  
      3587       3588       3599       3598       3708       3709       3720       3719  
      3588       3589       3600       3599       3709       3710       3721       3720  
      3589       3590       3601       3600       3710       3711       3722       3721  
      3590       3591       3602       3601       3711       3712       3723       3722  
      3591       3592       3603       3602       3712       3713       3724       3723  
      3592       3593       3604       3603       3713       3714       3725       3724  
      3593       3594       3605       3604       3714       3715       3726       3725  
      3594       3595       3606       3605       3715       3716       3727       3726  
      3595       3596       3607       3606       3716       3717       3728       3727  
      3596       3597       3608       3607       3717       3718       3729       3728  
      3598       3599       3610       3609       3719       3720       3731       3730  
      3599       3600       3611       3610       3720       3721       3732       3731  
      3600       3601       3612       3611       3721       3722       3733       3732  
      3601       3602       3613       3612       3722       3723       3734       3733  
      3602       3603       3614       3613       3723       3724       3735       3734  
      3603       3604       3615       3614       3724       3725       3736       3735  
      3604       3605       3616       3615       3725       3726       3737       3736  
      3605       3606       3617       3616       3726       3727       3738       3737  
      3606       3607       3618       3617       3727       3728       3739       3738  
      3607       3608       3619       3618       3728       3729       3740       3739  
      3609       3610       3621       3620       3730       3731       3742       3741  
      3610       3611       3622       3621       3731       3732       3743       3742  
      3611       3612       3623       3622       3732       3733       3744       3743  
      3612       3613       3624       3623       3733       3734       3745       3744  
      3613       3614       3625       3624       3734       3735       3746       3745  
      3614       3615       3626       3625       3735       3736       3747       3746  
      3615       3616       3627       3626       3736       3737       3748       3747  
      3616       3617       3628       3627       3737       3738       3749       3748  
      3617       3618       3629       3628       3738       3739       3750       3749  
      3618       3619       3630       3629       3739       3740       3751       3750  
      3631       3632       3643       3642       3752       3753       3764       3763  
      3632       3633       3644       3643       3753       3754       3765       3764  
      3633       3634       3645       3644       3754       3755       3766       3765  
      3634       3635       3646       3645       3755       3756       3767       3766  
      3635       3636       3647       3646       3756       3757       3768       3767  
      3636       3637       3648       3647       3757       3758       3769       3768  
      3637       3638       3649       3648       3758       3759       3770       3769  
      3638       3639       3650       3649       3759       3760       3771       3770  
      3639       3640       3651       3650       3760       3761       3772       3771  
      3640       3641       3652       3651       3761       3762       3773       3772  
      3642       3643       3654       3653       3763       3764       3775       3774  
      3643       3644       3655       3654       3764       3765       3776       3775  
      3644       3645       3656       3655       3765       3766       3777       3776  
      3645       3646       3657       3656       3766       3767       3778       3777  
      3646       3647       3658       3657       3767       3768       3779       3778  
      3647       3648       3659       3658       3768       3769       3780       3779  
      3648       3649       3660       3659       3769       3770       3781       3780  
      3649       3650       3661       3660       3770       3771       3782       3781  
      3650       3651       3662       3661       3771       3772       3783       3782  
      3651       3652       3663       3662       3772       3773       3784       3783  
      3653       3654       3665       3664       3774       3775       3786       3785  
      3654       3655       3666       3665       3775       3776       3787       3786  
      3655       3656       3667       3666       3776       3777       3788       3787  
      3656       3657       3668       3667       3777       3778       3789       3788  
      3657       3658       3669       3668       3778       3779       3790       3789  
      3658       3659       3670       3669       3779       3780       3791       3790  
      3659       3660       3671       3670       3780       3781       3792       3791  
      3660       3661       3672       3671       3781       3782       3793       3792  
      3661       3662       3673       3672       3782       3783       3794       3793  
      3662       3663       3674       3673       3783       3784       3795       3794  
      3664       3665       3676       3675       3785       3786       3797       3796  
      3665       3666       3677       3676       3786       3787       3798       3797  
      3666       3667       3678       3677       3787       3788       3799       3798  
      3667       3668       3679       3678       3788       3789       3800       3799  
      3668       3669       3680       3679       3789       3790       3801       3800  
      3669       3670       3681       3680       3790       3791       3802       3801  
      3670       3671       3682       3681       3791       3792       3803       3802  
      3671       3672       3683       3682       3792       3793       3804       3803  
      3672       3673       3684       3683       3793       3794       3805       3804  
      3673       3674       3685       3684       3794       3795       3806       3805  
      3675       3676       3687       3686       3796       3797       3808       3807  
      3676       3677       3688       3687       3797       3798       3809       3808  
      3677       3678       3689       3688       3798       3799       3810       3809  
      3678       3679       3690       3689       3799       3800       3811       3810  
      3679       3680       3691       3690       3800       3801       3812       3811  
      3680       3681       3692       3691       3801       3802       3813       3812  
      3681       3682       3693       3692       3802       3803       3814       3813  
      3682       3683       3694       3693       3803       3804       3815       3814  
      3683       3684       3695       3694       3804       3805       3816       3815  
      3684       3685       3696       3695       3805       3806       3817       3816  
      3686       3687       3698       3697       3807       3808       3819       3818  
      3687       3688       3699       3698       3808       3809       3820       3819  
      3688       3689       3700       3699       3809       3810       3821       3820  
      3689       3690       3701       3700       3810       3811       3822       3821  
      3690       3691       3702       3701       3811       3812       3823       3822  
      3691       3692       3703       3702       3812       3813       3824       3823  
      3692       3693       3704       3703       3813       3814       3825       3824  
      3693       3694       3705       3704       3814       3815       3826       3825  
      3694       3695       3706       3705       3815       3816       3827       3826  
      3695       3696       3707       3706       3816       3817       3828       3827  
      3697       3698       3709       3708       3818       3819       3830       3829  
      3698       3699       3710       3709       3819       3820       3831       3830  
      3699       3700       3711       3710       3820       3821       3832       3831  
      3700       3701       3712       3711       3821       3822       3833       3832  
      3701       3702       3713       3712       3822       3823       3834       3833  
      3702       3703       3714       3713       3823       3824       3835       3834  
      3703       3704       3715       3714       3824       3825       3836       3835  
      3704       3705       3716       3715       3825       3826       3837       3836  
      3705       3706       3717       3716       3826       3827       3838       3837  
      3706       3707       3718       3717       3827       3828       3839       3838  
      3708       3709       3720       3719       3829       3830       3841       3840  
      3709       3710       3721       3720       3830       3831       3842       3841  
      3710       3711       3722       3721       3831       3832       3843       3842  
      3711       3712       3723       3722       3832       3833       3844       3843  
      3712       3713       3724       3723       3833       3834       3845       3844  
      3713       3714       3725       3724       3834       3835       3846       3845  
      3714       3715       3726       3725       3835       3836       3847       3846  
      3715       3716       3727       3726       3836       3837       3848       3847  
      3716       3717       3728       3727       3837       3838       3849       3848  
      3717       3718       3729       3728       3838       3839       3850       3849  
      3719       3720       3731       3730       3840       3841       3852       3851  
      3720       3721       3732       3731       3841       3842       3853       3852  
      3721       3722       3733       3732       3842       3843       3854       3853  
      3722       3723       3734       3733       3843       3844       3855       3854  
      3723       3724       3735       3734       3844       3845       3856       3855  
      3724       3725       3736       3735       3845       3846       3857       3856  
      3725       3726       3737       3736       3846       3847       3858       3857  
      3726       3727       3738       3737       3847       3848       3859       3858  
      3727       3728       3739       3738       3848       3849       3860       3859  
      3728       3729       3740       3739       3849       3850       3861       3860  
      3730       3731       3742       3741       3851       3852       3863       3862  
      3731       3732       3743       3742       3852       3853       3864       3863  
      3732       3733       3744       3743       3853       3854       3865       3864  
      3733       3734       3745       3744       3854       3855       3866       3865  
      3734       3735       3746       3745       3855       3856       3867       3866  
      3735       3736       3747       3746       3856       3857       3868       3867  
      3736       3737       3748       3747       3857       3858       3869       3868  
      3737       3738       3749       3748       3858       3859       3870       3869  
      3738       3739       3750       3749       3859       3860       3871       3870  
      3739       3740       3751       3750       3860       3861       3872       3871  
      3752       3753       3764       3763       3873       3874       3885       3884  
      3753       3754       3765       3764       3874       3875       3886       3885  
      3754       3755       3766       3765       3875       3876       3887       3886  
      3755       3756       3767       3766       3876       3877       3888       3887  
      3756       3757       3768       3767       3877       3878       3889       3888  
      3757       3758       3769       3768       3878       3879       3890       3889  
      3758       3759       3770       3769       3879       3880       3891       3890  
      3759       3760       3771       3770       3880       3881       3892       3891  
      3760       3761       3772       3771       3881       3882       3893       3892  
      3761       3762       3773       3772       3882       3883       3894       3893  
      3763       3764       3775       3774       3884       3885       3896       3895  
      3764       3765       3776       3775       3885       3886       3897       3896  
      3765       3766       3777       3776       3886       3887       3898       3897  
      3766       3767       3778       3777       3887       3888       3899       3898  
      3767       3768       3779       3778       3888       3889       3900       3899  
      3768       3769       3780       3779       3889       3890       3901       3900  
      3769       3770       3781       3780       3890       3891       3902       3901  
      3770       3771       3782       3781       3891       3892       3903       3902  
      3771       3772       3783       3782       3892       3893       3904       3903  
      3772       3773       3784       3783       3893       3894       3905       3904  
      3774       3775       3786       3785       3895       3896       3907       3906  
      3775       3776       3787       3786       3896       3897       3908       3907  
      3776       3777       3788       3787       3897       3898       3909       3908  
      3777       3778       3789       3788       3898       3899       3910       3909  
      3778       3779       3790       3789       3899       3900       3911       3910  
      3779       3780       3791       3790       3900       3901       3912       3911  
      3780       3781       3792       3791       3901       3902       3913       3912  
      3781       3782       3793       3792       3902       3903       3914       3913  
      3782       3783       3794       3793       3903       3904       3915       3914  
      3783       3784       3795       3794       3904       3905       3916       3915  
      3785       3786       3797       3796       3906       3907       3918       3917  
      3786       3787       3798       3797       3907       3908       3919       3918  
      3787       3788       3799       3798       3908       3909       3920       3919  
      3788       3789       3800       3799       3909       3910       3921       3920  
      3789       3790       3801       3800       3910       3911       3922       3921  
      3790       3791       3802       3801       3911       3912       3923       3922  
      3791       3792       3803       3802       3912       3913       3924       3923  
      3792       3793       3804       3803       3913       3914       3925       3924  
      3793       3794       3805       3804       3914       3915       3926       3925  
      3794       3795       3806       3805       3915       3916       3927       3926  
      3796       3797       3808       3807       3917       3918       3929       3928  
      3797       3798       3809       3808       3918       3919       3930       3929  
      3798       3799       3810       3809       3919       3920       3931       3930  
      3799       3800       3811       3810       3920       3921       3932       3931  
      3800       3801       3812       3811       3921       3922       3933       3932  
      3801       3802       3813       3812       3922       3923       3934       3933  
      3802       3803       3814       3813       3923       3924       3935       3934  
      3803       3804       3815       3814       3924       3925       3936       3935  
      3804       3805       3816       3815       3925       3926       3937       3936  
      3805       3806       3817       3816       3926       3927       3938       3937  
      3807       3808       3819       3818       3928       3929       3940       3939  
      3808       3809       3820       3819       3929       3930       3941       3940  
      3809       3810       3821       3820       3930       3931       3942       3941  
      3810       3811       3822       3821       3931       3932       3943       3942  
      3811       3812       3823       3822       3932       3933       3944       3943  
      3812       3813       3824       3823       3933       3934       3945       3944  
      3813       3814       3825       3824       3934       3935       3946       3945  
      3814       3815       3826       3825       3935       3936       3947       3946  
      3815       3816       3827       3826       3936       3937       3948       3947  
      3816       3817       3828       3827       3937       3938       3949       3948  
      3818       3819       3830       3829       3939       3940       3951       3950  
      3819       3820       3831       3830       3940       3941       3952       3951  
      3820       3821       3832       3831       3941       3942       3953       3952  
      3821       3822       3833       3832       3942       3943       3954       3953  
      3822       3823       3834       3833       3943       3944       3955       3954  
      3823       3824       3835       3834       3944       3945       3956       3955  
      3824       3825       3836       3835       3945       3946       3957       3956  
      3825       3826       3837       3836       3946       3947       3958       3957  
      3826       3827       3838       3837       3947       3948       3959       3958  
      3827       3828       3839       3838       3948       3949       3960       3959  
      3829       3830       3841       3840       3950       3951       3962       3961  
      3830       3831       3842       3841       3951       3952       3963       3962  
      3831       3832       3843       3842       3952       3953       3964       3963  
      3832       3833       3844       3843       3953       3954       3965       3964  
      3833       3834       3845       3844       3954       3955       3966       3965  
      3834       3835       3846       3845       3955       3956       3967       3966  
      3835       3836       3847       3846       3956       3957       3968       3967  
      3836       3837       3848       3847       3957       3958       3969       3968  
      3837       3838       3849       3848       3958       3959       3970       3969  
      3838       3839       3850       3849       3959       3960       3971       3970  
      3840       3841       3852       3851       3961       3962       3973       3972  
      3841       3842       3853       3852       3962       3963       3974       3973  
      3842       3843       3854       3853       3963       3964       3975       3974  
      3843       3844       3855       3854       3964       3965       3976       3975  
      3844       3845       3856       3855       3965       3966       3977       3976  
      3845       3846       3857       3856       3966       3967       3978       3977  
      3846       3847       3858       3857       3967       3968       3979       3978  
      3847       3848       3859       3858       3968       3969       3980       3979  
      3848       3849       3860       3859       3969       3970       3981       3980  
      3849       3850       3861       3860       3970       3971       3982       3981  
      3851       3852       3863       3862       3972       3973       3984       3983  
      3852       3853       3864       3863       3973       3974       3985       3984  
      3853       3854       3865       3864       3974       3975       3986       3985  
      3854       3855       3866       3865       3975       3976       3987       3986  
      3855       3856       3867       3866       3976       3977       3988       3987  
      3856       3857       3868       3867       3977       3978       3989       3988  
      3857       3858       3869       3868       3978       3979       3990       3989  
      3858       3859       3870       3869       3979       3980       3991       3990  
      3859       3860       3871       3870       3980       3981       3992       3991  
      3860       3861       3872       3871       3981       3982       3993       3992  
      3873       3874       3885       3884       3994       3995       4006       4005  
      3874       3875       3886       3885       3995       3996       4007       4006  
      3875       3876       3887       3886       3996       3997       4008       4007  
      3876       3877       3888       3887       3997       3998       4009       4008  
      3877       3878       3889       3888       3998       3999       4010       4009  
      3878       3879       3890       3889       3999       4000       4011       4010  
      3879       3880       3891       3890       4000       4001       4012       4011  
      3880       3881       3892       3891       4001       4002       4013       4012  
      3881       3882       3893       3892       4002       4003       4014       4013  
      3882       3883       3894       3893       4003       4004       4015       4014  
      3884       3885       3896       3895       4005       4006       4017       4016  
      3885       3886       3897       3896       4006       4007       4018       4017  
      3886       3887       3898       3897       4007       4008       4019       4018  
      3887       3888       3899       3898       4008       4009       4020       4019  
      3888       3889       3900       3899       4009       4010       4021       4020  
      3889       3890       3901       3900       4010       4011       4022       4021  
      3890       3891       3902       3901       4011       4012       4023       4022  
      3891       3892       3903       3902       4012       4013       4024       4023  
      3892       3893       3904       3903       4013       4014       4025       4024  
      3893       3894       3905       3904       4014       4015       4026       4025  
      3895       3896       3907       3906       4016       4017       4028       4027  
      3896       3897       3908       3907       4017       4018       4029       4028  
      3897       3898       3909       3908       4018       4019       4030       4029  
      3898       3899       3910       3909       4019       4020       4031       4030  
      3899       3900       3911       3910       4020       4021       4032       4031  
      3900       3901       3912       3911       4021       4022       4033       4032  
      3901       3902       3913       3912       4022       4023       4034       4033  
      3902       3903       3914       3913       4023       4024       4035       4034  
      3903       3904       3915       3914       4024       4025       4036       4035  
      3904       3905       3916       3915       4025       4026       4037       4036  
      3906       3907       3918       3917       4027       4028       4039       4038  
      3907       3908       3919       3918       4028       4029       4040       4039  
      3908       3909       3920       3919       4029       4030       4041       4040  
      3909       3910       3921       3920       4030       4031       4042       4041  
      3910       3911       3922       3921       4031       4032       4043       4042  
      3911       3912       3923       3922       4032       4033       4044       4043  
      3912       3913       3924       3923       4033       4034       4045       4044  
      3913       3914       3925       3924       4034       4035       4046       4045  
      3914       3915       3926       3925       4035       4036       4047       4046  
      3915       3916       3927       3926       4036       4037       4048       4047  
      3917       3918       3929       3928       4038       4039       4050       4049  
      3918       3919       3930       3929       4039       4040       4051       4050  
      3919       3920       3931       3930       4040       4041       4052       4051  
      3920       3921       3932       3931       4041       4042       4053       4052  
      3921       3922       3933       3932       4042       4043       4054       4053  
      3922       3923       3934       3933       4043       4044       4055       4054  
      3923       3924       3935       3934       4044       4045       4056       4055  
      3924       3925       3936       3935       4045       4046       4057       4056  
      3925       3926       3937       3936       4046       4047       4058       4057  
      3926       3927       3938       3937       4047       4048       4059       4058  
      3928       3929       3940       3939       4049       4050       4061       4060  
      3929       3930       3941       3940       4050       4051       4062       4061  
      3930       3931       3942       3941       4051       4052       4063       4062  
      3931       3932       3943       3942       4052       4053       4064       4063  
      3932       3933       3944       3943       4053       4054       4065       4064  
      3933       3934       3945       3944       4054       4055       4066       4065  
      3934       3935       3946       3945       4055       4056       4067       4066  
      3935       3936       3947       3946       4056       4057       4068       4067  
      3936       3937       3948       3947       4057       4058       4069       4068  
      3937       3938       3949       3948       4058       4059       4070       4069  
      3939       3940       3951       3950       4060       4061       4072       4071  
      3940       3941       3952       3951       4061       4062       4073       4072  
      3941       3942       3953       3952       4062       4063       4074       4073  
      3942       3943       3954       3953       4063       4064       4075       4074  
      3943       3944       3955       3954       4064       4065       4076       4075  
      3944       3945       3956       3955       4065       4066       4077       4076  
      3945       3946       3957       3956       4066       4067       4078       4077  
      3946       3947       3958       3957       4067       4068       4079       4078  
      3947       3948       3959       3958       4068       4069       4080       4079  
      3948       3949       3960       3959       4069       4070       4081       4080  
      3950       3951       3962       3961       4071       4072       4083       4082  
      3951       3952       3963       3962       4072       4073       4084       4083  
      3952       3953       3964       3963       4073       4074       4085       4084  
      3953       3954       3965       3964       4074       4075       4086       4085  
      3954       3955       3966       3965       4075       4076       4087       4086  
      3955       3956       3967       3966       4076       4077       4088       4087  
      3956       3957       3968       3967       4077       4078       4089       4088  
      3957       3958       3969       3968       4078       4079       4090       4089  
      3958       3959       3970       3969       4079       4080       4091       4090  
      3959       3960       3971       3970       4080       4081       4092       4091  
      3961       3962       3973       3972       4082       4083       4094       4093  
      3962       3963       3974       3973       4083       4084       4095       4094  
      3963       3964       3975       3974       4084       4085       4096       4095  
      3964       3965       3976       3975       4085       4086       4097       4096  
      3965       3966       3977       3976       4086       4087       4098       4097  
      3966       3967       3978       3977       4087       4088       4099       4098  
      3967       3968       3979       3978       4088       4089       4100       4099  
      3968       3969       3980       3979       4089       4090       4101       4100  
      3969       3970       3981       3980       4090       4091       4102       4101  
      3970       3971       3982       3981       4091       4092       4103       4102  
      3972       3973       3984       3983       4093       4094       4105       4104  
      3973       3974       3985       3984       4094       4095       4106       4105  
      3974       3975       3986       3985       4095       4096       4107       4106  
      3975       3976       3987       3986       4096       4097       4108       4107  
      3976       3977       3988       3987       4097       4098       4109       4108  
      3977       3978       3989       3988       4098       4099       4110       4109  
      3978       3979       3990       3989       4099       4100       4111       4110  
      3979       3980       3991       3990       4100       4101       4112       4111  
      3980       3981       3992       3991       4101       4102       4113       4112  
      3981       3982       3993       3992       4102       4103       4114       4113  
      3994       3995       4006       4005       4115       4116       4127       4126  
      3995       3996       4007       4006       4116       4117       4128       4127  
      3996       3997       4008       4007       4117       4118       4129       4128  
      3997       3998       4009       4008       4118       4119       4130       4129  
      3998       3999       4010       4009       4119       4120       4131       4130  
      3999       4000       4011       4010       4120       4121       4132       4131  
      4000       4001       4012       4011       4121       4122       4133       4132  
      4001       4002       4013       4012       4122       4123       4134       4133  
      4002       4003       4014       4013       4123       4124       4135       4134  
      4003       4004       4015       4014       4124       4125       4136       4135  
      4005       4006       4017       4016       4126       4127       4138       4137  
      4006       4007       4018       4017       4127       4128       4139       4138  
      4007       4008       4019       4018       4128       4129       4140       4139  
      4008       4009       4020       4019       4129       4130       4141       4140  
      4009       4010       4021       4020       4130       4131       4142       4141  
      4010       4011       4022       4021       4131       4132       4143       4142  
      4011       4012       4023       4022       4132       4133       4144       4143  
      4012       4013       4024       4023       4133       4134       4145       4144  
      4013       4014       4025       4024       4134       4135       4146       4145  
      4014       4015       4026       4025       4135       4136       4147       4146  
      4016       4017       4028       4027       4137       4138       4149       4148  
      4017       4018       4029       4028       4138       4139       4150       4149  
      4018       4019       4030       4029       4139       4140       4151       4150  
      4019       4020       4031       4030       4140       4141       4152       4151  
      4020       4021       4032       4031       4141       4142       4153       4152  
      4021       4022       4033       4032       4142       4143       4154       4153  
      4022       4023       4034       4033       4143       4144       4155       4154  
      4023       4024       4035       4034       4144       4145       4156       4155  
      4024       4025       4036       4035       4145       4146       4157       4156  
      4025       4026       4037       4036       4146       4147       4158       4157  
      4027       4028       4039       4038       4148       4149       4160       4159  
      4028       4029       4040       4039       4149       4150       4161       4160  
      4029       4030       4041       4040       4150       4151       4162       4161  
      4030       4031       4042       4041       4151       4152       4163       4162  
      4031       4032       4043       4042       4152       4153       4164       4163  
      4032       4033       4044       4043       4153       4154       4165       4164  
      4033       4034       4045       4044       4154       4155       4166       4165  
      4034       4035       4046       4045       4155       4156       4167       4166  
      4035       4036       4047       4046       4156       4157       4168       4167  
      4036       4037       4048       4047       4157       4158       4169       4168  
      4038       4039       4050       4049       4159       4160       4171       4170  
      4039       4040       4051       4050       4160       4161       4172       4171  
      4040       4041       4052       4051       4161       4162       4173       4172  
      4041       4042       4053       4052       4162       4163       4174       4173  
      4042       4043       4054       4053       4163       4164       4175       4174  
      4043       4044       4055       4054       4164       4165       4176       4175  
      4044       4045       4056       4055       4165       4166       4177       4176  
      4045       4046       4057       4056       4166       4167       4178       4177  
      4046       4047       4058       4057       4167       4168       4179       4178  
      4047       4048       4059       4058       4168       4169       4180       4179  
      4049       4050       4061       4060       4170       4171       4182       4181  
      4050       4051       4062       4061       4171       4172       4183       4182  
      4051       4052       4063       4062       4172       4173       4184       4183  
      4052       4053       4064       4063       4173       4174       4185       4184  
      4053       4054       4065       4064       4174       4175       4186       4185  
      4054       4055       4066       4065       4175       4176       4187       4186  
      4055       4056       4067       4066       4176       4177       4188       4187  
      4056       4057       4068       4067       4177       4178       4189       4188  
      4057       4058       4069       4068       4178       4179       4190       4189  
      4058       4059       4070       4069       4179       4180       4191       4190  
      4060       4061       4072       4071       4181       4182       4193       4192  
      4061       4062       4073       4072       4182       4183       4194       4193  
      4062       4063       4074       4073       4183       4184       4195       4194  
      4063       4064       4075       4074       4184       4185       4196       4195  
      4064       4065       4076       4075       4185       4186       4197       4196  
      4065       4066       4077       4076       4186       4187       4198       4197  
      4066       4067       4078       4077       4187       4188       4199       4198  
      4067       4068       4079       4078       4188       4189       4200       4199  
      4068       4069       4080       4079       4189       4190       4201       4200  
      4069       4070       4081       4080       4190       4191       4202       4201  
      4071       4072       4083       4082       4192       4193       4204       4203  
      4072       4073       4084       4083       4193       4194       4205       4204  
      4073       4074       4085       4084       4194       4195       4206       4205  
      4074       4075       4086       4085       4195       4196       4207       4206  
      4075       4076       4087       4086       4196       4197       4208       4207  
      4076       4077       4088       4087       4197       4198       4209       4208  
      4077       4078       4089       4088       4198       4199       4210       4209  
      4078       4079       4090       4089       4199       4200       4211       4210  
      4079       4080       4091       4090       4200       4201       4212       4211  
      4080       4081       4092       4091       4201       4202       4213       4212  
      4082       4083       4094       4093       4203       4204       4215       4214  
      4083       4084       4095       4094       4204       4205       4216       4215  
      4084       4085       4096       4095       4205       4206       4217       4216  
      4085       4086       4097       4096       4206       4207       4218       4217  
      4086       4087       4098       4097       4207       4208       4219       4218  
      4087       4088       4099       4098       4208       4209       4220       4219  
      4088       4089       4100       4099       4209       4210       4221       4220  
      4089       4090       4101       4100       4210       4211       4222       4221  
      4090       4091       4102       4101       4211       4212       4223       4222  
      4091       4092       4103       4102       4212       4213       4224       4223  
      4093       4094       4105       4104       4214       4215       4226       4225  
      4094       4095       4106       4105       4215       4216       4227       4226  
      4095       4096       4107       4106       4216       4217       4228       4227  
      4096       4097       4108       4107       4217       4218       4229       4228  
      4097       4098       4109       4108       4218       4219       4230       4229  
      4098       4099       4110       4109       4219       4220       4231       4230  
      4099       4100       4111       4110       4220       4221       4232       4231  
      4100       4101       4112       4111       4221       4222       4233       4232  
      4101       4102       4113       4112       4222       4223       4234       4233  
      4102       4103       4114       4113       4223       4224       4235       4234  
      4115       4116       4127       4126       4236       4237       4248       4247  
      4116       4117       4128       4127       4237       4238       4249       4248  
      4117       4118       4129       4128       4238       4239       4250       4249  
      4118       4119       4130       4129       4239       4240       4251       4250  
      4119       4120       4131       4130       4240       4241       4252       4251  
      4120       4121       4132       4131       4241       4242       4253       4252  
      4121       4122       4133       4132       4242       4243       4254       4253  
      4122       4123       4134       4133       4243       4244       4255       4254  
      4123       4124       4135       4134       4244       4245       4256       4255  
      4124       4125       4136       4135       4245       4246       4257       4256  
      4126       4127       4138       4137       4247       4248       4259       4258  
      4127       4128       4139       4138       4248       4249       4260       4259  
      4128       4129       4140       4139       4249       4250       4261       4260  
      4129       4130       4141       4140       4250       4251       4262       4261  
      4130       4131       4142       4141       4251       4252       4263       4262  
      4131       4132       4143       4142       4252       4253       4264       4263  
      4132       4133       4144       4143       4253       4254       4265       4264  
      4133       4134       4145       4144       4254       4255       4266       4265  
      4134       4135       4146       4145       4255       4256       4267       4266  
      4135       4136       4147       4146       4256       4257       4268       4267  
      4137       4138       4149       4148       4258       4259       4270       4269  
      4138       4139       4150       4149       4259       4260       4271       4270  
      4139       4140       4151       4150       4260       4261       4272       4271  
      4140       4141       4152       4151       4261       4262       4273       4272  
      4141       4142       4153       4152       4262       4263       4274       4273  
      4142       4143       4154       4153       4263       4264       4275       4274  
      4143       4144       4155       4154       4264       4265       4276       4275  
      4144       4145       4156       4155       4265       4266       4277       4276  
      4145       4146       4157       4156       4266       4267       4278       4277  
      4146       4147       4158       4157       4267       4268       4279       4278  
      4148       4149       4160       4159       4269       4270       4281       4280  
      4149       4150       4161       4160       4270       4271       4282       4281  
      4150       4151       4162       4161       4271       4272       4283       4282  
      4151       4152       4163       4162       4272       4273       4284       4283  
      4152       4153       4164       4163       4273       4274       4285       4284  
      4153       4154       4165       4164       4274       4275       4286       4285  
      4154       4155       4166       4165       4275       4276       4287       4286  
      4155       4156       4167       4166       4276       4277       4288       4287  
      4156       4157       4168       4167       4277       4278       4289       4288  
      4157       4158       4169       4168       4278       4279       4290       4289  
      4159       4160       4171       4170       4280       4281       4292       4291  
      4160       4161       4172       4171       4281       4282       4293       4292  
      4161       4162       4173       4172       4282       4283       4294       4293  
      4162       4163       4174       4173       4283       4284       4295       4294  
      4163       4164       4175       4174       4284       4285       4296       4295  
      4164       4165       4176       4175       4285       4286       4297       4296  
      4165       4166       4177       4176       4286       4287       4298       4297  
      4166       4167       4178       4177       4287       4288       4299       4298  
      4167       4168       4179       4178       4288       4289       4300       4299  
      4168       4169       4180       4179       4289       4290       4301       4300  
      4170       4171       4182       4181       4291       4292       4303       4302  
      4171       4172       4183       4182       4292       4293       4304       4303  
      4172       4173       4184       4183       4293       4294       4305       4304  
      4173       4174       4185       4184       4294       4295       4306       4305  
      4174       4175       4186       4185       4295       4296       4307       4306  
      4175       4176       4187       4186       4296       4297       4308       4307  
      4176       4177       4188       4187       4297       4298       4309       4308  
      4177       4178       4189       4188       4298       4299       4310       4309  
      4178       4179       4190       4189       4299       4300       4311       4310  
      4179       4180       4191       4190       4300       4301       4312       4311  
      4181       4182       4193       4192       4302       4303       4314       4313  
      4182       4183       4194       4193       4303       4304       4315       4314  
      4183       4184       4195       4194       4304       4305       4316       4315  
      4184       4185       4196       4195       4305       4306       4317       4316  
      4185       4186       4197       4196       4306       4307       4318       4317  
      4186       4187       4198       4197       4307       4308       4319       4318  
      4187       4188       4199       4198       4308       4309       4320       4319  
      4188       4189       4200       4199       4309       4310       4321       4320  
      4189       4190       4201       4200       4310       4311       4322       4321  
      4190       4191       4202       4201       4311       4312       4323       4322  
      4192       4193       4204       4203       4313       4314       4325       4324  
      4193       4194       4205       4204       4314       4315       4326       4325  
      4194       4195       4206       4205       4315       4316       4327       4326  
      4195       4196       4207       4206       4316       4317       4328       4327  
      4196       4197       4208       4207       4317       4318       4329       4328  
      4197       4198       4209       4208       4318       4319       4330       4329  
      4198       4199       4210       4209       4319       4320       4331       4330  
      4199       4200       4211       4210       4320       4321       4332       4331  
      4200       4201       4212       4211       4321       4322       4333       4332  
      4201       4202       4213       4212       4322       4323       4334       4333  
      4203       4204       4215       4214       4324       4325       4336       4335  
      4204       4205       4216       4215       4325       4326       4337       4336  
      4205       4206       4217       4216       4326       4327       4338       4337  
      4206       4207       4218       4217       4327       4328       4339       4338  
      4207       4208       4219       4218       4328       4329       4340       4339  
      4208       4209       4220       4219       4329       4330       4341       4340  
      4209       4210       4221       4220       4330       4331       4342       4341  
      4210       4211       4222       4221       4331       4332       4343       4342  
      4211       4212       4223       4222       4332       4333       4344       4343  
      4212       4213       4224       4223       4333       4334       4345       4344  
      4214       4215       4226       4225       4335       4336       4347       4346  
      4215       4216       4227       4226       4336       4337       4348       4347  
      4216       4217       4228       4227       4337       4338       4349       4348  
      4217       4218       4229       4228       4338       4339       4350       4349  
      4218       4219       4230       4229       4339       4340       4351       4350  
      4219       4220       4231       4230       4340       4341       4352       4351  
      4220       4221       4232       4231       4341       4342       4353       4352  
      4221       4222       4233       4232       4342       4343       4354       4353  
      4222       4223       4234       4233       4343       4344       4355       4354  
      4223       4224       4235       4234       4344       4345       4356       4355  
      4236       4237       4248       4247       4357       4358       4369       4368  
      4237       4238       4249       4248       4358       4359       4370       4369  
      4238       4239       4250       4249       4359       4360       4371       4370  
      4239       4240       4251       4250       4360       4361       4372       4371  
      4240       4241       4252       4251       4361       4362       4373       4372  
      4241       4242       4253       4252       4362       4363       4374       4373  
      4242       4243       4254       4253       4363       4364       4375       4374  
      4243       4244       4255       4254       4364       4365       4376       4375  
      4244       4245       4256       4255       4365       4366       4377       4376  
      4245       4246       4257       4256       4366       4367       4378       4377  
      4247       4248       4259       4258       4368       4369       4380       4379  
      4248       4249       4260       4259       4369       4370       4381       4380  
      4249       4250       4261       4260       4370       4371       4382       4381  
      4250       4251       4262       4261       4371       4372       4383       4382  
      4251       4252       4263       4262       4372       4373       4384       4383  
      4252       4253       4264       4263       4373       4374       4385       4384  
      4253       4254       4265       4264       4374       4375       4386       4385  
      4254       4255       4266       4265       4375       4376       4387       4386  
      4255       4256       4267       4266       4376       4377       4388       4387  
      4256       4257       4268       4267       4377       4378       4389       4388  
      4258       4259       4270       4269       4379       4380       4391       4390  
      4259       4260       4271       4270       4380       4381       4392       4391  
      4260       4261       4272       4271       4381       4382       4393       4392  
      4261       4262       4273       4272       4382       4383       4394       4393  
      4262       4263       4274       4273       4383       4384       4395       4394  
      4263       4264       4275       4274       4384       4385       4396       4395  
      4264       4265       4276       4275       4385       4386       4397       4396  
      4265       4266       4277       4276       4386       4387       4398       4397  
      4266       4267       4278       4277       4387       4388       4399       4398  
      4267       4268       4279       4278       4388       4389       4400       4399  
      4269       4270       4281       4280       4390       4391       4402       4401  
      4270       4271       4282       4281       4391       4392       4403       4402  
      4271       4272       4283       4282       4392       4393       4404       4403  
      4272       4273       4284       4283       4393       4394       4405       4404  
      4273       4274       4285       4284       4394       4395       4406       4405  
      4274       4275       4286       4285       4395       4396       4407       4406  
      4275       4276       4287       4286       4396       4397       4408       4407  
      4276       4277       4288       4287       4397       4398       4409       4408  
      4277       4278       4289       4288       4398       4399       4410       4409  
      4278       4279       4290       4289       4399       4400       4411       4410  
      4280       4281       4292       4291       4401       4402       4413       4412  
      4281       4282       4293       4292       4402       4403       4414       4413  
      4282       4283       4294       4293       4403       4404       4415       4414  
      4283       4284       4295       4294       4404       4405       4416       4415  
      4284       4285       4296       4295       4405       4406       4417       4416  
      4285       4286       4297       4296       4406       4407       4418       4417  
      4286       4287       4298       4297       4407       4408       4419       4418  
      4287       4288       4299       4298       4408       4409       4420       4419  
      4288       4289       4300       4299       4409       4410       4421       4420  
      4289       4290       4301       4300       4410       4411       4422       4421  
      4291       4292       4303       4302       4412       4413       4424       4423  
      4292       4293       4304       4303       4413       4414       4425       4424  
      4293       4294       4305       4304       4414       4415       4426       4425  
      4294       4295       4306       4305       4415       4416       4427       4426  
      4295       4296       4307       4306       4416       4417       4428       4427  
      4296       4297       4308       4307       4417       4418       4429       4428  
      4297       4298       4309       4308       4418       4419       4430       4429  
      4298       4299       4310       4309       4419       4420       4431       4430  
      4299       4300       4311       4310       4420       4421       4432       4431  
      4300       4301       4312       4311       4421       4422       4433       4432  
      4302       4303       4314       4313       4423       4424       4435       4434  
      4303       4304       4315       4314       4424       4425       4436       4435  
      4304       4305       4316       4315       4425       4426       4437       4436  
      4305       4306       4317       4316       4426       4427       4438       4437  
      4306       4307       4318       4317       4427       4428       4439       4438  
      4307       4308       4319       4318       4428       4429       4440       4439  
      4308       4309       4320       4319       4429       4430       4441       4440  
      4309       4310       4321       4320       4430       4431       4442       4441  
      4310       4311       4322       4321       4431       4432       4443       4442  
      4311       4312       4323       4322       4432       4433       4444       4443  
      4313       4314       4325       4324       4434       4435       4446       4445  
      4314       4315       4326       4325       4435       4436       4447       4446  
      4315       4316       4327       4326       4436       4437       4448       4447  
      4316       4317       4328       4327       4437       4438       4449       4448  
      4317       4318       4329       4328       4438       4439       4450       4449  
      4318       4319       4330       4329       4439       4440       4451       4450  
      4319       4320       4331       4330       4440       4441       4452       4451  
      4320       4321       4332       4331       4441       4442       4453       4452  
      4321       4322       4333       4332       4442       4443       4454       4453  
      4322       4323       4334       4333       4443       4444       4455       4454  
      4324       4325       4336       4335       4445       4446       4457       4456  
      4325       4326       4337       4336       4446       4447       4458       4457  
      4326       4327       4338       4337       4447       4448       4459       4458  
      4327       4328       4339       4338       4448       4449       4460       4459  
      4328       4329       4340       4339       4449       4450       4461       4460  
      4329       4330       4341       4340       4450       4451       4462       4461  
      4330       4331       4342       4341       4451       4452       4463       4462  
      4331       4332       4343       4342       4452       4453       4464       4463  
      4332       4333       4344       4343       4453       4454       4465       4464  
      4333       4334       4345       4344       4454       4455       4466       4465  
      4335       4336       4347       4346       4456       4457       4468       4467  
      4336       4337       4348       4347       4457       4458       4469       4468  
      4337       4338       4349       4348       4458       4459       4470       4469  
      4338       4339       4350       4349       4459       4460       4471       4470  
      4339       4340       4351       4350       4460       4461       4472       4471  
      4340       4341       4352       4351       4461       4462       4473       4472  
      4341       4342       4353       4352       4462       4463       4474       4473  
      4342       4343       4354       4353       4463       4464       4475       4474  
      4343       4344       4355       4354       4464       4465       4476       4475  
      4344       4345       4356       4355       4465       4466       4477       4476  
      4357       4358       4369       4368       4478       4479       4490       4489  
      4358       4359       4370       4369       4479       4480       4491       4490  
      4359       4360       4371       4370       4480       4481       4492       4491  
      4360       4361       4372       4371       4481       4482       4493       4492  
      4361       4362       4373       4372       4482       4483       4494       4493  
      4362       4363       4374       4373       4483       4484       4495       4494  
      4363       4364       4375       4374       4484       4485       4496       4495  
      4364       4365       4376       4375       4485       4486       4497       4496  
      4365       4366       4377       4376       4486       4487       4498       4497  
      4366       4367       4378       4377       4487       4488       4499       4498  
      4368       4369       4380       4379       4489       4490       4501       4500  
      4369       4370       4381       4380       4490       4491       4502       4501  
      4370       4371       4382       4381       4491       4492       4503       4502  
      4371       4372       4383       4382       4492       4493       4504       4503  
      4372       4373       4384       4383       4493       4494       4505       4504  
      4373       4374       4385       4384       4494       4495       4506       4505  
      4374       4375       4386       4385       4495       4496       4507       4506  
      4375       4376       4387       4386       4496       4497       4508       4507  
      4376       4377       4388       4387       4497       4498       4509       4508  
      4377       4378       4389       4388       4498       4499       4510       4509  
      4379       4380       4391       4390       4500       4501       4512       4511  
      4380       4381       4392       4391       4501       4502       4513       4512  
      4381       4382       4393       4392       4502       4503       4514       4513  
      4382       4383       4394       4393       4503       4504       4515       4514  
      4383       4384       4395       4394       4504       4505       4516       4515  
      4384       4385       4396       4395       4505       4506       4517       4516  
      4385       4386       4397       4396       4506       4507       4518       4517  
      4386       4387       4398       4397       4507       4508       4519       4518  
      4387       4388       4399       4398       4508       4509       4520       4519  
      4388       4389       4400       4399       4509       4510       4521       4520  
      4390       4391       4402       4401       4511       4512       4523       4522  
      4391       4392       4403       4402       4512       4513       4524       4523  
      4392       4393       4404       4403       4513       4514       4525       4524  
      4393       4394       4405       4404       4514       4515       4526       4525  
      4394       4395       4406       4405       4515       4516       4527       4526  
      4395       4396       4407       4406       4516       4517       4528       4527  
      4396       4397       4408       4407       4517       4518       4529       4528  
      4397       4398       4409       4408       4518       4519       4530       4529  
      4398       4399       4410       4409       4519       4520       4531       4530  
      4399       4400       4411       4410       4520       4521       4532       4531  
      4401       4402       4413       4412       4522       4523       4534       4533  
      4402       4403       4414       4413       4523       4524       4535       4534  
      4403       4404       4415       4414       4524       4525       4536       4535  
      4404       4405       4416       4415       4525       4526       4537       4536  
      4405       4406       4417       4416       4526       4527       4538       4537  
      4406       4407       4418       4417       4527       4528       4539       4538  
      4407       4408       4419       4418       4528       4529       4540       4539  
      4408       4409       4420       4419       4529       4530       4541       4540  
      4409       4410       4421       4420       4530       4531       4542       4541  
      4410       4411       4422       4421       4531       4532       4543       4542  
      4412       4413       4424       4423       4533       4534       4545       4544  
      4413       4414       4425       4424       4534       4535       4546       4545  
      4414       4415       4426       4425       4535       4536       4547       4546  
      4415       4416       4427       4426       4536       4537       4548       4547  
      4416       4417       4428       4427       4537       4538       4549       4548  
      4417       4418       4429       4428       4538       4539       4550       4549  
      4418       4419       4430       4429       4539       4540       4551       4550  
      4419       4420       4431       4430       4540       4541       4552       4551  
      4420       4421       4432       4431       4541       4542       4553       4552  
      4421       4422       4433       4432       4542       4543       4554       4553  
      4423       4424       4435       4434       4544       4545       4556       4555  
      4424       4425       4436       4435       4545       4546       4557       4556  
      4425       4426       4437       4436       4546       4547       4558       4557  
      4426       4427       4438       4437       4547       4548       4559       4558  
      4427       4428       4439       4438       4548       4549       4560       4559  
      4428       4429       4440       4439       4549       4550       4561       4560  
      4429       4430       4441       4440       4550       4551       4562       4561  
      4430       4431       4442       4441       4551       4552       4563       4562  
      4431       4432       4443       4442       4552       4553       4564       4563  
      4432       4433       4444       4443       4553       4554       4565       4564  
      4434       4435       4446       4445       4555       4556       4567       4566  
      4435       4436       4447       4446       4556       4557       4568       4567  
      4436       4437       4448       4447       4557       4558       4569       4568  
      4437       4438       4449       4448       4558       4559       4570       4569  
      4438       4439       4450       4449       4559       4560       4571       4570  
      4439       4440       4451       4450       4560       4561       4572       4571  
      4440       4441       4452       4451       4561       4562       4573       4572  
      4441       4442       4453       4452       4562       4563       4574       4573  
      4442       4443       4454       4453       4563       4564       4575       4574  
      4443       4444       4455       4454       4564       4565       4576       4575  
      4445       4446       4457       4456       4566       4567       4578       4577  
      4446       4447       4458       4457       4567       4568       4579       4578  
      4447       4448       4459       4458       4568       4569       4580       4579  
      4448       4449       4460       4459       4569       4570       4581       4580  
      4449       4450       4461       4460       4570       4571       4582       4581  
      4450       4451       4462       4461       4571       4572       4583       4582  
      4451       4452       4463       4462       4572       4573       4584       4583  
      4452       4453       4464       4463       4573       4574       4585       4584  
      4453       4454       4465       4464       4574       4575       4586       4585  
      4454       4455       4466       4465       4575       4576       4587       4586  
      4456       4457       4468       4467       4577       4578       4589       4588  
      4457       4458       4469       4468       4578       4579       4590       4589  
      4458       4459       4470       4469       4579       4580       4591       4590  
      4459       4460       4471       4470       4580       4581       4592       4591  
      4460       4461       4472       4471       4581       4582       4593       4592  
      4461       4462       4473       4472       4582       4583       4594       4593  
      4462       4463       4474       4473       4583       4584       4595       4594  
      4463       4464       4475       4474       4584       4585       4596       4595  
      4464       4465       4476       4475       4585       4586       4597       4596  
      4465       4466       4477       4476       4586       4587       4598       4597  
      4478       4479       4490       4489       4599       4600       4611       4610  
      4479       4480       4491       4490       4600       4601       4612       4611  
      4480       4481       4492       4491       4601       4602       4613       4612  
      4481       4482       4493       4492       4602       4603       4614       4613  
      4482       4483       4494       4493       4603       4604       4615       4614  
      4483       4484       4495       4494       4604       4605       4616       4615  
      4484       4485       4496       4495       4605       4606       4617       4616  
      4485       4486       4497       4496       4606       4607       4618       4617  
      4486       4487       4498       4497       4607       4608       4619       4618  
      4487       4488       4499       4498       4608       4609       4620       4619  
      4489       4490       4501       4500       4610       4611       4622       4621  
      4490       4491       4502       4501       4611       4612       4623       4622  
      4491       4492       4503       4502       4612       4613       4624       4623  
      4492       4493       4504       4503       4613       4614       4625       4624  
      4493       4494       4505       4504       4614       4615       4626       4625  
      4494       4495       4506       4505       4615       4616       4627       4626  
      4495       4496       4507       4506       4616       4617       4628       4627  
      4496       4497       4508       4507       4617       4618       4629       4628  
      4497       4498       4509       4508       4618       4619       4630       4629  
      4498       4499       4510       4509       4619       4620       4631       4630  
      4500       4501       4512       4511       4621       4622       4633       4632  
      4501       4502       4513       4512       4622       4623       4634       4633  
      4502       4503       4514       4513       4623       4624       4635       4634  
      4503       4504       4515       4514       4624       4625       4636       4635  
      4504       4505       4516       4515       4625       4626       4637       4636  
      4505       4506       4517       4516       4626       4627       4638       4637  
      4506       4507       4518       4517       4627       4628       4639       4638  
      4507       4508       4519       4518       4628       4629       4640       4639  
      4508       4509       4520       4519       4629       4630       4641       4640  
      4509       4510       4521       4520       4630       4631       4642       4641  
      4511       4512       4523       4522       4632       4633       4644       4643  
      4512       4513       4524       4523       4633       4634       4645       4644  
      4513       4514       4525       4524       4634       4635       4646       4645  
      4514       4515       4526       4525       4635       4636       4647       4646  
      4515       4516       4527       4526       4636       4637       4648       4647  
      4516       4517       4528       4527       4637       4638       4649       4648  
      4517       4518       4529       4528       4638       4639       4650       4649  
      4518       4519       4530       4529       4639       4640       4651       4650  
      4519       4520       4531       4530       4640       4641       4652       4651  
      4520       4521       4532       4531       4641       4642       4653       4652  
      4522       4523       4534       4533       4643       4644       4655       4654  
      4523       4524       4535       4534       4644       4645       4656       4655  
      4524       4525       4536       4535       4645       4646       4657       4656  
      4525       4526       4537       4536       4646       4647       4658       4657  
      4526       4527       4538       4537       4647       4648       4659       4658  
      4527       4528       4539       4538       4648       4649       4660       4659  
      4528       4529       4540       4539       4649       4650       4661       4660  
      4529       4530       4541       4540       4650       4651       4662       4661  
      4530       4531       4542       4541       4651       4652       4663       4662  
      4531       4532       4543       4542       4652       4653       4664       4663  
      4533       4534       4545       4544       4654       4655       4666       4665  
      4534       4535       4546       4545       4655       4656       4667       4666  
      4535       4536       4547       4546       4656       4657       4668       4667  
      4536       4537       4548       4547       4657       4658       4669       4668  
      4537       4538       4549       4548       4658       4659       4670       4669  
      4538       4539       4550       4549       4659       4660       4671       4670  
      4539       4540       4551       4550       4660       4661       4672       4671  
      4540       4541       4552       4551       4661       4662       4673       4672  
      4541       4542       4553       4552       4662       4663       4674       4673  
      4542       4543       4554       4553       4663       4664       4675       4674  
      4544       4545       4556       4555       4665       4666       4677       4676  
      4545       4546       4557       4556       4666       4667       4678       4677  
      4546       4547       4558       4557       4667       4668       4679       4678  
      4547       4548       4559       4558       4668       4669       4680       4679  
      4548       4549       4560       4559       4669       4670       4681       4680  
      4549       4550       4561       4560       4670       4671       4682       4681  
      4550       4551       4562       4561       4671       4672       4683       4682  
      4551       4552       4563       4562       4672       4673       4684       4683  
      4552       4553       4564       4563       4673       4674       4685       4684  
      4553       4554       4565       4564       4674       4675       4686       4685  
      4555       4556       4567       4566       4676       4677       4688       4687  
      4556       4557       4568       4567       4677       4678       4689       4688  
      4557       4558       4569       4568       4678       4679       4690       4689  
      4558       4559       4570       4569       4679       4680       4691       4690  
      4559       4560       4571       4570       4680       4681       4692       4691  
      4560       4561       4572       4571       4681       4682       4693       4692  
      4561       4562       4573       4572       4682       4683       4694       4693  
      4562       4563       4574       4573       4683       4684       4695       4694  
      4563       4564       4575       4574       4684       4685       4696       4695  
      4564       4565       4576       4575       4685       4686       4697       4696  
      4566       4567       4578       4577       4687       4688       4699       4698  
      4567       4568       4579       4578       4688       4689       4700       4699  
      4568       4569       4580       4579       4689       4690       4701       4700  
      4569       4570       4581       4580       4690       4691       4702       4701  
      4570       4571       4582       4581       4691       4692       4703       4702  
      4571       4572       4583       4582       4692       4693       4704       4703  
      4572       4573       4584       4583       4693       4694       4705       4704  
      4573       4574       4585       4584       4694       4695       4706       4705  
      4574       4575       4586       4585       4695       4696       4707       4706  
      4575       4576       4587       4586       4696       4697       4708       4707  
      4577       4578       4589       4588       4698       4699       4710       4709  
      4578       4579       4590       4589       4699       4700       4711       4710  
      4579       4580       4591       4590       4700       4701       4712       4711  
      4580       4581       4592       4591       4701       4702       4713       4712  
      4581       4582       4593       4592       4702       4703       4714       4713  
      4582       4583       4594       4593       4703       4704       4715       4714  
      4583       4584       4595       4594       4704       4705       4716       4715  
      4584       4585       4596       4595       4705       4706       4717       4716  
      4585       4586       4597       4596       4706       4707       4718       4717  
      4586       4587       4598       4597       4707       4708       4719       4718  
      4599       4600       4611       4610       4720       4721       4732       4731  
      4600       4601       4612       4611       4721       4722       4733       4732  
      4601       4602       4613       4612       4722       4723       4734       4733  
      4602       4603       4614       4613       4723       4724       4735       4734  
      4603       4604       4615       4614       4724       4725       4736       4735  
      4604       4605       4616       4615       4725       4726       4737       4736  
      4605       4606       4617       4616       4726       4727       4738       4737  
      4606       4607       4618       4617       4727       4728       4739       4738  
      4607       4608       4619       4618       4728       4729       4740       4739  
      4608       4609       4620       4619       4729       4730       4741       4740  
      4610       4611       4622       4621       4731       4732       4743       4742  
      4611       4612       4623       4622       4732       4733       4744       4743  
      4612       4613       4624       4623       4733       4734       4745       4744  
      4613       4614       4625       4624       4734       4735       4746       4745  
      4614       4615       4626       4625       4735       4736       4747       4746  
      4615       4616       4627       4626       4736       4737       4748       4747  
      4616       4617       4628       4627       4737       4738       4749       4748  
      4617       4618       4629       4628       4738       4739       4750       4749  
      4618       4619       4630       4629       4739       4740       4751       4750  
      4619       4620       4631       4630       4740       4741       4752       4751  
      4621       4622       4633       4632       4742       4743       4754       4753  
      4622       4623       4634       4633       4743       4744       4755       4754  
      4623       4624       4635       4634       4744       4745       4756       4755  
      4624       4625       4636       4635       4745       4746       4757       4756  
      4625       4626       4637       4636       4746       4747       4758       4757  
      4626       4627       4638       4637       4747       4748       4759       4758  
      4627       4628       4639       4638       4748       4749       4760       4759  
      4628       4629       4640       4639       4749       4750       4761       4760  
      4629       4630       4641       4640       4750       4751       4762       4761  
      4630       4631       4642       4641       4751       4752       4763       4762  
      4632       4633       4644       4643       4753       4754       4765       4764  
      4633       4634       4645       4644       4754       4755       4766       4765  
      4634       4635       4646       4645       4755       4756       4767       4766  
      4635       4636       4647       4646       4756       4757       4768       4767  
      4636       4637       4648       4647       4757       4758       4769       4768  
      4637       4638       4649       4648       4758       4759       4770       4769  
      4638       4639       4650       4649       4759       4760       4771       4770  
      4639       4640       4651       4650       4760       4761       4772       4771  
      4640       4641       4652       4651       4761       4762       4773       4772  
      4641       4642       4653       4652       4762       4763       4774       4773  
      4643       4644       4655       4654       4764       4765       4776       4775  
      4644       4645       4656       4655       4765       4766       4777       4776  
      4645       4646       4657       4656       4766       4767       4778       4777  
      4646       4647       4658       4657       4767       4768       4779       4778  
      4647       4648       4659       4658       4768       4769       4780       4779  
      4648       4649       4660       4659       4769       4770       4781       4780  
      4649       4650       4661       4660       4770       4771       4782       4781  
      4650       4651       4662       4661       4771       4772       4783       4782  
      4651       4652       4663       4662       4772       4773       4784       4783  
      4652       4653       4664       4663       4773       4774       4785       4784  
      4654       4655       4666       4665       4775       4776       4787       4786  
      4655       4656       4667       4666       4776       4777       4788       4787  
      4656       4657       4668       4667       4777       4778       4789       4788  
      4657       4658       4669       4668       4778       4779       4790       4789  
      4658       4659       4670       4669       4779       4780       4791       4790  
      4659       4660       4671       4670       4780       4781       4792       4791  
      4660       4661       4672       4671       4781       4782       4793       4792  
      4661       4662       4673       4672       4782       4783       4794       4793  
      4662       4663       4674       4673       4783       4784       4795       4794  
      4663       4664       4675       4674       4784       4785       4796       4795  
      4665       4666       4677       4676       4786       4787       4798       4797  
      4666       4667       4678       4677       4787       4788       4799       4798  
      4667       4668       4679       4678       4788       4789       4800       4799  
      4668       4669       4680       4679       4789       4790       4801       4800  
      4669       4670       4681       4680       4790       4791       4802       4801  
      4670       4671       4682       4681       4791       4792       4803       4802  
      4671       4672       4683       4682       4792       4793       4804       4803  
      4672       4673       4684       4683       4793       4794       4805       4804  
      4673       4674       4685       4684       4794       4795       4806       4805  
      4674       4675       4686       4685       4795       4796       4807       4806  
      4676       4677       4688       4687       4797       4798       4809       4808  
      4677       4678       4689       4688       4798       4799       4810       4809  
      4678       4679       4690       4689       4799       4800       4811       4810  
      4679       4680       4691       4690       4800       4801       4812       4811  
      4680       4681       4692       4691       4801       4802       4813       4812  
      4681       4682       4693       4692       4802       4803       4814       4813  
      4682       4683       4694       4693       4803       4804       4815       4814  
      4683       4684       4695       4694       4804       4805       4816       4815  
      4684       4685       4696       4695       4805       4806       4817       4816  
      4685       4686       4697       4696       4806       4807       4818       4817  
      4687       4688       4699       4698       4808       4809       4820       4819  
      4688       4689       4700       4699       4809       4810       4821       4820  
      4689       4690       4701       4700       4810       4811       4822       4821  
      4690       4691       4702       4701       4811       4812       4823       4822  
      4691       4692       4703       4702       4812       4813       4824       4823  
      4692       4693       4704       4703       4813       4814       4825       4824  
      4693       4694       4705       4704       4814       4815       4826       4825  
      4694       4695       4706       4705       4815       4816       4827       4826  
      4695       4696       4707       4706       4816       4817       4828       4827  
      4696       4697       4708       4707       4817       4818       4829       4828  
      4698       4699       4710       4709       4819       4820       4831       4830  
      4699       4700       4711       4710       4820       4821       4832       4831  
      4700       4701       4712       4711       4821       4822       4833       4832  
      4701       4702       4713       4712       4822       4823       4834       4833  
      4702       4703       4714       4713       4823       4824       4835       4834  
      4703       4704       4715       4714       4824       4825       4836       4835  
      4704       4705       4716       4715       4825       4826       4837       4836  
      4705       4706       4717       4716       4826       4827       4838       4837  
      4706       4707       4718       4717       4827       4828       4839       4838  
      4707       4708       4719       4718       4828       4829       4840       4839  
      4720       4721       4732       4731       4841       4842       4853       4852  
      4721       4722       4733       4732       4842       4843       4854       4853  
      4722       4723       4734       4733       4843       4844       4855       4854  
      4723       4724       4735       4734       4844       4845       4856       4855  
      4724       4725       4736       4735       4845       4846       4857       4856  
      4725       4726       4737       4736       4846       4847       4858       4857  
      4726       4727       4738       4737       4847       4848       4859       4858  
      4727       4728       4739       4738       4848       4849       4860       4859  
      4728       4729       4740       4739       4849       4850       4861       4860  
      4729       4730       4741       4740       4850       4851       4862       4861  
      4731       4732       4743       4742       4852       4853       4864       4863  
      4732       4733       4744       4743       4853       4854       4865       4864  
      4733       4734       4745       4744       4854       4855       4866       4865  
      4734       4735       4746       4745       4855       4856       4867       4866  
      4735       4736       4747       4746       4856       4857       4868       4867  
      4736       4737       4748       4747       4857       4858       4869       4868  
      4737       4738       4749       4748       4858       4859       4870       4869  
      4738       4739       4750       4749       4859       4860       4871       4870  
      4739       4740       4751       4750       4860       4861       4872       4871  
      4740       4741       4752       4751       4861       4862       4873       4872  
      4742       4743       4754       4753       4863       4864       4875       4874  
      4743       4744       4755       4754       4864       4865       4876       4875  
      4744       4745       4756       4755       4865       4866       4877       4876  
      4745       4746       4757       4756       4866       4867       4878       4877  
      4746       4747       4758       4757       4867       4868       4879       4878  
      4747       4748       4759       4758       4868       4869       4880       4879  
      4748       4749       4760       4759       4869       4870       4881       4880  
      4749       4750       4761       4760       4870       4871       4882       4881  
      4750       4751       4762       4761       4871       4872       4883       4882  
      4751       4752       4763       4762       4872       4873       4884       4883  
      4753       4754       4765       4764       4874       4875       4886       4885  
      4754       4755       4766       4765       4875       4876       4887       4886  
      4755       4756       4767       4766       4876       4877       4888       4887  
      4756       4757       4768       4767       4877       4878       4889       4888  
      4757       4758       4769       4768       4878       4879       4890       4889  
      4758       4759       4770       4769       4879       4880       4891       4890  
      4759       4760       4771       4770       4880       4881       4892       4891  
      4760       4761       4772       4771       4881       4882       4893       4892  
      4761       4762       4773       4772       4882       4883       4894       4893  
      4762       4763       4774       4773       4883       4884       4895       4894  
      4764       4765       4776       4775       4885       4886       4897       4896  
      4765       4766       4777       4776       4886       4887       4898       4897  
      4766       4767       4778       4777       4887       4888       4899       4898  
      4767       4768       4779       4778       4888       4889       4900       4899  
      4768       4769       4780       4779       4889       4890       4901       4900  
      4769       4770       4781       4780       4890       4891       4902       4901  
      4770       4771       4782       4781       4891       4892       4903       4902  
      4771       4772       4783       4782       4892       4893       4904       4903  
      4772       4773       4784       4783       4893       4894       4905       4904  
      4773       4774       4785       4784       4894       4895       4906       4905  
      4775       4776       4787       4786       4896       4897       4908       4907  
      4776       4777       4788       4787       4897       4898       4909       4908  
      4777       4778       4789       4788       4898       4899       4910       4909  
      4778       4779       4790       4789       4899       4900       4911       4910  
      4779       4780       4791       4790       4900       4901       4912       4911  
      4780       4781       4792       4791       4901       4902       4913       4912  
      4781       4782       4793       4792       4902       4903       4914       4913  
      4782       4783       4794       4793       4903       4904       4915       4914  
      4783       4784       4795       4794       4904       4905       4916       4915  
      4784       4785       4796       4795       4905       4906       4917       4916  
      4786       4787       4798       4797       4907       4908       4919       4918  
      4787       4788       4799       4798       4908       4909       4920       4919  
      4788       4789       4800       4799       4909       4910       4921       4920  
      4789       4790       4801       4800       4910       4911       4922       4921  
      4790       4791       4802       4801       4911       4912       4923       4922  
      4791       4792       4803       4802       4912       4913       4924       4923  
      4792       4793       4804       4803       4913       4914       4925       4924  
      4793       4794       4805       4804       4914       4915       4926       4925  
      4794       4795       4806       4805       4915       4916       4927       4926  
      4795       4796       4807       4806       4916       4917       4928       4927  
      4797       4798       4809       4808       4918       4919       4930       4929  
      4798       4799       4810       4809       4919       4920       4931       4930  
      4799       4800       4811       4810       4920       4921       4932       4931  
      4800       4801       4812       4811       4921       4922       4933       4932  
      4801       4802       4813       4812       4922       4923       4934       4933  
      4802       4803       4814       4813       4923       4924       4935       4934  
      4803       4804       4815       4814       4924       4925       4936       4935  
      4804       4805       4816       4815       4925       4926       4937       4936  
      4805       4806       4817       4816       4926       4927       4938       4937  
      4806       4807       4818       4817       4927       4928       4939       4938  
      4808       4809       4820       4819       4929       4930       4941       4940  
      4809       4810       4821       4820       4930       4931       4942       4941  
      4810       4811       4822       4821       4931       4932       4943       4942  
      4811       4812       4823       4822       4932       4933       4944       4943  
      4812       4813       4824       4823       4933       4934       4945       4944  
      4813       4814       4825       4824       4934       4935       4946       4945  
      4814       4815       4826       4825       4935       4936       4947       4946  
      4815       4816       4827       4826       4936       4937       4948       4947  
      4816       4817       4828       4827       4937       4938       4949       4948  
      4817       4818       4829       4828       4938       4939       4950       4949  
      4819       4820       4831       4830       4940       4941       4952       4951  
      4820       4821       4832       4831       4941       4942       4953       4952  
      4821       4822       4833       4832       4942       4943       4954       4953  
      4822       4823       4834       4833       4943       4944       4955       4954  
      4823       4824       4835       4834       4944       4945       4956       4955  
      4824       4825       4836       4835       4945       4946       4957       4956  
      4825       4826       4837       4836       4946       4947       4958       4957  
      4826       4827       4838       4837       4947       4948       4959       4958  
      4827       4828       4839       4838       4948       4949       4960       4959  
      4828       4829       4840       4839       4949       4950       4961       4960  
      4841       4842       4853       4852       4962       4963       4974       4973  
      4842       4843       4854       4853       4963       4964       4975       4974  
      4843       4844       4855       4854       4964       4965       4976       4975  
      4844       4845       4856       4855       4965       4966       4977       4976  
      4845       4846       4857       4856       4966       4967       4978       4977  
      4846       4847       4858       4857       4967       4968       4979       4978  
      4847       4848       4859       4858       4968       4969       4980       4979  
      4848       4849       4860       4859       4969       4970       4981       4980  
      4849       4850       4861       4860       4970       4971       4982       4981  
      4850       4851       4862       4861       4971       4972       4983       4982  
      4852       4853       4864       4863       4973       4974       4985       4984  
      4853       4854       4865       4864       4974       4975       4986       4985  
      4854       4855       4866       4865       4975       4976       4987       4986  
      4855       4856       4867       4866       4976       4977       4988       4987  
      4856       4857       4868       4867       4977       4978       4989       4988  
      4857       4858       4869       4868       4978       4979       4990       4989  
      4858       4859       4870       4869       4979       4980       4991       4990  
      4859       4860       4871       4870       4980       4981       4992       4991  
      4860       4861       4872       4871       4981       4982       4993       4992  
      4861       4862       4873       4872       4982       4983       4994       4993  
      4863       4864       4875       4874       4984       4985       4996       4995  
      4864       4865       4876       4875       4985       4986       4997       4996  
      4865       4866       4877       4876       4986       4987       4998       4997  
      4866       4867       4878       4877       4987       4988       4999       4998  
      4867       4868       4879       4878       4988       4989       5000       4999  
      4868       4869       4880       4879       4989       4990       5001       5000  
      4869       4870       4881       4880       4990       4991       5002       5001  
      4870       4871       4882       4881       4991       4992       5003       5002  
      4871       4872       4883       4882       4992       4993       5004       5003  
      4872       4873       4884       4883       4993       4994       5005       5004  
      4874       4875       4886       4885       4995       4996       5007       5006  
      4875       4876       4887       4886       4996       4997       5008       5007  
      4876       4877       4888       4887       4997       4998       5009       5008  
      4877       4878       4889       4888       4998       4999       5010       5009  
      4878       4879       4890       4889       4999       5000       5011       5010  
      4879       4880       4891       4890       5000       5001       5012       5011  
      4880       4881       4892       4891       5001       5002       5013       5012  
      4881       4882       4893       4892       5002       5003       5014       5013  
      4882       4883       4894       4893       5003       5004       5015       5014  
      4883       4884       4895       4894       5004       5005       5016       5015  
      4885       4886       4897       4896       5006       5007       5018       5017  
      4886       4887       4898       4897       5007       5008       5019       5018  
      4887       4888       4899       4898       5008       5009       5020       5019  
      4888       4889       4900       4899       5009       5010       5021       5020  
      4889       4890       4901       4900       5010       5011       5022       5021  
      4890       4891       4902       4901       5011       5012       5023       5022  
      4891       4892       4903       4902       5012       5013       5024       5023  
      4892       4893       4904       4903       5013       5014       5025       5024  
      4893       4894       4905       4904       5014       5015       5026       5025  
      4894       4895       4906       4905       5015       5016       5027       5026  
      4896       4897       4908       4907       5017       5018       5029       5028  
      4897       4898       4909       4908       5018       5019       5030       5029  
      4898       4899       4910       4909       5019       5020       5031       5030  
      4899       4900       4911       4910       5020       5021       5032       5031  
      4900       4901       4912       4911       5021       5022       5033       5032  
      4901       4902       4913       4912       5022       5023       5034       5033  
      4902       4903       4914       4913       5023       5024       5035       5034  
      4903       4904       4915       4914       5024       5025       5036       5035  
      4904       4905       4916       4915       5025       5026       5037       5036  
      4905       4906       4917       4916       5026       5027       5038       5037  
      4907       4908       4919       4918       5028       5029       5040       5039  
      4908       4909       4920       4919       5029       5030       5041       5040  
      4909       4910       4921       4920       5030       5031       5042       5041  
      4910       4911       4922       4921       5031       5032       5043       5042  
      4911       4912       4923       4922       5032       5033       5044       5043  
      4912       4913       4924       4923       5033       5034       5045       5044  
      4913       4914       4925       4924       5034       5035       5046       5045  
      4914       4915       4926       4925       5035       5036       5047       5046  
      4915       4916       4927       4926       5036       5037       5048       5047  
      4916       4917       4928       4927       5037       5038       5049       5048  
      4918       4919       4930       4929       5039       5040       5051       5050  
      4919       4920       4931       4930       5040       5041       5052       5051  
      4920       4921       4932       4931       5041       5042       5053       5052  
      4921       4922       4933       4932       5042       5043       5054       5053  
      4922       4923       4934       4933       5043       5044       5055       5054  
      4923       4924       4935       4934       5044       5045       5056       5055  
      4924       4925       4936       4935       5045       5046       5057       5056  
      4925       4926       4937       4936       5046       5047       5058       5057  
      4926       4927       4938       4937       5047       5048       5059       5058  
      4927       4928       4939       4938       5048       5049       5060       5059  
      4929       4930       4941       4940       5050       5051       5062       5061  
      4930       4931       4942       4941       5051       5052       5063       5062  
      4931       4932       4943       4942       5052       5053       5064       5063  
      4932       4933       4944       4943       5053       5054       5065       5064  
      4933       4934       4945       4944       5054       5055       5066       5065  
      4934       4935       4946       4945       5055       5056       5067       5066  
      4935       4936       4947       4946       5056       5057       5068       5067  
      4936       4937       4948       4947       5057       5058       5069       5068  
      4937       4938       4949       4948       5058       5059       5070       5069  
      4938       4939       4950       4949       5059       5060       5071       5070  
      4940       4941       4952       4951       5061       5062       5073       5072  
      4941       4942       4953       4952       5062       5063       5074       5073  
      4942       4943       4954       4953       5063       5064       5075       5074  
      4943       4944       4955       4954       5064       5065       5076       5075  
      4944       4945       4956       4955       5065       5066       5077       5076  
      4945       4946       4957       4956       5066       5067       5078       5077  
      4946       4947       4958       4957       5067       5068       5079       5078  
      4947       4948       4959       4958       5068       5069       5080       5079  
      4948       4949       4960       4959       5069       5070       5081       5080  
      4949       4950       4961       4960       5070       5071       5082       5081  
      4962       4963       4974       4973       5083       5084       5095       5094  
      4963       4964       4975       4974       5084       5085       5096       5095  
      4964       4965       4976       4975       5085       5086       5097       5096  
      4965       4966       4977       4976       5086       5087       5098       5097  
      4966       4967       4978       4977       5087       5088       5099       5098  
      4967       4968       4979       4978       5088       5089       5100       5099  
      4968       4969       4980       4979       5089       5090       5101       5100  
      4969       4970       4981       4980       5090       5091       5102       5101  
      4970       4971       4982       4981       5091       5092       5103       5102  
      4971       4972       4983       4982       5092       5093       5104       5103  
      4973       4974       4985       4984       5094       5095       5106       5105  
      4974       4975       4986       4985       5095       5096       5107       5106  
      4975       4976       4987       4986       5096       5097       5108       5107  
      4976       4977       4988       4987       5097       5098       5109       5108  
      4977       4978       4989       4988       5098       5099       5110       5109  
      4978       4979       4990       4989       5099       5100       5111       5110  
      4979       4980       4991       4990       5100       5101       5112       5111  
      4980       4981       4992       4991       5101       5102       5113       5112  
      4981       4982       4993       4992       5102       5103       5114       5113  
      4982       4983       4994       4993       5103       5104       5115       5114  
      4984       4985       4996       4995       5105       5106       5117       5116  
      4985       4986       4997       4996       5106       5107       5118       5117  
      4986       4987       4998       4997       5107       5108       5119       5118  
      4987       4988       4999       4998       5108       5109       5120       5119  
      4988       4989       5000       4999       5109       5110       5121       5120  
      4989       4990       5001       5000       5110       5111       5122       5121  
      4990       4991       5002       5001       5111       5112       5123       5122  
      4991       4992       5003       5002       5112       5113       5124       5123  
      4992       4993       5004       5003       5113       5114       5125       5124  
      4993       4994       5005       5004       5114       5115       5126       5125  
      4995       4996       5007       5006       5116       5117       5128       5127  
      4996       4997       5008       5007       5117       5118       5129       5128  
      4997       4998       5009       5008       5118       5119       5130       5129  
      4998       4999       5010       5009       5119       5120       5131       5130  
      4999       5000       5011       5010       5120       5121       5132       5131  
      5000       5001       5012       5011       5121       5122       5133       5132  
      5001       5002       5013       5012       5122       5123       5134       5133  
      5002       5003       5014       5013       5123       5124       5135       5134  
      5003       5004       5015       5014       5124       5125       5136       5135  
      5004       5005       5016       5015       5125       5126       5137       5136  
      5006       5007       5018       5017       5127       5128       5139       5138  
      5007       5008       5019       5018       5128       5129       5140       5139  
      5008       5009       5020       5019       5129       5130       5141       5140  
      5009       5010       5021       5020       5130       5131       5142       5141  
      5010       5011       5022       5021       5131       5132       5143       5142  
      5011       5012       5023       5022       5132       5133       5144       5143  
      5012       5013       5024       5023       5133       5134       5145       5144  
      5013       5014       5025       5024       5134       5135       5146       5145  
      5014       5015       5026       5025       5135       5136       5147       5146  
      5015       5016       5027       5026       5136       5137       5148       5147  
      5017       5018       5029       5028       5138       5139       5150       5149  
      5018       5019       5030       5029       5139       5140       5151       5150  
      5019       5020       5031       5030       5140       5141       5152       5151  
      5020       5021       5032       5031       5141       5142       5153       5152  
      5021       5022       5033       5032       5142       5143       5154       5153  
      5022       5023       5034       5033       5143       5144       5155       5154  
      5023       5024       5035       5034       5144       5145       5156       5155  
      5024       5025       5036       5035       5145       5146       5157       5156  
      5025       5026       5037       5036       5146       5147       5158       5157  
      5026       5027       5038       5037       5147       5148       5159       5158  
      5028       5029       5040       5039       5149       5150       5161       5160  
      5029       5030       5041       5040       5150       5151       5162       5161  
      5030       5031       5042       5041       5151       5152       5163       5162  
      5031       5032       5043       5042       5152       5153       5164       5163  
      5032       5033       5044       5043       5153       5154       5165       5164  
      5033       5034       5045       5044       5154       5155       5166       5165  
      5034       5035       5046       5045       5155       5156       5167       5166  
      5035       5036       5047       5046       5156       5157       5168       5167  
      5036       5037       5048       5047       5157       5158       5169       5168  
      5037       5038       5049       5048       5158       5159       5170       5169  
      5039       5040       5051       5050       5160       5161       5172       5171  
      5040       5041       5052       5051       5161       5162       5173       5172  
      5041       5042       5053       5052       5162       5163       5174       5173  
      5042       5043       5054       5053       5163       5164       5175       5174  
      5043       5044       5055       5054       5164       5165       5176       5175  
      5044       5045       5056       5055       5165       5166       5177       5176  
      5045       5046       5057       5056       5166       5167       5178       5177  
      5046       5047       5058       5057       5167       5168       5179       5178  
      5047       5048       5059       5058       5168       5169       5180       5179  
      5048       5049       5060       5059       5169       5170       5181       5180  
      5050       5051       5062       5061       5171       5172       5183       5182  
      5051       5052       5063       5062       5172       5173       5184       5183  
      5052       5053       5064       5063       5173       5174       5185       5184  
      5053       5054       5065       5064       5174       5175       5186       5185  
      5054       5055       5066       5065       5175       5176       5187       5186  
      5055       5056       5067       5066       5176       5177       5188       5187  
      5056       5057       5068       5067       5177       5178       5189       5188  
      5057       5058       5069       5068       5178       5179       5190       5189  
      5058       5059       5070       5069       5179       5180       5191       5190  
      5059       5060       5071       5070       5180       5181       5192       5191  
      5061       5062       5073       5072       5182       5183       5194       5193  
      5062       5063       5074       5073       5183       5184       5195       5194  
      5063       5064       5075       5074       5184       5185       5196       5195  
      5064       5065       5076       5075       5185       5186       5197       5196  
      5065       5066       5077       5076       5186       5187       5198       5197  
      5066       5067       5078       5077       5187       5188       5199       5198  
      5067       5068       5079       5078       5188       5189       5200       5199  
      5068       5069       5080       5079       5189       5190       5201       5200  
      5069       5070       5081       5080       5190       5191       5202       5201  
      5070       5071       5082       5081       5191       5192       5203       5202  
      5083       5084       5095       5094       5204       5205       5216       5215  
      5084       5085       5096       5095       5205       5206       5217       5216  
      5085       5086       5097       5096       5206       5207       5218       5217  
      5086       5087       5098       5097       5207       5208       5219       5218  
      5087       5088       5099       5098       5208       5209       5220       5219  
      5088       5089       5100       5099       5209       5210       5221       5220  
      5089       5090       5101       5100       5210       5211       5222       5221  
      5090       5091       5102       5101       5211       5212       5223       5222  
      5091       5092       5103       5102       5212       5213       5224       5223  
      5092       5093       5104       5103       5213       5214       5225       5224  
      5094       5095       5106       5105       5215       5216       5227       5226  
      5095       5096       5107       5106       5216       5217       5228       5227  
      5096       5097       5108       5107       5217       5218       5229       5228  
      5097       5098       5109       5108       5218       5219       5230       5229  
      5098       5099       5110       5109       5219       5220       5231       5230  
      5099       5100       5111       5110       5220       5221       5232       5231  
      5100       5101       5112       5111       5221       5222       5233       5232  
      5101       5102       5113       5112       5222       5223       5234       5233  
      5102       5103       5114       5113       5223       5224       5235       5234  
      5103       5104       5115       5114       5224       5225       5236       5235  
      5105       5106       5117       5116       5226       5227       5238       5237  
      5106       5107       5118       5117       5227       5228       5239       5238  
      5107       5108       5119       5118       5228       5229       5240       5239  
      5108       5109       5120       5119       5229       5230       5241       5240  
      5109       5110       5121       5120       5230       5231       5242       5241  
      5110       5111       5122       5121       5231       5232       5243       5242  
      5111       5112       5123       5122       5232       5233       5244       5243  
      5112       5113       5124       5123       5233       5234       5245       5244  
      5113       5114       5125       5124       5234       5235       5246       5245  
      5114       5115       5126       5125       5235       5236       5247       5246  
      5116       5117       5128       5127       5237       5238       5249       5248  
      5117       5118       5129       5128       5238       5239       5250       5249  
      5118       5119       5130       5129       5239       5240       5251       5250  
      5119       5120       5131       5130       5240       5241       5252       5251  
      5120       5121       5132       5131       5241       5242       5253       5252  
      5121       5122       5133       5132       5242       5243       5254       5253  
      5122       5123       5134       5133       5243       5244       5255       5254  
      5123       5124       5135       5134       5244       5245       5256       5255  
      5124       5125       5136       5135       5245       5246       5257       5256  
      5125       5126       5137       5136       5246       5247       5258       5257  
      5127       5128       5139       5138       5248       5249       5260       5259  
      5128       5129       5140       5139       5249       5250       5261       5260  
      5129       5130       5141       5140       5250       5251       5262       5261  
      5130       5131       5142       5141       5251       5252       5263       5262  
      5131       5132       5143       5142       5252       5253       5264       5263  
      5132       5133       5144       5143       5253       5254       5265       5264  
      5133       5134       5145       5144       5254       5255       5266       5265  
      5134       5135       5146       5145       5255       5256       5267       5266  
      5135       5136       5147       5146       5256       5257       5268       5267  
      5136       5137       5148       5147       5257       5258       5269       5268  
      5138       5139       5150       5149       5259       5260       5271       5270  
      5139       5140       5151       5150       5260       5261       5272       5271  
      5140       5141       5152       5151       5261       5262       5273       5272  
      5141       5142       5153       5152       5262       5263       5274       5273  
      5142       5143       5154       5153       5263       5264       5275       5274  
      5143       5144       5155       5154       5264       5265       5276       5275  
      5144       5145       5156       5155       5265       5266       5277       5276  
      5145       5146       5157       5156       5266       5267       5278       5277  
      5146       5147       5158       5157       5267       5268       5279       5278  
      5147       5148       5159       5158       5268       5269       5280       5279  
      5149       5150       5161       5160       5270       5271       5282       5281  
      5150       5151       5162       5161       5271       5272       5283       5282  
      5151       5152       5163       5162       5272       5273       5284       5283  
      5152       5153       5164       5163       5273       5274       5285       5284  
      5153       5154       5165       5164       5274       5275       5286       5285  
      5154       5155       5166       5165       5275       5276       5287       5286  
      5155       5156       5167       5166       5276       5277       5288       5287  
      5156       5157       5168       5167       5277       5278       5289       5288  
      5157       5158       5169       5168       5278       5279       5290       5289  
      5158       5159       5170       5169       5279       5280       5291       5290  
      5160       5161       5172       5171       5281       5282       5293       5292  
      5161       5162       5173       5172       5282       5283       5294       5293  
      5162       5163       5174       5173       5283       5284       5295       5294  
      5163       5164       5175       5174       5284       5285       5296       5295  
      5164       5165       5176       5175       5285       5286       5297       5296  
      5165       5166       5177       5176       5286       5287       5298       5297  
      5166       5167       5178       5177       5287       5288       5299       5298  
      5167       5168       5179       5178       5288       5289       5300       5299  
      5168       5169       5180       5179       5289       5290       5301       5300  
      5169       5170       5181       5180       5290       5291       5302       5301  
      5171       5172       5183       5182       5292       5293       5304       5303  
      5172       5173       5184       5183       5293       5294       5305       5304  
      5173       5174       5185       5184       5294       5295       5306       5305  
      5174       5175       5186       5185       5295       5296       5307       5306  
      5175       5176       5187       5186       5296       5297       5308       5307  
      5176       5177       5188       5187       5297       5298       5309       5308  
      5177       5178       5189       5188       5298       5299       5310       5309  
      5178       5179       5190       5189       5299       5300       5311       5310  
      5179       5180       5191       5190       5300       5301       5312       5311  
      5180       5181       5192       5191       5301       5302       5313       5312  
      5182       5183       5194       5193       5303       5304       5315       5314  
      5183       5184       5195       5194       5304       5305       5316       5315  
      5184       5185       5196       5195       5305       5306       5317       5316  
      5185       5186       5197       5196       5306       5307       5318       5317  
      5186       5187       5198       5197       5307       5308       5319       5318  
      5187       5188       5199       5198       5308       5309       5320       5319  
      5188       5189       5200       5199       5309       5310       5321       5320  
      5189       5190       5201       5200       5310       5311       5322       5321  
      5190       5191       5202       5201       5311       5312       5323       5322  
      5191       5192       5203       5202       5312       5313       5324       5323  
      5204       5205       5216       5215       5325       5326       5337       5336  
      5205       5206       5217       5216       5326       5327       5338       5337  
      5206       5207       5218       5217       5327       5328       5339       5338  
      5207       5208       5219       5218       5328       5329       5340       5339  
      5208       5209       5220       5219       5329       5330       5341       5340  
      5209       5210       5221       5220       5330       5331       5342       5341  
      5210       5211       5222       5221       5331       5332       5343       5342  
      5211       5212       5223       5222       5332       5333       5344       5343  
      5212       5213       5224       5223       5333       5334       5345       5344  
      5213       5214       5225       5224       5334       5335       5346       5345  
      5215       5216       5227       5226       5336       5337       5348       5347  
      5216       5217       5228       5227       5337       5338       5349       5348  
      5217       5218       5229       5228       5338       5339       5350       5349  
      5218       5219       5230       5229       5339       5340       5351       5350  
      5219       5220       5231       5230       5340       5341       5352       5351  
      5220       5221       5232       5231       5341       5342       5353       5352  
      5221       5222       5233       5232       5342       5343       5354       5353  
      5222       5223       5234       5233       5343       5344       5355       5354  
      5223       5224       5235       5234       5344       5345       5356       5355  
      5224       5225       5236       5235       5345       5346       5357       5356  
      5226       5227       5238       5237       5347       5348       5359       5358  
      5227       5228       5239       5238       5348       5349       5360       5359  
      5228       5229       5240       5239       5349       5350       5361       5360  
      5229       5230       5241       5240       5350       5351       5362       5361  
      5230       5231       5242       5241       5351       5352       5363       5362  
      5231       5232       5243       5242       5352       5353       5364       5363  
      5232       5233       5244       5243       5353       5354       5365       5364  
      5233       5234       5245       5244       5354       5355       5366       5365  
      5234       5235       5246       5245       5355       5356       5367       5366  
      5235       5236       5247       5246       5356       5357       5368       5367  
      5237       5238       5249       5248       5358       5359       5370       5369  
      5238       5239       5250       5249       5359       5360       5371       5370  
      5239       5240       5251       5250       5360       5361       5372       5371  
      5240       5241       5252       5251       5361       5362       5373       5372  
      5241       5242       5253       5252       5362       5363       5374       5373  
      5242       5243       5254       5253       5363       5364       5375       5374  
      5243       5244       5255       5254       5364       5365       5376       5375  
      5244       5245       5256       5255       5365       5366       5377       5376  
      5245       5246       5257       5256       5366       5367       5378       5377  
      5246       5247       5258       5257       5367       5368       5379       5378  
      5248       5249       5260       5259       5369       5370       5381       5380  
      5249       5250       5261       5260       5370       5371       5382       5381  
      5250       5251       5262       5261       5371       5372       5383       5382  
      5251       5252       5263       5262       5372       5373       5384       5383  
      5252       5253       5264       5263       5373       5374       5385       5384  
      5253       5254       5265       5264       5374       5375       5386       5385  
      5254       5255       5266       5265       5375       5376       5387       5386  
      5255       5256       5267       5266       5376       5377       5388       5387  
      5256       5257       5268       5267       5377       5378       5389       5388  
      5257       5258       5269       5268       5378       5379       5390       5389  
      5259       5260       5271       5270       5380       5381       5392       5391  
      5260       5261       5272       5271       5381       5382       5393       5392  
      5261       5262       5273       5272       5382       5383       5394       5393  
      5262       5263       5274       5273       5383       5384       5395       5394  
      5263       5264       5275       5274       5384       5385       5396       5395  
      5264       5265       5276       5275       5385       5386       5397       5396  
      5265       5266       5277       5276       5386       5387       5398       5397  
      5266       5267       5278       5277       5387       5388       5399       5398  
      5267       5268       5279       5278       5388       5389       5400       5399  
      5268       5269       5280       5279       5389       5390       5401       5400  
      5270       5271       5282       5281       5391       5392       5403       5402  
      5271       5272       5283       5282       5392       5393       5404       5403  
      5272       5273       5284       5283       5393       5394       5405       5404  
      5273       5274       5285       5284       5394       5395       5406       5405  
      5274       5275       5286       5285       5395       5396       5407       5406  
      5275       5276       5287       5286       5396       5397       5408       5407  
      5276       5277       5288       5287       5397       5398       5409       5408  
      5277       5278       5289       5288       5398       5399       5410       5409  
      5278       5279       5290       5289       5399       5400       5411       5410  
      5279       5280       5291       5290       5400       5401       5412       5411  
      5281       5282       5293       5292       5402       5403       5414       5413  
      5282       5283       5294       5293       5403       5404       5415       5414  
      5283       5284       5295       5294       5404       5405       5416       5415  
      5284       5285       5296       5295       5405       5406       5417       5416  
      5285       5286       5297       5296       5406       5407       5418       5417  
      5286       5287       5298       5297       5407       5408       5419       5418  
      5287       5288       5299       5298       5408       5409       5420       5419  
      5288       5289       5300       5299       5409       5410       5421       5420  
      5289       5290       5301       5300       5410       5411       5422       5421  
      5290       5291       5302       5301       5411       5412       5423       5422  
      5292       5293       5304       5303       5413       5414       5425       5424  
      5293       5294       5305       5304       5414       5415       5426       5425  
      5294       5295       5306       5305       5415       5416       5427       5426  
      5295       5296       5307       5306       5416       5417       5428       5427  
      5296       5297       5308       5307       5417       5418       5429       5428  
      5297       5298       5309       5308       5418       5419       5430       5429  
      5298       5299       5310       5309       5419       5420       5431       5430  
      5299       5300       5311       5310       5420       5421       5432       5431  
      5300       5301       5312       5311       5421       5422       5433       5432  
      5301       5302       5313       5312       5422       5423       5434       5433  
      5303       5304       5315       5314       5424       5425       5436       5435  
      5304       5305       5316       5315       5425       5426       5437       5436  
      5305       5306       5317       5316       5426       5427       5438       5437  
      5306       5307       5318       5317       5427       5428       5439       5438  
      5307       5308       5319       5318       5428       5429       5440       5439  
      5308       5309       5320       5319       5429       5430       5441       5440  
      5309       5310       5321       5320       5430       5431       5442       5441  
      5310       5311       5322       5321       5431       5432       5443       5442  
      5311       5312       5323       5322       5432       5433       5444       5443  
      5312       5313       5324       5323       5433       5434       5445       5444  
      5325       5326       5337       5336       5446       5447       5458       5457  
      5326       5327       5338       5337       5447       5448       5459       5458  
      5327       5328       5339       5338       5448       5449       5460       5459  
      5328       5329       5340       5339       5449       5450       5461       5460  
      5329       5330       5341       5340       5450       5451       5462       5461  
      5330       5331       5342       5341       5451       5452       5463       5462  
      5331       5332       5343       5342       5452       5453       5464       5463  
      5332       5333       5344       5343       5453       5454       5465       5464  
      5333       5334       5345       5344       5454       5455       5466       5465  
      5334       5335       5346       5345       5455       5456       5467       5466  
      5336       5337       5348       5347       5457       5458       5469       5468  
      5337       5338       5349       5348       5458       5459       5470       5469  
      5338       5339       5350       5349       5459       5460       5471       5470  
      5339       5340       5351       5350       5460       5461       5472       5471  
      5340       5341       5352       5351       5461       5462       5473       5472  
      5341       5342       5353       5352       5462       5463       5474       5473  
      5342       5343       5354       5353       5463       5464       5475       5474  
      5343       5344       5355       5354       5464       5465       5476       5475  
      5344       5345       5356       5355       5465       5466       5477       5476  
      5345       5346       5357       5356       5466       5467       5478       5477  
      5347       5348       5359       5358       5468       5469       5480       5479  
      5348       5349       5360       5359       5469       5470       5481       5480  
      5349       5350       5361       5360       5470       5471       5482       5481  
      5350       5351       5362       5361       5471       5472       5483       5482  
      5351       5352       5363       5362       5472       5473       5484       5483  
      5352       5353       5364       5363       5473       5474       5485       5484  
      5353       5354       5365       5364       5474       5475       5486       5485  
      5354       5355       5366       5365       5475       5476       5487       5486  
      5355       5356       5367       5366       5476       5477       5488       5487  
      5356       5357       5368       5367       5477       5478       5489       5488  
      5358       5359       5370       5369       5479       5480       5491       5490  
      5359       5360       5371       5370       5480       5481       5492       5491  
      5360       5361       5372       5371       5481       5482       5493       5492  
      5361       5362       5373       5372       5482       5483       5494       5493  
      5362       5363       5374       5373       5483       5484       5495       5494  
      5363       5364       5375       5374       5484       5485       5496       5495  
      5364       5365       5376       5375       5485       5486       5497       5496  
      5365       5366       5377       5376       5486       5487       5498       5497  
      5366       5367       5378       5377       5487       5488       5499       5498  
      5367       5368       5379       5378       5488       5489       5500       5499  
      5369       5370       5381       5380       5490       5491       5502       5501  
      5370       5371       5382       5381       5491       5492       5503       5502  
      5371       5372       5383       5382       5492       5493       5504       5503  
      5372       5373       5384       5383       5493       5494       5505       5504  
      5373       5374       5385       5384       5494       5495       5506       5505  
      5374       5375       5386       5385       5495       5496       5507       5506  
      5375       5376       5387       5386       5496       5497       5508       5507  
      5376       5377       5388       5387       5497       5498       5509       5508  
      5377       5378       5389       5388       5498       5499       5510       5509  
      5378       5379       5390       5389       5499       5500       5511       5510  
      5380       5381       5392       5391       5501       5502       5513       5512  
      5381       5382       5393       5392       5502       5503       5514       5513  
      5382       5383       5394       5393       5503       5504       5515       5514  
      5383       5384       5395       5394       5504       5505       5516       5515  
      5384       5385       5396       5395       5505       5506       5517       5516  
      5385       5386       5397       5396       5506       5507       5518       5517  
      5386       5387       5398       5397       5507       5508       5519       5518  
      5387       5388       5399       5398       5508       5509       5520       5519  
      5388       5389       5400       5399       5509       5510       5521       5520  
      5389       5390       5401       5400       5510       5511       5522       5521  
      5391       5392       5403       5402       5512       5513       5524       5523  
      5392       5393       5404       5403       5513       5514       5525       5524  
      5393       5394       5405       5404       5514       5515       5526       5525  
      5394       5395       5406       5405       5515       5516       5527       5526  
      5395       5396       5407       5406       5516       5517       5528       5527  
      5396       5397       5408       5407       5517       5518       5529       5528  
      5397       5398       5409       5408       5518       5519       5530       5529  
      5398       5399       5410       5409       5519       5520       5531       5530  
      5399       5400       5411       5410       5520       5521       5532       5531  
      5400       5401       5412       5411       5521       5522       5533       5532  
      5402       5403       5414       5413       5523       5524       5535       5534  
      5403       5404       5415       5414       5524       5525       5536       5535  
      5404       5405       5416       5415       5525       5526       5537       5536  
      5405       5406       5417       5416       5526       5527       5538       5537  
      5406       5407       5418       5417       5527       5528       5539       5538  
      5407       5408       5419       5418       5528       5529       5540       5539  
      5408       5409       5420       5419       5529       5530       5541       5540  
      5409       5410       5421       5420       5530       5531       5542       5541  
      5410       5411       5422       5421       5531       5532       5543       5542  
      5411       5412       5423       5422       5532       5533       5544       5543  
      5413       5414       5425       5424       5534       5535       5546       5545  
      5414       5415       5426       5425       5535       5536       5547       5546  
      5415       5416       5427       5426       5536       5537       5548       5547  
      5416       5417       5428       5427       5537       5538       5549       5548  
      5417       5418       5429       5428       5538       5539       5550       5549  
      5418       5419       5430       5429       5539       5540       5551       5550  
      5419       5420       5431       5430       5540       5541       5552       5551  
      5420       5421       5432       5431       5541       5542       5553       5552  
      5421       5422       5433       5432       5542       5543       5554       5553  
      5422       5423       5434       5433       5543       5544       5555       5554  
      5424       5425       5436       5435       5545       5546       5557       5556  
      5425       5426       5437       5436       5546       5547       5558       5557  
      5426       5427       5438       5437       5547       5548       5559       5558  
      5427       5428       5439       5438       5548       5549       5560       5559  
      5428       5429       5440       5439       5549       5550       5561       5560  
      5429       5430       5441       5440       5550       5551       5562       5561  
      5430       5431       5442       5441       5551       5552       5563       5562  
      5431       5432       5443       5442       5552       5553       5564       5563  
      5432       5433       5444       5443       5553       5554       5565       5564  
      5433       5434       5445       5444       5554       5555       5566       5565  
      5446       5447       5458       5457       5567       5568       5579       5578  
      5447       5448       5459       5458       5568       5569       5580       5579  
      5448       5449       5460       5459       5569       5570       5581       5580  
      5449       5450       5461       5460       5570       5571       5582       5581  
      5450       5451       5462       5461       5571       5572       5583       5582  
      5451       5452       5463       5462       5572       5573       5584       5583  
      5452       5453       5464       5463       5573       5574       5585       5584  
      5453       5454       5465       5464       5574       5575       5586       5585  
      5454       5455       5466       5465       5575       5576       5587       5586  
      5455       5456       5467       5466       5576       5577       5588       5587  
      5457       5458       5469       5468       5578       5579       5590       5589  
      5458       5459       5470       5469       5579       5580       5591       5590  
      5459       5460       5471       5470       5580       5581       5592       5591  
      5460       5461       5472       5471       5581       5582       5593       5592  
      5461       5462       5473       5472       5582       5583       5594       5593  
      5462       5463       5474       5473       5583       5584       5595       5594  
      5463       5464       5475       5474       5584       5585       5596       5595  
      5464       5465       5476       5475       5585       5586       5597       5596  
      5465       5466       5477       5476       5586       5587       5598       5597  
      5466       5467       5478       5477       5587       5588       5599       5598  
      5468       5469       5480       5479       5589       5590       5601       5600  
      5469       5470       5481       5480       5590       5591       5602       5601  
      5470       5471       5482       5481       5591       5592       5603       5602  
      5471       5472       5483       5482       5592       5593       5604       5603  
      5472       5473       5484       5483       5593       5594       5605       5604  
      5473       5474       5485       5484       5594       5595       5606       5605  
      5474       5475       5486       5485       5595       5596       5607       5606  
      5475       5476       5487       5486       5596       5597       5608       5607  
      5476       5477       5488       5487       5597       5598       5609       5608  
      5477       5478       5489       5488       5598       5599       5610       5609  
      5479       5480       5491       5490       5600       5601       5612       5611  
      5480       5481       5492       5491       5601       5602       5613       5612  
      5481       5482       5493       5492       5602       5603       5614       5613  
      5482       5483       5494       5493       5603       5604       5615       5614  
      5483       5484       5495       5494       5604       5605       5616       5615  
      5484       5485       5496       5495       5605       5606       5617       5616  
      5485       5486       5497       5496       5606       5607       5618       5617  
      5486       5487       5498       5497       5607       5608       5619       5618  
      5487       5488       5499       5498       5608       5609       5620       5619  
      5488       5489       5500       5499       5609       5610       5621       5620  
      5490       5491       5502       5501       5611       5612       5623       5622  
      5491       5492       5503       5502       5612       5613       5624       5623  
      5492       5493       5504       5503       5613       5614       5625       5624  
      5493       5494       5505       5504       5614       5615       5626       5625  
      5494       5495       5506       5505       5615       5616       5627       5626  
      5495       5496       5507       5506       5616       5617       5628       5627  
      5496       5497       5508       5507       5617       5618       5629       5628  
      5497       5498       5509       5508       5618       5619       5630       5629  
      5498       5499       5510       5509       5619       5620       5631       5630  
      5499       5500       5511       5510       5620       5621       5632       5631  
      5501       5502       5513       5512       5622       5623       5634       5633  
      5502       5503       5514       5513       5623       5624       5635       5634  
      5503       5504       5515       5514       5624       5625       5636       5635  
      5504       5505       5516       5515       5625       5626       5637       5636  
      5505       5506       5517       5516       5626       5627       5638       5637  
      5506       5507       5518       5517       5627       5628       5639       5638  
      5507       5508       5519       5518       5628       5629       5640       5639  
      5508       5509       5520       5519       5629       5630       5641       5640  
      5509       5510       5521       5520       5630       5631       5642       5641  
      5510       5511       5522       5521       5631       5632       5643       5642  
      5512       5513       5524       5523       5633       5634       5645       5644  
      5513       5514       5525       5524       5634       5635       5646       5645  
      5514       5515       5526       5525       5635       5636       5647       5646  
      5515       5516       5527       5526       5636       5637       5648       5647  
      5516       5517       5528       5527       5637       5638       5649       5648  
      5517       5518       5529       5528       5638       5639       5650       5649  
      5518       5519       5530       5529       5639       5640       5651       5650  
      5519       5520       5531       5530       5640       5641       5652       5651  
      5520       5521       5532       5531       5641       5642       5653       5652  
      5521       5522       5533       5532       5642       5643       5654       5653  
      5523       5524       5535       5534       5644       5645       5656       5655  
      5524       5525       5536       5535       5645       5646       5657       5656  
      5525       5526       5537       5536       5646       5647       5658       5657  
      5526       5527       5538       5537       5647       5648       5659       5658  
      5527       5528       5539       5538       5648       5649       5660       5659  
      5528       5529       5540       5539       5649       5650       5661       5660  
      5529       5530       5541       5540       5650       5651       5662       5661  
      5530       5531       5542       5541       5651       5652       5663       5662  
      5531       5532       5543       5542       5652       5653       5664       5663  
      5532       5533       5544       5543       5653       5654       5665       5664  
      5534       5535       5546       5545       5655       5656       5667       5666  
      5535       5536       5547       5546       5656       5657       5668       5667  
      5536       5537       5548       5547       5657       5658       5669       5668  
      5537       5538       5549       5548       5658       5659       5670       5669  
      5538       5539       5550       5549       5659       5660       5671       5670  
      5539       5540       5551       5550       5660       5661       5672       5671  
      5540       5541       5552       5551       5661       5662       5673       5672  
      5541       5542       5553       5552       5662       5663       5674       5673  
      5542       5543       5554       5553       5663       5664       5675       5674  
      5543       5544       5555       5554       5664       5665       5676       5675  
      5545       5546       5557       5556       5666       5667       5678       5677  
      5546       5547       5558       5557       5667       5668       5679       5678  
      5547       5548       5559       5558       5668       5669       5680       5679  
      5548       5549       5560       5559       5669       5670       5681       5680  
      5549       5550       5561       5560       5670       5671       5682       5681  
      5550       5551       5562       5561       5671       5672       5683       5682  
      5551       5552       5563       5562       5672       5673       5684       5683  
      5552       5553       5564       5563       5673       5674       5685       5684  
      5553       5554       5565       5564       5674       5675       5686       5685  
      5554       5555       5566       5565       5675       5676       5687       5686  
      5567       5568       5579       5578       5688       5689       5700       5699  
      5568       5569       5580       5579       5689       5690       5701       5700  
      5569       5570       5581       5580       5690       5691       5702       5701  
      5570       5571       5582       5581       5691       5692       5703       5702  
      5571       5572       5583       5582       5692       5693       5704       5703  
      5572       5573       5584       5583       5693       5694       5705       5704  
      5573       5574       5585       5584       5694       5695       5706       5705  
      5574       5575       5586       5585       5695       5696       5707       5706  
      5575       5576       5587       5586       5696       5697       5708       5707  
      5576       5577       5588       5587       5697       5698       5709       5708  
      5578       5579       5590       5589       5699       5700       5711       5710  
      5579       5580       5591       5590       5700       5701       5712       5711  
      5580       5581       5592       5591       5701       5702       5713       5712  
      5581       5582       5593       5592       5702       5703       5714       5713  
      5582       5583       5594       5593       5703       5704       5715       5714  
      5583       5584       5595       5594       5704       5705       5716       5715  
      5584       5585       5596       5595       5705       5706       5717       5716  
      5585       5586       5597       5596       5706       5707       5718       5717  
      5586       5587       5598       5597       5707       5708       5719       5718  
      5587       5588       5599       5598       5708       5709       5720       5719  
      5589       5590       5601       5600       5710       5711       5722       5721  
      5590       5591       5602       5601       5711       5712       5723       5722  
      5591       5592       5603       5602       5712       5713       5724       5723  
      5592       5593       5604       5603       5713       5714       5725       5724  
      5593       5594       5605       5604       5714       5715       5726       5725  
      5594       5595       5606       5605       5715       5716       5727       5726  
      5595       5596       5607       5606       5716       5717       5728       5727  
      5596       5597       5608       5607       5717       5718       5729       5728  
      5597       5598       5609       5608       5718       5719       5730       5729  
      5598       5599       5610       5609       5719       5720       5731       5730  
      5600       5601       5612       5611       5721       5722       5733       5732  
      5601       5602       5613       5612       5722       5723       5734       5733  
      5602       5603       5614       5613       5723       5724       5735       5734  
      5603       5604       5615       5614       5724       5725       5736       5735  
      5604       5605       5616       5615       5725       5726       5737       5736  
      5605       5606       5617       5616       5726       5727       5738       5737  
      5606       5607       5618       5617       5727       5728       5739       5738  
      5607       5608       5619       5618       5728       5729       5740       5739  
      5608       5609       5620       5619       5729       5730       5741       5740  
      5609       5610       5621       5620       5730       5731       5742       5741  
      5611       5612       5623       5622       5732       5733       5744       5743  
      5612       5613       5624       5623       5733       5734       5745       5744  
      5613       5614       5625       5624       5734       5735       5746       5745  
      5614       5615       5626       5625       5735       5736       5747       5746  
      5615       5616       5627       5626       5736       5737       5748       5747  
      5616       5617       5628       5627       5737       5738       5749       5748  
      5617       5618       5629       5628       5738       5739       5750       5749  
      5618       5619       5630       5629       5739       5740       5751       5750  
      5619       5620       5631       5630       5740       5741       5752       5751  
      5620       5621       5632       5631       5741       5742       5753       5752  
      5622       5623       5634       5633       5743       5744       5755       5754  
      5623       5624       5635       5634       5744       5745       5756       5755  
      5624       5625       5636       5635       5745       5746       5757       5756  
      5625       5626       5637       5636       5746       5747       5758       5757  
      5626       5627       5638       5637       5747       5748       5759       5758  
      5627       5628       5639       5638       5748       5749       5760       5759  
      5628       5629       5640       5639       5749       5750       5761       5760  
      5629       5630       5641       5640       5750       5751       5762       5761  
      5630       5631       5642       5641       5751       5752       5763       5762  
      5631       5632       5643       5642       5752       5753       5764       5763  
      5633       5634       5645       5644       5754       5755       5766       5765  
      5634       5635       5646       5645       5755       5756       5767       5766  
      5635       5636       5647       5646       5756       5757       5768       5767  
      5636       5637       5648       5647       5757       5758       5769       5768  
      5637       5638       5649       5648       5758       5759       5770       5769  
      5638       5639       5650       5649       5759       5760       5771       5770  
      5639       5640       5651       5650       5760       5761       5772       5771  
      5640       5641       5652       5651       5761       5762       5773       5772  
      5641       5642       5653       5652       5762       5763       5774       5773  
      5642       5643       5654       5653       5763       5764       5775       5774  
      5644       5645       5656       5655       5765       5766       5777       5776  
      5645       5646       5657       5656       5766       5767       5778       5777  
      5646       5647       5658       5657       5767       5768       5779       5778  
      5647       5648       5659       5658       5768       5769       5780       5779  
      5648       5649       5660       5659       5769       5770       5781       5780  
      5649       5650       5661       5660       5770       5771       5782       5781  
      5650       5651       5662       5661       5771       5772       5783       5782  
      5651       5652       5663       5662       5772       5773       5784       5783  
      5652       5653       5664       5663       5773       5774       5785       5784  
      5653       5654       5665       5664       5774       5775       5786       5785  
      5655       5656       5667       5666       5776       5777       5788       5787  
      5656       5657       5668       5667       5777       5778       5789       5788  
      5657       5658       5669       5668       5778       5779       5790       5789  
      5658       5659       5670       5669       5779       5780       5791       5790  
      5659       5660       5671       5670       5780       5781       5792       5791  
      5660       5661       5672       5671       5781       5782       5793       5792  
      5661       5662       5673       5672       5782       5783       5794       5793  
      5662       5663       5674       5673       5783       5784       5795       5794  
      5663       5664       5675       5674       5784       5785       5796       5795  
      5664       5665       5676       5675       5785       5786       5797       5796  
      5666       5667       5678       5677       5787       5788       5799       5798  
      5667       5668       5679       5678       5788       5789       5800       5799  
      5668       5669       5680       5679       5789       5790       5801       5800  
      5669       5670       5681       5680       5790       5791       5802       5801  
      5670       5671       5682       5681       5791       5792       5803       5802  
      5671       5672       5683       5682       5792       5793       5804       5803  
      5672       5673       5684       5683       5793       5794       5805       5804  
      5673       5674       5685       5684       5794       5795       5806       5805  
      5674       5675       5686       5685       5795       5796       5807       5806  
      5675       5676       5687       5686       5796       5797       5808       5807  
      5688       5689       5700       5699       5809       5810       5821       5820  
      5689       5690       5701       5700       5810       5811       5822       5821  
      5690       5691       5702       5701       5811       5812       5823       5822  
      5691       5692       5703       5702       5812       5813       5824       5823  
      5692       5693       5704       5703       5813       5814       5825       5824  
      5693       5694       5705       5704       5814       5815       5826       5825  
      5694       5695       5706       5705       5815       5816       5827       5826  
      5695       5696       5707       5706       5816       5817       5828       5827  
      5696       5697       5708       5707       5817       5818       5829       5828  
      5697       5698       5709       5708       5818       5819       5830       5829  
      5699       5700       5711       5710       5820       5821       5832       5831  
      5700       5701       5712       5711       5821       5822       5833       5832  
      5701       5702       5713       5712       5822       5823       5834       5833  
      5702       5703       5714       5713       5823       5824       5835       5834  
      5703       5704       5715       5714       5824       5825       5836       5835  
      5704       5705       5716       5715       5825       5826       5837       5836  
      5705       5706       5717       5716       5826       5827       5838       5837  
      5706       5707       5718       5717       5827       5828       5839       5838  
      5707       5708       5719       5718       5828       5829       5840       5839  
      5708       5709       5720       5719       5829       5830       5841       5840  
      5710       5711       5722       5721       5831       5832       5843       5842  
      5711       5712       5723       5722       5832       5833       5844       5843  
      5712       5713       5724       5723       5833       5834       5845       5844  
      5713       5714       5725       5724       5834       5835       5846       5845  
      5714       5715       5726       5725       5835       5836       5847       5846  
      5715       5716       5727       5726       5836       5837       5848       5847  
      5716       5717       5728       5727       5837       5838       5849       5848  
      5717       5718       5729       5728       5838       5839       5850       5849  
      5718       5719       5730       5729       5839       5840       5851       5850  
      5719       5720       5731       5730       5840       5841       5852       5851  
      5721       5722       5733       5732       5842       5843       5854       5853  
      5722       5723       5734       5733       5843       5844       5855       5854  
      5723       5724       5735       5734       5844       5845       5856       5855  
      5724       5725       5736       5735       5845       5846       5857       5856  
      5725       5726       5737       5736       5846       5847       5858       5857  
      5726       5727       5738       5737       5847       5848       5859       5858  
      5727       5728       5739       5738       5848       5849       5860       5859  
      5728       5729       5740       5739       5849       5850       5861       5860  
      5729       5730       5741       5740       5850       5851       5862       5861  
      5730       5731       5742       5741       5851       5852       5863       5862  
      5732       5733       5744       5743       5853       5854       5865       5864  
      5733       5734       5745       5744       5854       5855       5866       5865  
      5734       5735       5746       5745       5855       5856       5867       5866  
      5735       5736       5747       5746       5856       5857       5868       5867  
      5736       5737       5748       5747       5857       5858       5869       5868  
      5737       5738       5749       5748       5858       5859       5870       5869  
      5738       5739       5750       5749       5859       5860       5871       5870  
      5739       5740       5751       5750       5860       5861       5872       5871  
      5740       5741       5752       5751       5861       5862       5873       5872  
      5741       5742       5753       5752       5862       5863       5874       5873  
      5743       5744       5755       5754       5864       5865       5876       5875  
      5744       5745       5756       5755       5865       5866       5877       5876  
      5745       5746       5757       5756       5866       5867       5878       5877  
      5746       5747       5758       5757       5867       5868       5879       5878  
      5747       5748       5759       5758       5868       5869       5880       5879  
      5748       5749       5760       5759       5869       5870       5881       5880  
      5749       5750       5761       5760       5870       5871       5882       5881  
      5750       5751       5762       5761       5871       5872       5883       5882  
      5751       5752       5763       5762       5872       5873       5884       5883  
      5752       5753       5764       5763       5873       5874       5885       5884  
      5754       5755       5766       5765       5875       5876       5887       5886  
      5755       5756       5767       5766       5876       5877       5888       5887  
      5756       5757       5768       5767       5877       5878       5889       5888  
      5757       5758       5769       5768       5878       5879       5890       5889  
      5758       5759       5770       5769       5879       5880       5891       5890  
      5759       5760       5771       5770       5880       5881       5892       5891  
      5760       5761       5772       5771       5881       5882       5893       5892  
      5761       5762       5773       5772       5882       5883       5894       5893  
      5762       5763       5774       5773       5883       5884       5895       5894  
      5763       5764       5775       5774       5884       5885       5896       5895  
      5765       5766       5777       5776       5886       5887       5898       5897  
      5766       5767       5778       5777       5887       5888       5899       5898  
      5767       5768       5779       5778       5888       5889       5900       5899  
      5768       5769       5780       5779       5889       5890       5901       5900  
      5769       5770       5781       5780       5890       5891       5902       5901  
      5770       5771       5782       5781       5891       5892       5903       5902  
      5771       5772       5783       5782       5892       5893       5904       5903  
      5772       5773       5784       5783       5893       5894       5905       5904  
      5773       5774       5785       5784       5894       5895       5906       5905  
      5774       5775       5786       5785       5895       5896       5907       5906  
      5776       5777       5788       5787       5897       5898       5909       5908  
      5777       5778       5789       5788       5898       5899       5910       5909  
      5778       5779       5790       5789       5899       5900       5911       5910  
      5779       5780       5791       5790       5900       5901       5912       5911  
      5780       5781       5792       5791       5901       5902       5913       5912  
      5781       5782       5793       5792       5902       5903       5914       5913  
      5782       5783       5794       5793       5903       5904       5915       5914  
      5783       5784       5795       5794       5904       5905       5916       5915  
      5784       5785       5796       5795       5905       5906       5917       5916  
      5785       5786       5797       5796       5906       5907       5918       5917  
      5787       5788       5799       5798       5908       5909       5920       5919  
      5788       5789       5800       5799       5909       5910       5921       5920  
      5789       5790       5801       5800       5910       5911       5922       5921  
      5790       5791       5802       5801       5911       5912       5923       5922  
      5791       5792       5803       5802       5912       5913       5924       5923  
      5792       5793       5804       5803       5913       5914       5925       5924  
      5793       5794       5805       5804       5914       5915       5926       5925  
      5794       5795       5806       5805       5915       5916       5927       5926  
      5795       5796       5807       5806       5916       5917       5928       5927  
      5796       5797       5808       5807       5917       5918       5929       5928  
      5809       5810       5821       5820       5930       5931       5942       5941  
      5810       5811       5822       5821       5931       5932       5943       5942  
      5811       5812       5823       5822       5932       5933       5944       5943  
      5812       5813       5824       5823       5933       5934       5945       5944  
      5813       5814       5825       5824       5934       5935       5946       5945  
      5814       5815       5826       5825       5935       5936       5947       5946  
      5815       5816       5827       5826       5936       5937       5948       5947  
      5816       5817       5828       5827       5937       5938       5949       5948  
      5817       5818       5829       5828       5938       5939       5950       5949  
      5818       5819       5830       5829       5939       5940       5951       5950  
      5820       5821       5832       5831       5941       5942       5953       5952  
      5821       5822       5833       5832       5942       5943       5954       5953  
      5822       5823       5834       5833       5943       5944       5955       5954  
      5823       5824       5835       5834       5944       5945       5956       5955  
      5824       5825       5836       5835       5945       5946       5957       5956  
      5825       5826       5837       5836       5946       5947       5958       5957  
      5826       5827       5838       5837       5947       5948       5959       5958  
      5827       5828       5839       5838       5948       5949       5960       5959  
      5828       5829       5840       5839       5949       5950       5961       5960  
      5829       5830       5841       5840       5950       5951       5962       5961  
      5831       5832       5843       5842       5952       5953       5964       5963  
      5832       5833       5844       5843       5953       5954       5965       5964  
      5833       5834       5845       5844       5954       5955       5966       5965  
      5834       5835       5846       5845       5955       5956       5967       5966  
      5835       5836       5847       5846       5956       5957       5968       5967  
      5836       5837       5848       5847       5957       5958       5969       5968  
      5837       5838       5849       5848       5958       5959       5970       5969  
      5838       5839       5850       5849       5959       5960       5971       5970  
      5839       5840       5851       5850       5960       5961       5972       5971  
      5840       5841       5852       5851       5961       5962       5973       5972  
      5842       5843       5854       5853       5963       5964       5975       5974  
      5843       5844       5855       5854       5964       5965       5976       5975  
      5844       5845       5856       5855       5965       5966       5977       5976  
      5845       5846       5857       5856       5966       5967       5978       5977  
      5846       5847       5858       5857       5967       5968       5979       5978  
      5847       5848       5859       5858       5968       5969       5980       5979  
      5848       5849       5860       5859       5969       5970       5981       5980  
      5849       5850       5861       5860       5970       5971       5982       5981  
      5850       5851       5862       5861       5971       5972       5983       5982  
      5851       5852       5863       5862       5972       5973       5984       5983  
      5853       5854       5865       5864       5974       5975       5986       5985  
      5854       5855       5866       5865       5975       5976       5987       5986  
      5855       5856       5867       5866       5976       5977       5988       5987  
      5856       5857       5868       5867       5977       5978       5989       5988  
      5857       5858       5869       5868       5978       5979       5990       5989  
      5858       5859       5870       5869       5979       5980       5991       5990  
      5859       5860       5871       5870       5980       5981       5992       5991  
      5860       5861       5872       5871       5981       5982       5993       5992  
      5861       5862       5873       5872       5982       5983       5994       5993  
      5862       5863       5874       5873       5983       5984       5995       5994  
      5864       5865       5876       5875       5985       5986       5997       5996  
      5865       5866       5877       5876       5986       5987       5998       5997  
      5866       5867       5878       5877       5987       5988       5999       5998  
      5867       5868       5879       5878       5988       5989       6000       5999  
      5868       5869       5880       5879       5989       5990       6001       6000  
      5869       5870       5881       5880       5990       5991       6002       6001  
      5870       5871       5882       5881       5991       5992       6003       6002  
      5871       5872       5883       5882       5992       5993       6004       6003  
      5872       5873       5884       5883       5993       5994       6005       6004  
      5873       5874       5885       5884       5994       5995       6006       6005  
      5875       5876       5887       5886       5996       5997       6008       6007  
      5876       5877       5888       5887       5997       5998       6009       6008  
      5877       5878       5889       5888       5998       5999       6010       6009  
      5878       5879       5890       5889       5999       6000       6011       6010  
      5879       5880       5891       5890       6000       6001       6012       6011  
      5880       5881       5892       5891       6001       6002       6013       6012  
      5881       5882       5893       5892       6002       6003       6014       6013  
      5882       5883       5894       5893       6003       6004       6015       6014  
      5883       5884       5895       5894       6004       6005       6016       6015  
      5884       5885       5896       5895       6005       6006       6017       6016  
      5886       5887       5898       5897       6007       6008       6019       6018  
      5887       5888       5899       5898       6008       6009       6020       6019  
      5888       5889       5900       5899       6009       6010       6021       6020  
      5889       5890       5901       5900       6010       6011       6022       6021  
      5890       5891       5902       5901       6011       6012       6023       6022  
      5891       5892       5903       5902       6012       6013       6024       6023  
      5892       5893       5904       5903       6013       6014       6025       6024  
      5893       5894       5905       5904       6014       6015       6026       6025  
      5894       5895       5906       5905       6015       6016       6027       6026  
      5895       5896       5907       5906       6016       6017       6028       6027  
      5897       5898       5909       5908       6018       6019       6030       6029  
      5898       5899       5910       5909       6019       6020       6031       6030  
      5899       5900       5911       5910       6020       6021       6032       6031  
      5900       5901       5912       5911       6021       6022       6033       6032  
      5901       5902       5913       5912       6022       6023       6034       6033  
      5902       5903       5914       5913       6023       6024       6035       6034  
      5903       5904       5915       5914       6024       6025       6036       6035  
      5904       5905       5916       5915       6025       6026       6037       6036  
      5905       5906       5917       5916       6026       6027       6038       6037  
      5906       5907       5918       5917       6027       6028       6039       6038  
      5908       5909       5920       5919       6029       6030       6041       6040  
      5909       5910       5921       5920       6030       6031       6042       6041  
      5910       5911       5922       5921       6031       6032       6043       6042  
      5911       5912       5923       5922       6032       6033       6044       6043  
      5912       5913       5924       5923       6033       6034       6045       6044  
      5913       5914       5925       5924       6034       6035       6046       6045  
      5914       5915       5926       5925       6035       6036       6047       6046  
      5915       5916       5927       5926       6036       6037       6048       6047  
      5916       5917       5928       5927       6037       6038       6049       6048  
      5917       5918       5929       5928       6038       6039       6050       6049  
      5930       5931       5942       5941       6051       6052       6063       6062  
      5931       5932       5943       5942       6052       6053       6064       6063  
      5932       5933       5944       5943       6053       6054       6065       6064  
      5933       5934       5945       5944       6054       6055       6066       6065  
      5934       5935       5946       5945       6055       6056       6067       6066  
      5935       5936       5947       5946       6056       6057       6068       6067  
      5936       5937       5948       5947       6057       6058       6069       6068  
      5937       5938       5949       5948       6058       6059       6070       6069  
      5938       5939       5950       5949       6059       6060       6071       6070  
      5939       5940       5951       5950       6060       6061       6072       6071  
      5941       5942       5953       5952       6062       6063       6074       6073  
      5942       5943       5954       5953       6063       6064       6075       6074  
      5943       5944       5955       5954       6064       6065       6076       6075  
      5944       5945       5956       5955       6065       6066       6077       6076  
      5945       5946       5957       5956       6066       6067       6078       6077  
      5946       5947       5958       5957       6067       6068       6079       6078  
      5947       5948       5959       5958       6068       6069       6080       6079  
      5948       5949       5960       5959       6069       6070       6081       6080  
      5949       5950       5961       5960       6070       6071       6082       6081  
      5950       5951       5962       5961       6071       6072       6083       6082  
      5952       5953       5964       5963       6073       6074       6085       6084  
      5953       5954       5965       5964       6074       6075       6086       6085  
      5954       5955       5966       5965       6075       6076       6087       6086  
      5955       5956       5967       5966       6076       6077       6088       6087  
      5956       5957       5968       5967       6077       6078       6089       6088  
      5957       5958       5969       5968       6078       6079       6090       6089  
      5958       5959       5970       5969       6079       6080       6091       6090  
      5959       5960       5971       5970       6080       6081       6092       6091  
      5960       5961       5972       5971       6081       6082       6093       6092  
      5961       5962       5973       5972       6082       6083       6094       6093  
      5963       5964       5975       5974       6084       6085       6096       6095  
      5964       5965       5976       5975       6085       6086       6097       6096  
      5965       5966       5977       5976       6086       6087       6098       6097  
      5966       5967       5978       5977       6087       6088       6099       6098  
      5967       5968       5979       5978       6088       6089       6100       6099  
      5968       5969       5980       5979       6089       6090       6101       6100  
      5969       5970       5981       5980       6090       6091       6102       6101  
      5970       5971       5982       5981       6091       6092       6103       6102  
      5971       5972       5983       5982       6092       6093       6104       6103  
      5972       5973       5984       5983       6093       6094       6105       6104  
      5974       5975       5986       5985       6095       6096       6107       6106  
      5975       5976       5987       5986       6096       6097       6108       6107  
      5976       5977       5988       5987       6097       6098       6109       6108  
      5977       5978       5989       5988       6098       6099       6110       6109  
      5978       5979       5990       5989       6099       6100       6111       6110  
      5979       5980       5991       5990       6100       6101       6112       6111  
      5980       5981       5992       5991       6101       6102       6113       6112  
      5981       5982       5993       5992       6102       6103       6114       6113  
      5982       5983       5994       5993       6103       6104       6115       6114  
      5983       5984       5995       5994       6104       6105       6116       6115  
      5985       5986       5997       5996       6106       6107       6118       6117  
      5986       5987       5998       5997       6107       6108       6119       6118  
      5987       5988       5999       5998       6108       6109       6120       6119  
      5988       5989       6000       5999       6109       6110       6121       6120  
      5989       5990       6001       6000       6110       6111       6122       6121  
      5990       5991       6002       6001       6111       6112       6123       6122  
      5991       5992       6003       6002       6112       6113       6124       6123  
      5992       5993       6004       6003       6113       6114       6125       6124  
      5993       5994       6005       6004       6114       6115       6126       6125  
      5994       5995       6006       6005       6115       6116       6127       6126  
      5996       5997       6008       6007       6117       6118       6129       6128  
      5997       5998       6009       6008       6118       6119       6130       6129  
      5998       5999       6010       6009       6119       6120       6131       6130  
      5999       6000       6011       6010       6120       6121       6132       6131  
      6000       6001       6012       6011       6121       6122       6133       6132  
      6001       6002       6013       6012       6122       6123       6134       6133  
      6002       6003       6014       6013       6123       6124       6135       6134  
      6003       6004       6015       6014       6124       6125       6136       6135  
      6004       6005       6016       6015       6125       6126       6137       6136  
      6005       6006       6017       6016       6126       6127       6138       6137  
      6007       6008       6019       6018       6128       6129       6140       6139  
      6008       6009       6020       6019       6129       6130       6141       6140  
      6009       6010       6021       6020       6130       6131       6142       6141  
      6010       6011       6022       6021       6131       6132       6143       6142  
      6011       6012       6023       6022       6132       6133       6144       6143  
      6012       6013       6024       6023       6133       6134       6145       6144  
      6013       6014       6025       6024       6134       6135       6146       6145  
      6014       6015       6026       6025       6135       6136       6147       6146  
      6015       6016       6027       6026       6136       6137       6148       6147  
      6016       6017       6028       6027       6137       6138       6149       6148  
      6018       6019       6030       6029       6139       6140       6151       6150  
      6019       6020       6031       6030       6140       6141       6152       6151  
      6020       6021       6032       6031       6141       6142       6153       6152  
      6021       6022       6033       6032       6142       6143       6154       6153  
      6022       6023       6034       6033       6143       6144       6155       6154  
      6023       6024       6035       6034       6144       6145       6156       6155  
      6024       6025       6036       6035       6145       6146       6157       6156  
      6025       6026       6037       6036       6146       6147       6158       6157  
      6026       6027       6038       6037       6147       6148       6159       6158  
      6027       6028       6039       6038       6148       6149       6160       6159  
      6029       6030       6041       6040       6150       6151       6162       6161  
      6030       6031       6042       6041       6151       6152       6163       6162  
      6031       6032       6043       6042       6152       6153       6164       6163  
      6032       6033       6044       6043       6153       6154       6165       6164  
      6033       6034       6045       6044       6154       6155       6166       6165  
      6034       6035       6046       6045       6155       6156       6167       6166  
      6035       6036       6047       6046       6156       6157       6168       6167  
      6036       6037       6048       6047       6157       6158       6169       6168  
      6037       6038       6049       6048       6158       6159       6170       6169  
      6038       6039       6050       6049       6159       6160       6171       6170  
      6051       6052       6063       6062       6172       6173       6184       6183  
      6052       6053       6064       6063       6173       6174       6185       6184  
      6053       6054       6065       6064       6174       6175       6186       6185  
      6054       6055       6066       6065       6175       6176       6187       6186  
      6055       6056       6067       6066       6176       6177       6188       6187  
      6056       6057       6068       6067       6177       6178       6189       6188  
      6057       6058       6069       6068       6178       6179       6190       6189  
      6058       6059       6070       6069       6179       6180       6191       6190  
      6059       6060       6071       6070       6180       6181       6192       6191  
      6060       6061       6072       6071       6181       6182       6193       6192  
      6062       6063       6074       6073       6183       6184       6195       6194  
      6063       6064       6075       6074       6184       6185       6196       6195  
      6064       6065       6076       6075       6185       6186       6197       6196  
      6065       6066       6077       6076       6186       6187       6198       6197  
      6066       6067       6078       6077       6187       6188       6199       6198  
      6067       6068       6079       6078       6188       6189       6200       6199  
      6068       6069       6080       6079       6189       6190       6201       6200  
      6069       6070       6081       6080       6190       6191       6202       6201  
      6070       6071       6082       6081       6191       6192       6203       6202  
      6071       6072       6083       6082       6192       6193       6204       6203  
      6073       6074       6085       6084       6194       6195       6206       6205  
      6074       6075       6086       6085       6195       6196       6207       6206  
      6075       6076       6087       6086       6196       6197       6208       6207  
      6076       6077       6088       6087       6197       6198       6209       6208  
      6077       6078       6089       6088       6198       6199       6210       6209  
      6078       6079       6090       6089       6199       6200       6211       6210  
      6079       6080       6091       6090       6200       6201       6212       6211  
      6080       6081       6092       6091       6201       6202       6213       6212  
      6081       6082       6093       6092       6202       6203       6214       6213  
      6082       6083       6094       6093       6203       6204       6215       6214  
      6084       6085       6096       6095       6205       6206       6217       6216  
      6085       6086       6097       6096       6206       6207       6218       6217  
      6086       6087       6098       6097       6207       6208       6219       6218  
      6087       6088       6099       6098       6208       6209       6220       6219  
      6088       6089       6100       6099       6209       6210       6221       6220  
      6089       6090       6101       6100       6210       6211       6222       6221  
      6090       6091       6102       6101       6211       6212       6223       6222  
      6091       6092       6103       6102       6212       6213       6224       6223  
      6092       6093       6104       6103       6213       6214       6225       6224  
      6093       6094       6105       6104       6214       6215       6226       6225  
      6095       6096       6107       6106       6216       6217       6228       6227  
      6096       6097       6108       6107       6217       6218       6229       6228  
      6097       6098       6109       6108       6218       6219       6230       6229  
      6098       6099       6110       6109       6219       6220       6231       6230  
      6099       6100       6111       6110       6220       6221       6232       6231  
      6100       6101       6112       6111       6221       6222       6233       6232  
      6101       6102       6113       6112       6222       6223       6234       6233  
      6102       6103       6114       6113       6223       6224       6235       6234  
      6103       6104       6115       6114       6224       6225       6236       6235  
      6104       6105       6116       6115       6225       6226       6237       6236  
      6106       6107       6118       6117       6227       6228       6239       6238  
      6107       6108       6119       6118       6228       6229       6240       6239  
      6108       6109       6120       6119       6229       6230       6241       6240  
      6109       6110       6121       6120       6230       6231       6242       6241  
      6110       6111       6122       6121       6231       6232       6243       6242  
      6111       6112       6123       6122       6232       6233       6244       6243  
      6112       6113       6124       6123       6233       6234       6245       6244  
      6113       6114       6125       6124       6234       6235       6246       6245  
      6114       6115       6126       6125       6235       6236       6247       6246  
      6115       6116       6127       6126       6236       6237       6248       6247  
      6117       6118       6129       6128       6238       6239       6250       6249  
      6118       6119       6130       6129       6239       6240       6251       6250  
      6119       6120       6131       6130       6240       6241       6252       6251  
      6120       6121       6132       6131       6241       6242       6253       6252  
      6121       6122       6133       6132       6242       6243       6254       6253  
      6122       6123       6134       6133       6243       6244       6255       6254  
      6123       6124       6135       6134       6244       6245       6256       6255  
      6124       6125       6136       6135       6245       6246       6257       6256  
      6125       6126       6137       6136       6246       6247       6258       6257  
      6126       6127       6138       6137       6247       6248       6259       6258  
      6128       6129       6140       6139       6249       6250       6261       6260  
      6129       6130       6141       6140       6250       6251       6262       6261  
      6130       6131       6142       6141       6251       6252       6263       6262  
      6131       6132       6143       6142       6252       6253       6264       6263  
      6132       6133       6144       6143       6253       6254       6265       6264  
      6133       6134       6145       6144       6254       6255       6266       6265  
      6134       6135       6146       6145       6255       6256       6267       6266  
      6135       6136       6147       6146       6256       6257       6268       6267  
      6136       6137       6148       6147       6257       6258       6269       6268  
      6137       6138       6149       6148       6258       6259       6270       6269  
      6139       6140       6151       6150       6260       6261       6272       6271  
      6140       6141       6152       6151       6261       6262       6273       6272  
      6141       6142       6153       6152       6262       6263       6274       6273  
      6142       6143       6154       6153       6263       6264       6275       6274  
      6143       6144       6155       6154       6264       6265       6276       6275  
      6144       6145       6156       6155       6265       6266       6277       6276  
      6145       6146       6157       6156       6266       6267       6278       6277  
      6146       6147       6158       6157       6267       6268       6279       6278  
      6147       6148       6159       6158       6268       6269       6280       6279  
      6148       6149       6160       6159       6269       6270       6281       6280  
      6150       6151       6162       6161       6271       6272       6283       6282  
      6151       6152       6163       6162       6272       6273       6284       6283  
      6152       6153       6164       6163       6273       6274       6285       6284  
      6153       6154       6165       6164       6274       6275       6286       6285  
      6154       6155       6166       6165       6275       6276       6287       6286  
      6155       6156       6167       6166       6276       6277       6288       6287  
      6156       6157       6168       6167       6277       6278       6289       6288  
      6157       6158       6169       6168       6278       6279       6290       6289  
      6158       6159       6170       6169       6279       6280       6291       6290  
      6159       6160       6171       6170       6280       6281       6292       6291  
      6172       6173       6184       6183       6293       6294       6305       6304  
      6173       6174       6185       6184       6294       6295       6306       6305  
      6174       6175       6186       6185       6295       6296       6307       6306  
      6175       6176       6187       6186       6296       6297       6308       6307  
      6176       6177       6188       6187       6297       6298       6309       6308  
      6177       6178       6189       6188       6298       6299       6310       6309  
      6178       6179       6190       6189       6299       6300       6311       6310  
      6179       6180       6191       6190       6300       6301       6312       6311  
      6180       6181       6192       6191       6301       6302       6313       6312  
      6181       6182       6193       6192       6302       6303       6314       6313  
      6183       6184       6195       6194       6304       6305       6316       6315  
      6184       6185       6196       6195       6305       6306       6317       6316  
      6185       6186       6197       6196       6306       6307       6318       6317  
      6186       6187       6198       6197       6307       6308       6319       6318  
      6187       6188       6199       6198       6308       6309       6320       6319  
      6188       6189       6200       6199       6309       6310       6321       6320  
      6189       6190       6201       6200       6310       6311       6322       6321  
      6190       6191       6202       6201       6311       6312       6323       6322  
      6191       6192       6203       6202       6312       6313       6324       6323  
      6192       6193       6204       6203       6313       6314       6325       6324  
      6194       6195       6206       6205       6315       6316       6327       6326  
      6195       6196       6207       6206       6316       6317       6328       6327  
      6196       6197       6208       6207       6317       6318       6329       6328  
      6197       6198       6209       6208       6318       6319       6330       6329  
      6198       6199       6210       6209       6319       6320       6331       6330  
      6199       6200       6211       6210       6320       6321       6332       6331  
      6200       6201       6212       6211       6321       6322       6333       6332  
      6201       6202       6213       6212       6322       6323       6334       6333  
      6202       6203       6214       6213       6323       6324       6335       6334  
      6203       6204       6215       6214       6324       6325       6336       6335  
      6205       6206       6217       6216       6326       6327       6338       6337  
      6206       6207       6218       6217       6327       6328       6339       6338  
      6207       6208       6219       6218       6328       6329       6340       6339  
      6208       6209       6220       6219       6329       6330       6341       6340  
      6209       6210       6221       6220       6330       6331       6342       6341  
      6210       6211       6222       6221       6331       6332       6343       6342  
      6211       6212       6223       6222       6332       6333       6344       6343  
      6212       6213       6224       6223       6333       6334       6345       6344  
      6213       6214       6225       6224       6334       6335       6346       6345  
      6214       6215       6226       6225       6335       6336       6347       6346  
      6216       6217       6228       6227       6337       6338       6349       6348  
      6217       6218       6229       6228       6338       6339       6350       6349  
      6218       6219       6230       6229       6339       6340       6351       6350  
      6219       6220       6231       6230       6340       6341       6352       6351  
      6220       6221       6232       6231       6341       6342       6353       6352  
      6221       6222       6233       6232       6342       6343       6354       6353  
      6222       6223       6234       6233       6343       6344       6355       6354  
      6223       6224       6235       6234       6344       6345       6356       6355  
      6224       6225       6236       6235       6345       6346       6357       6356  
      6225       6226       6237       6236       6346       6347       6358       6357  
      6227       6228       6239       6238       6348       6349       6360       6359  
      6228       6229       6240       6239       6349       6350       6361       6360  
      6229       6230       6241       6240       6350       6351       6362       6361  
      6230       6231       6242       6241       6351       6352       6363       6362  
      6231       6232       6243       6242       6352       6353       6364       6363  
      6232       6233       6244       6243       6353       6354       6365       6364  
      6233       6234       6245       6244       6354       6355       6366       6365  
      6234       6235       6246       6245       6355       6356       6367       6366  
      6235       6236       6247       6246       6356       6357       6368       6367  
      6236       6237       6248       6247       6357       6358       6369       6368  
      6238       6239       6250       6249       6359       6360       6371       6370  
      6239       6240       6251       6250       6360       6361       6372       6371  
      6240       6241       6252       6251       6361       6362       6373       6372  
      6241       6242       6253       6252       6362       6363       6374       6373  
      6242       6243       6254       6253       6363       6364       6375       6374  
      6243       6244       6255       6254       6364       6365       6376       6375  
      6244       6245       6256       6255       6365       6366       6377       6376  
      6245       6246       6257       6256       6366       6367       6378       6377  
      6246       6247       6258       6257       6367       6368       6379       6378  
      6247       6248       6259       6258       6368       6369       6380       6379  
      6249       6250       6261       6260       6370       6371       6382       6381  
      6250       6251       6262       6261       6371       6372       6383       6382  
      6251       6252       6263       6262       6372       6373       6384       6383  
      6252       6253       6264       6263       6373       6374       6385       6384  
      6253       6254       6265       6264       6374       6375       6386       6385  
      6254       6255       6266       6265       6375       6376       6387       6386  
      6255       6256       6267       6266       6376       6377       6388       6387  
      6256       6257       6268       6267       6377       6378       6389       6388  
      6257       6258       6269       6268       6378       6379       6390       6389  
      6258       6259       6270       6269       6379       6380       6391       6390  
      6260       6261       6272       6271       6381       6382       6393       6392  
      6261       6262       6273       6272       6382       6383       6394       6393  
      6262       6263       6274       6273       6383       6384       6395       6394  
      6263       6264       6275       6274       6384       6385       6396       6395  
      6264       6265       6276       6275       6385       6386       6397       6396  
      6265       6266       6277       6276       6386       6387       6398       6397  
      6266       6267       6278       6277       6387       6388       6399       6398  
      6267       6268       6279       6278       6388       6389       6400       6399  
      6268       6269       6280       6279       6389       6390       6401       6400  
      6269       6270       6281       6280       6390       6391       6402       6401  
      6271       6272       6283       6282       6392       6393       6404       6403  
      6272       6273       6284       6283       6393       6394       6405       6404  
      6273       6274       6285       6284       6394       6395       6406       6405  
      6274       6275       6286       6285       6395       6396       6407       6406  
      6275       6276       6287       6286       6396       6397       6408       6407  
      6276       6277       6288       6287       6397       6398       6409       6408  
      6277       6278       6289       6288       6398       6399       6410       6409  
      6278       6279       6290       6289       6399       6400       6411       6410  
      6279       6280       6291       6290       6400       6401       6412       6411  
      6280       6281       6292       6291       6401       6402       6413       6412  
      6293       6294       6305       6304       6414       6415       6426       6425  
      6294       6295       6306       6305       6415       6416       6427       6426  
      6295       6296       6307       6306       6416       6417       6428       6427  
      6296       6297       6308       6307       6417       6418       6429       6428  
      6297       6298       6309       6308       6418       6419       6430       6429  
      6298       6299       6310       6309       6419       6420       6431       6430  
      6299       6300       6311       6310       6420       6421       6432       6431  
      6300       6301       6312       6311       6421       6422       6433       6432  
      6301       6302       6313       6312       6422       6423       6434       6433  
      6302       6303       6314       6313       6423       6424       6435       6434  
      6304       6305       6316       6315       6425       6426       6437       6436  
      6305       6306       6317       6316       6426       6427       6438       6437  
      6306       6307       6318       6317       6427       6428       6439       6438  
      6307       6308       6319       6318       6428       6429       6440       6439  
      6308       6309       6320       6319       6429       6430       6441       6440  
      6309       6310       6321       6320       6430       6431       6442       6441  
      6310       6311       6322       6321       6431       6432       6443       6442  
      6311       6312       6323       6322       6432       6433       6444       6443  
      6312       6313       6324       6323       6433       6434       6445       6444  
      6313       6314       6325       6324       6434       6435       6446       6445  
      6315       6316       6327       6326       6436       6437       6448       6447  
      6316       6317       6328       6327       6437       6438       6449       6448  
      6317       6318       6329       6328       6438       6439       6450       6449  
      6318       6319       6330       6329       6439       6440       6451       6450  
      6319       6320       6331       6330       6440       6441       6452       6451  
      6320       6321       6332       6331       6441       6442       6453       6452  
      6321       6322       6333       6332       6442       6443       6454       6453  
      6322       6323       6334       6333       6443       6444       6455       6454  
      6323       6324       6335       6334       6444       6445       6456       6455  
      6324       6325       6336       6335       6445       6446       6457       6456  
      6326       6327       6338       6337       6447       6448       6459       6458  
      6327       6328       6339       6338       6448       6449       6460       6459  
      6328       6329       6340       6339       6449       6450       6461       6460  
      6329       6330       6341       6340       6450       6451       6462       6461  
      6330       6331       6342       6341       6451       6452       6463       6462  
      6331       6332       6343       6342       6452       6453       6464       6463  
      6332       6333       6344       6343       6453       6454       6465       6464  
      6333       6334       6345       6344       6454       6455       6466       6465  
      6334       6335       6346       6345       6455       6456       6467       6466  
      6335       6336       6347       6346       6456       6457       6468       6467  
      6337       6338       6349       6348       6458       6459       6470       6469  
      6338       6339       6350       6349       6459       6460       6471       6470  
      6339       6340       6351       6350       6460       6461       6472       6471  
      6340       6341       6352       6351       6461       6462       6473       6472  
      6341       6342       6353       6352       6462       6463       6474       6473  
      6342       6343       6354       6353       6463       6464       6475       6474  
      6343       6344       6355       6354       6464       6465       6476       6475  
      6344       6345       6356       6355       6465       6466       6477       6476  
      6345       6346       6357       6356       6466       6467       6478       6477  
      6346       6347       6358       6357       6467       6468       6479       6478  
      6348       6349       6360       6359       6469       6470       6481       6480  
      6349       6350       6361       6360       6470       6471       6482       6481  
      6350       6351       6362       6361       6471       6472       6483       6482  
      6351       6352       6363       6362       6472       6473       6484       6483  
      6352       6353       6364       6363       6473       6474       6485       6484  
      6353       6354       6365       6364       6474       6475       6486       6485  
      6354       6355       6366       6365       6475       6476       6487       6486  
      6355       6356       6367       6366       6476       6477       6488       6487  
      6356       6357       6368       6367       6477       6478       6489       6488  
      6357       6358       6369       6368       6478       6479       6490       6489  
      6359       6360       6371       6370       6480       6481       6492       6491  
      6360       6361       6372       6371       6481       6482       6493       6492  
      6361       6362       6373       6372       6482       6483       6494       6493  
      6362       6363       6374       6373       6483       6484       6495       6494  
      6363       6364       6375       6374       6484       6485       6496       6495  
      6364       6365       6376       6375       6485       6486       6497       6496  
      6365       6366       6377       6376       6486       6487       6498       6497  
      6366       6367       6378       6377       6487       6488       6499       6498  
      6367       6368       6379       6378       6488       6489       6500       6499  
      6368       6369       6380       6379       6489       6490       6501       6500  
      6370       6371       6382       6381       6491       6492       6503       6502  
      6371       6372       6383       6382       6492       6493       6504       6503  
      6372       6373       6384       6383       6493       6494       6505       6504  
      6373       6374       6385       6384       6494       6495       6506       6505  
      6374       6375       6386       6385       6495       6496       6507       6506  
      6375       6376       6387       6386       6496       6497       6508       6507  
      6376       6377       6388       6387       6497       6498       6509       6508  
      6377       6378       6389       6388       6498       6499       6510       6509  
      6378       6379       6390       6389       6499       6500       6511       6510  
      6379       6380       6391       6390       6500       6501       6512       6511  
      6381       6382       6393       6392       6502       6503       6514       6513  
      6382       6383       6394       6393       6503       6504       6515       6514  
      6383       6384       6395       6394       6504       6505       6516       6515  
      6384       6385       6396       6395       6505       6506       6517       6516  
      6385       6386       6397       6396       6506       6507       6518       6517  
      6386       6387       6398       6397       6507       6508       6519       6518  
      6387       6388       6399       6398       6508       6509       6520       6519  
      6388       6389       6400       6399       6509       6510       6521       6520  
      6389       6390       6401       6400       6510       6511       6522       6521  
      6390       6391       6402       6401       6511       6512       6523       6522  
      6392       6393       6404       6403       6513       6514       6525       6524  
      6393       6394       6405       6404       6514       6515       6526       6525  
      6394       6395       6406       6405       6515       6516       6527       6526  
      6395       6396       6407       6406       6516       6517       6528       6527  
      6396       6397       6408       6407       6517       6518       6529       6528  
      6397       6398       6409       6408       6518       6519       6530       6529  
      6398       6399       6410       6409       6519       6520       6531       6530  
      6399       6400       6411       6410       6520       6521       6532       6531  
      6400       6401       6412       6411       6521       6522       6533       6532  
      6401       6402       6413       6412       6522       6523       6534       6533  
      6414       6415       6426       6425       6535       6536       6547       6546  
      6415       6416       6427       6426       6536       6537       6548       6547  
      6416       6417       6428       6427       6537       6538       6549       6548  
      6417       6418       6429       6428       6538       6539       6550       6549  
      6418       6419       6430       6429       6539       6540       6551       6550  
      6419       6420       6431       6430       6540       6541       6552       6551  
      6420       6421       6432       6431       6541       6542       6553       6552  
      6421       6422       6433       6432       6542       6543       6554       6553  
      6422       6423       6434       6433       6543       6544       6555       6554  
      6423       6424       6435       6434       6544       6545       6556       6555  
      6425       6426       6437       6436       6546       6547       6558       6557  
      6426       6427       6438       6437       6547       6548       6559       6558  
      6427       6428       6439       6438       6548       6549       6560       6559  
      6428       6429       6440       6439       6549       6550       6561       6560  
      6429       6430       6441       6440       6550       6551       6562       6561  
      6430       6431       6442       6441       6551       6552       6563       6562  
      6431       6432       6443       6442       6552       6553       6564       6563  
      6432       6433       6444       6443       6553       6554       6565       6564  
      6433       6434       6445       6444       6554       6555       6566       6565  
      6434       6435       6446       6445       6555       6556       6567       6566  
      6436       6437       6448       6447       6557       6558       6569       6568  
      6437       6438       6449       6448       6558       6559       6570       6569  
      6438       6439       6450       6449       6559       6560       6571       6570  
      6439       6440       6451       6450       6560       6561       6572       6571  
      6440       6441       6452       6451       6561       6562       6573       6572  
      6441       6442       6453       6452       6562       6563       6574       6573  
      6442       6443       6454       6453       6563       6564       6575       6574  
      6443       6444       6455       6454       6564       6565       6576       6575  
      6444       6445       6456       6455       6565       6566       6577       6576  
      6445       6446       6457       6456       6566       6567       6578       6577  
      6447       6448       6459       6458       6568       6569       6580       6579  
      6448       6449       6460       6459       6569       6570       6581       6580  
      6449       6450       6461       6460       6570       6571       6582       6581  
      6450       6451       6462       6461       6571       6572       6583       6582  
      6451       6452       6463       6462       6572       6573       6584       6583  
      6452       6453       6464       6463       6573       6574       6585       6584  
      6453       6454       6465       6464       6574       6575       6586       6585  
      6454       6455       6466       6465       6575       6576       6587       6586  
      6455       6456       6467       6466       6576       6577       6588       6587  
      6456       6457       6468       6467       6577       6578       6589       6588  
      6458       6459       6470       6469       6579       6580       6591       6590  
      6459       6460       6471       6470       6580       6581       6592       6591  
      6460       6461       6472       6471       6581       6582       6593       6592  
      6461       6462       6473       6472       6582       6583       6594       6593  
      6462       6463       6474       6473       6583       6584       6595       6594  
      6463       6464       6475       6474       6584       6585       6596       6595  
      6464       6465       6476       6475       6585       6586       6597       6596  
      6465       6466       6477       6476       6586       6587       6598       6597  
      6466       6467       6478       6477       6587       6588       6599       6598  
      6467       6468       6479       6478       6588       6589       6600       6599  
      6469       6470       6481       6480       6590       6591       6602       6601  
      6470       6471       6482       6481       6591       6592       6603       6602  
      6471       6472       6483       6482       6592       6593       6604       6603  
      6472       6473       6484       6483       6593       6594       6605       6604  
      6473       6474       6485       6484       6594       6595       6606       6605  
      6474       6475       6486       6485       6595       6596       6607       6606  
      6475       6476       6487       6486       6596       6597       6608       6607  
      6476       6477       6488       6487       6597       6598       6609       6608  
      6477       6478       6489       6488       6598       6599       6610       6609  
      6478       6479       6490       6489       6599       6600       6611       6610  
      6480       6481       6492       6491       6601       6602       6613       6612  
      6481       6482       6493       6492       6602       6603       6614       6613  
      6482       6483       6494       6493       6603       6604       6615       6614  
      6483       6484       6495       6494       6604       6605       6616       6615  
      6484       6485       6496       6495       6605       6606       6617       6616  
      6485       6486       6497       6496       6606       6607       6618       6617  
      6486       6487       6498       6497       6607       6608       6619       6618  
      6487       6488       6499       6498       6608       6609       6620       6619  
      6488       6489       6500       6499       6609       6610       6621       6620  
      6489       6490       6501       6500       6610       6611       6622       6621  
      6491       6492       6503       6502       6612       6613       6624       6623  
      6492       6493       6504       6503       6613       6614       6625       6624  
      6493       6494       6505       6504       6614       6615       6626       6625  
      6494       6495       6506       6505       6615       6616       6627       6626  
      6495       6496       6507       6506       6616       6617       6628       6627  
      6496       6497       6508       6507       6617       6618       6629       6628  
      6497       6498       6509       6508       6618       6619       6630       6629  
      6498       6499       6510       6509       6619       6620       6631       6630  
      6499       6500       6511       6510       6620       6621       6632       6631  
      6500       6501       6512       6511       6621       6622       6633       6632  
      6502       6503       6514       6513       6623       6624       6635       6634  
      6503       6504       6515       6514       6624       6625       6636       6635  
      6504       6505       6516       6515       6625       6626       6637       6636  
      6505       6506       6517       6516       6626       6627       6638       6637  
      6506       6507       6518       6517       6627       6628       6639       6638  
      6507       6508       6519       6518       6628       6629       6640       6639  
      6508       6509       6520       6519       6629       6630       6641       6640  
      6509       6510       6521       6520       6630       6631       6642       6641  
      6510       6511       6522       6521       6631       6632       6643       6642  
      6511       6512       6523       6522       6632       6633       6644       6643  
      6513       6514       6525       6524       6634       6635       6646       6645  
      6514       6515       6526       6525       6635       6636       6647       6646  
      6515       6516       6527       6526       6636       6637       6648       6647  
      6516       6517       6528       6527       6637       6638       6649       6648  
      6517       6518       6529       6528       6638       6639       6650       6649  
      6518       6519       6530       6529       6639       6640       6651       6650  
      6519       6520       6531       6530       6640       6641       6652       6651  
      6520       6521       6532       6531       6641       6642       6653       6652  
      6521       6522       6533       6532       6642       6643       6654       6653  
      6522       6523       6534       6533       6643       6644       6655       6654  
      6535       6536       6547       6546       6656       6657       6668       6667  
      6536       6537       6548       6547       6657       6658       6669       6668  
      6537       6538       6549       6548       6658       6659       6670       6669  
      6538       6539       6550       6549       6659       6660       6671       6670  
      6539       6540       6551       6550       6660       6661       6672       6671  
      6540       6541       6552       6551       6661       6662       6673       6672  
      6541       6542       6553       6552       6662       6663       6674       6673  
      6542       6543       6554       6553       6663       6664       6675       6674  
      6543       6544       6555       6554       6664       6665       6676       6675  
      6544       6545       6556       6555       6665       6666       6677       6676  
      6546       6547       6558       6557       6667       6668       6679       6678  
      6547       6548       6559       6558       6668       6669       6680       6679  
      6548       6549       6560       6559       6669       6670       6681       6680  
      6549       6550       6561       6560       6670       6671       6682       6681  
      6550       6551       6562       6561       6671       6672       6683       6682  
      6551       6552       6563       6562       6672       6673       6684       6683  
      6552       6553       6564       6563       6673       6674       6685       6684  
      6553       6554       6565       6564       6674       6675       6686       6685  
      6554       6555       6566       6565       6675       6676       6687       6686  
      6555       6556       6567       6566       6676       6677       6688       6687  
      6557       6558       6569       6568       6678       6679       6690       6689  
      6558       6559       6570       6569       6679       6680       6691       6690  
      6559       6560       6571       6570       6680       6681       6692       6691  
      6560       6561       6572       6571       6681       6682       6693       6692  
      6561       6562       6573       6572       6682       6683       6694       6693  
      6562       6563       6574       6573       6683       6684       6695       6694  
      6563       6564       6575       6574       6684       6685       6696       6695  
      6564       6565       6576       6575       6685       6686       6697       6696  
      6565       6566       6577       6576       6686       6687       6698       6697  
      6566       6567       6578       6577       6687       6688       6699       6698  
      6568       6569       6580       6579       6689       6690       6701       6700  
      6569       6570       6581       6580       6690       6691       6702       6701  
      6570       6571       6582       6581       6691       6692       6703       6702  
      6571       6572       6583       6582       6692       6693       6704       6703  
      6572       6573       6584       6583       6693       6694       6705       6704  
      6573       6574       6585       6584       6694       6695       6706       6705  
      6574       6575       6586       6585       6695       6696       6707       6706  
      6575       6576       6587       6586       6696       6697       6708       6707  
      6576       6577       6588       6587       6697       6698       6709       6708  
      6577       6578       6589       6588       6698       6699       6710       6709  
      6579       6580       6591       6590       6700       6701       6712       6711  
      6580       6581       6592       6591       6701       6702       6713       6712  
      6581       6582       6593       6592       6702       6703       6714       6713  
      6582       6583       6594       6593       6703       6704       6715       6714  
      6583       6584       6595       6594       6704       6705       6716       6715  
      6584       6585       6596       6595       6705       6706       6717       6716  
      6585       6586       6597       6596       6706       6707       6718       6717  
      6586       6587       6598       6597       6707       6708       6719       6718  
      6587       6588       6599       6598       6708       6709       6720       6719  
      6588       6589       6600       6599       6709       6710       6721       6720  
      6590       6591       6602       6601       6711       6712       6723       6722  
      6591       6592       6603       6602       6712       6713       6724       6723  
      6592       6593       6604       6603       6713       6714       6725       6724  
      6593       6594       6605       6604       6714       6715       6726       6725  
      6594       6595       6606       6605       6715       6716       6727       6726  
      6595       6596       6607       6606       6716       6717       6728       6727  
      6596       6597       6608       6607       6717       6718       6729       6728  
      6597       6598       6609       6608       6718       6719       6730       6729  
      6598       6599       6610       6609       6719       6720       6731       6730  
      6599       6600       6611       6610       6720       6721       6732       6731  
      6601       6602       6613       6612       6722       6723       6734       6733  
      6602       6603       6614       6613       6723       6724       6735       6734  
      6603       6604       6615       6614       6724       6725       6736       6735  
      6604       6605       6616       6615       6725       6726       6737       6736  
      6605       6606       6617       6616       6726       6727       6738       6737  
      6606       6607       6618       6617       6727       6728       6739       6738  
      6607       6608       6619       6618       6728       6729       6740       6739  
      6608       6609       6620       6619       6729       6730       6741       6740  
      6609       6610       6621       6620       6730       6731       6742       6741  
      6610       6611       6622       6621       6731       6732       6743       6742  
      6612       6613       6624       6623       6733       6734       6745       6744  
      6613       6614       6625       6624       6734       6735       6746       6745  
      6614       6615       6626       6625       6735       6736       6747       6746  
      6615       6616       6627       6626       6736       6737       6748       6747  
      6616       6617       6628       6627       6737       6738       6749       6748  
      6617       6618       6629       6628       6738       6739       6750       6749  
      6618       6619       6630       6629       6739       6740       6751       6750  
      6619       6620       6631       6630       6740       6741       6752       6751  
      6620       6621       6632       6631       6741       6742       6753       6752  
      6621       6622       6633       6632       6742       6743       6754       6753  
      6623       6624       6635       6634       6744       6745       6756       6755  
      6624       6625       6636       6635       6745       6746       6757       6756  
      6625       6626       6637       6636       6746       6747       6758       6757  
      6626       6627       6638       6637       6747       6748       6759       6758  
      6627       6628       6639       6638       6748       6749       6760       6759  
      6628       6629       6640       6639       6749       6750       6761       6760  
      6629       6630       6641       6640       6750       6751       6762       6761  
      6630       6631       6642       6641       6751       6752       6763       6762  
      6631       6632       6643       6642       6752       6753       6764       6763  
      6632       6633       6644       6643       6753       6754       6765       6764  
      6634       6635       6646       6645       6755       6756       6767       6766  
      6635       6636       6647       6646       6756       6757       6768       6767  
      6636       6637       6648       6647       6757       6758       6769       6768  
      6637       6638       6649       6648       6758       6759       6770       6769  
      6638       6639       6650       6649       6759       6760       6771       6770  
      6639       6640       6651       6650       6760       6761       6772       6771  
      6640       6641       6652       6651       6761       6762       6773       6772  
      6641       6642       6653       6652       6762       6763       6774       6773  
      6642       6643       6654       6653       6763       6764       6775       6774  
      6643       6644       6655       6654       6764       6765       6776       6775  
      6656       6657       6668       6667       6777       6778       6789       6788  
      6657       6658       6669       6668       6778       6779       6790       6789  
      6658       6659       6670       6669       6779       6780       6791       6790  
      6659       6660       6671       6670       6780       6781       6792       6791  
      6660       6661       6672       6671       6781       6782       6793       6792  
      6661       6662       6673       6672       6782       6783       6794       6793  
      6662       6663       6674       6673       6783       6784       6795       6794  
      6663       6664       6675       6674       6784       6785       6796       6795  
      6664       6665       6676       6675       6785       6786       6797       6796  
      6665       6666       6677       6676       6786       6787       6798       6797  
      6667       6668       6679       6678       6788       6789       6800       6799  
      6668       6669       6680       6679       6789       6790       6801       6800  
      6669       6670       6681       6680       6790       6791       6802       6801  
      6670       6671       6682       6681       6791       6792       6803       6802  
      6671       6672       6683       6682       6792       6793       6804       6803  
      6672       6673       6684       6683       6793       6794       6805       6804  
      6673       6674       6685       6684       6794       6795       6806       6805  
      6674       6675       6686       6685       6795       6796       6807       6806  
      6675       6676       6687       6686       6796       6797       6808       6807  
      6676       6677       6688       6687       6797       6798       6809       6808  
      6678       6679       6690       6689       6799       6800       6811       6810  
      6679       6680       6691       6690       6800       6801       6812       6811  
      6680       6681       6692       6691       6801       6802       6813       6812  
      6681       6682       6693       6692       6802       6803       6814       6813  
      6682       6683       6694       6693       6803       6804       6815       6814  
      6683       6684       6695       6694       6804       6805       6816       6815  
      6684       6685       6696       6695       6805       6806       6817       6816  
      6685       6686       6697       6696       6806       6807       6818       6817  
      6686       6687       6698       6697       6807       6808       6819       6818  
      6687       6688       6699       6698       6808       6809       6820       6819  
      6689       6690       6701       6700       6810       6811       6822       6821  
      6690       6691       6702       6701       6811       6812       6823       6822  
      6691       6692       6703       6702       6812       6813       6824       6823  
      6692       6693       6704       6703       6813       6814       6825       6824  
      6693       6694       6705       6704       6814       6815       6826       6825  
      6694       6695       6706       6705       6815       6816       6827       6826  
      6695       6696       6707       6706       6816       6817       6828       6827  
      6696       6697       6708       6707       6817       6818       6829       6828  
      6697       6698       6709       6708       6818       6819       6830       6829  
      6698       6699       6710       6709       6819       6820       6831       6830  
      6700       6701       6712       6711       6821       6822       6833       6832  
      6701       6702       6713       6712       6822       6823       6834       6833  
      6702       6703       6714       6713       6823       6824       6835       6834  
      6703       6704       6715       6714       6824       6825       6836       6835  
      6704       6705       6716       6715       6825       6826       6837       6836  
      6705       6706       6717       6716       6826       6827       6838       6837  
      6706       6707       6718       6717       6827       6828       6839       6838  
      6707       6708       6719       6718       6828       6829       6840       6839  
      6708       6709       6720       6719       6829       6830       6841       6840  
      6709       6710       6721       6720       6830       6831       6842       6841  
      6711       6712       6723       6722       6832       6833       6844       6843  
      6712       6713       6724       6723       6833       6834       6845       6844  
      6713       6714       6725       6724       6834       6835       6846       6845  
      6714       6715       6726       6725       6835       6836       6847       6846  
      6715       6716       6727       6726       6836       6837       6848       6847  
      6716       6717       6728       6727       6837       6838       6849       6848  
      6717       6718       6729       6728       6838       6839       6850       6849  
      6718       6719       6730       6729       6839       6840       6851       6850  
      6719       6720       6731       6730       6840       6841       6852       6851  
      6720       6721       6732       6731       6841       6842       6853       6852  
      6722       6723       6734       6733       6843       6844       6855       6854  
      6723       6724       6735       6734       6844       6845       6856       6855  
      6724       6725       6736       6735       6845       6846       6857       6856  
      6725       6726       6737       6736       6846       6847       6858       6857  
      6726       6727       6738       6737       6847       6848       6859       6858  
      6727       6728       6739       6738       6848       6849       6860       6859  
      6728       6729       6740       6739       6849       6850       6861       6860  
      6729       6730       6741       6740       6850       6851       6862       6861  
      6730       6731       6742       6741       6851       6852       6863       6862  
      6731       6732       6743       6742       6852       6853       6864       6863  
      6733       6734       6745       6744       6854       6855       6866       6865  
      6734       6735       6746       6745       6855       6856       6867       6866  
      6735       6736       6747       6746       6856       6857       6868       6867  
      6736       6737       6748       6747       6857       6858       6869       6868  
      6737       6738       6749       6748       6858       6859       6870       6869  
      6738       6739       6750       6749       6859       6860       6871       6870  
      6739       6740       6751       6750       6860       6861       6872       6871  
      6740       6741       6752       6751       6861       6862       6873       6872  
      6741       6742       6753       6752       6862       6863       6874       6873  
      6742       6743       6754       6753       6863       6864       6875       6874  
      6744       6745       6756       6755       6865       6866       6877       6876  
      6745       6746       6757       6756       6866       6867       6878       6877  
      6746       6747       6758       6757       6867       6868       6879       6878  
      6747       6748       6759       6758       6868       6869       6880       6879  
      6748       6749       6760       6759       6869       6870       6881       6880  
      6749       6750       6761       6760       6870       6871       6882       6881  
      6750       6751       6762       6761       6871       6872       6883       6882  
      6751       6752       6763       6762       6872       6873       6884       6883  
      6752       6753       6764       6763       6873       6874       6885       6884  
      6753       6754       6765       6764       6874       6875       6886       6885  
      6755       6756       6767       6766       6876       6877       6888       6887  
      6756       6757       6768       6767       6877       6878       6889       6888  
      6757       6758       6769       6768       6878       6879       6890       6889  
      6758       6759       6770       6769       6879       6880       6891       6890  
      6759       6760       6771       6770       6880       6881       6892       6891  
      6760       6761       6772       6771       6881       6882       6893       6892  
      6761       6762       6773       6772       6882       6883       6894       6893  
      6762       6763       6774       6773       6883       6884       6895       6894  
      6763       6764       6775       6774       6884       6885       6896       6895  
      6764       6765       6776       6775       6885       6886       6897       6896  
      6777       6778       6789       6788       6898       6899       6910       6909  
      6778       6779       6790       6789       6899       6900       6911       6910  
      6779       6780       6791       6790       6900       6901       6912       6911  
      6780       6781       6792       6791       6901       6902       6913       6912  
      6781       6782       6793       6792       6902       6903       6914       6913  
      6782       6783       6794       6793       6903       6904       6915       6914  
      6783       6784       6795       6794       6904       6905       6916       6915  
      6784       6785       6796       6795       6905       6906       6917       6916  
      6785       6786       6797       6796       6906       6907       6918       6917  
      6786       6787       6798       6797       6907       6908       6919       6918  
      6788       6789       6800       6799       6909       6910       6921       6920  
      6789       6790       6801       6800       6910       6911       6922       6921  
      6790       6791       6802       6801       6911       6912       6923       6922  
      6791       6792       6803       6802       6912       6913       6924       6923  
      6792       6793       6804       6803       6913       6914       6925       6924  
      6793       6794       6805       6804       6914       6915       6926       6925  
      6794       6795       6806       6805       6915       6916       6927       6926  
      6795       6796       6807       6806       6916       6917       6928       6927  
      6796       6797       6808       6807       6917       6918       6929       6928  
      6797       6798       6809       6808       6918       6919       6930       6929  
      6799       6800       6811       6810       6920       6921       6932       6931  
      6800       6801       6812       6811       6921       6922       6933       6932  
      6801       6802       6813       6812       6922       6923       6934       6933  
      6802       6803       6814       6813       6923       6924       6935       6934  
      6803       6804       6815       6814       6924       6925       6936       6935  
      6804       6805       6816       6815       6925       6926       6937       6936  
      6805       6806       6817       6816       6926       6927       6938       6937  
      6806       6807       6818       6817       6927       6928       6939       6938  
      6807       6808       6819       6818       6928       6929       6940       6939  
      6808       6809       6820       6819       6929       6930       6941       6940  
      6810       6811       6822       6821       6931       6932       6943       6942  
      6811       6812       6823       6822       6932       6933       6944       6943  
      6812       6813       6824       6823       6933       6934       6945       6944  
      6813       6814       6825       6824       6934       6935       6946       6945  
      6814       6815       6826       6825       6935       6936       6947       6946  
      6815       6816       6827       6826       6936       6937       6948       6947  
      6816       6817       6828       6827       6937       6938       6949       6948  
      6817       6818       6829       6828       6938       6939       6950       6949  
      6818       6819       6830       6829       6939       6940       6951       6950  
      6819       6820       6831       6830       6940       6941       6952       6951  
      6821       6822       6833       6832       6942       6943       6954       6953  
      6822       6823       6834       6833       6943       6944       6955       6954  
      6823       6824       6835       6834       6944       6945       6956       6955  
      6824       6825       6836       6835       6945       6946       6957       6956  
      6825       6826       6837       6836       6946       6947       6958       6957  
      6826       6827       6838       6837       6947       6948       6959       6958  
      6827       6828       6839       6838       6948       6949       6960       6959  
      6828       6829       6840       6839       6949       6950       6961       6960  
      6829       6830       6841       6840       6950       6951       6962       6961  
      6830       6831       6842       6841       6951       6952       6963       6962  
      6832       6833       6844       6843       6953       6954       6965       6964  
      6833       6834       6845       6844       6954       6955       6966       6965  
      6834       6835       6846       6845       6955       6956       6967       6966  
      6835       6836       6847       6846       6956       6957       6968       6967  
      6836       6837       6848       6847       6957       6958       6969       6968  
      6837       6838       6849       6848       6958       6959       6970       6969  
      6838       6839       6850       6849       6959       6960       6971       6970  
      6839       6840       6851       6850       6960       6961       6972       6971  
      6840       6841       6852       6851       6961       6962       6973       6972  
      6841       6842       6853       6852       6962       6963       6974       6973  
      6843       6844       6855       6854       6964       6965       6976       6975  
      6844       6845       6856       6855       6965       6966       6977       6976  
      6845       6846       6857       6856       6966       6967       6978       6977  
      6846       6847       6858       6857       6967       6968       6979       6978  
      6847       6848       6859       6858       6968       6969       6980       6979  
      6848       6849       6860       6859       6969       6970       6981       6980  
      6849       6850       6861       6860       6970       6971       6982       6981  
      6850       6851       6862       6861       6971       6972       6983       6982  
      6851       6852       6863       6862       6972       6973       6984       6983  
      6852       6853       6864       6863       6973       6974       6985       6984  
      6854       6855       6866       6865       6975       6976       6987       6986  
      6855       6856       6867       6866       6976       6977       6988       6987  
      6856       6857       6868       6867       6977       6978       6989       6988  
      6857       6858       6869       6868       6978       6979       6990       6989  
      6858       6859       6870       6869       6979       6980       6991       6990  
      6859       6860       6871       6870       6980       6981       6992       6991  
      6860       6861       6872       6871       6981       6982       6993       6992  
      6861       6862       6873       6872       6982       6983       6994       6993  
      6862       6863       6874       6873       6983       6984       6995       6994  
      6863       6864       6875       6874       6984       6985       6996       6995  
      6865       6866       6877       6876       6986       6987       6998       6997  
      6866       6867       6878       6877       6987       6988       6999       6998  
      6867       6868       6879       6878       6988       6989       7000       6999  
      6868       6869       6880       6879       6989       6990       7001       7000  
      6869       6870       6881       6880       6990       6991       7002       7001  
      6870       6871       6882       6881       6991       6992       7003       7002  
      6871       6872       6883       6882       6992       6993       7004       7003  
      6872       6873       6884       6883       6993       6994       7005       7004  
      6873       6874       6885       6884       6994       6995       7006       7005  
      6874       6875       6886       6885       6995       6996       7007       7006  
      6876       6877       6888       6887       6997       6998       7009       7008  
      6877       6878       6889       6888       6998       6999       7010       7009  
      6878       6879       6890       6889       6999       7000       7011       7010  
      6879       6880       6891       6890       7000       7001       7012       7011  
      6880       6881       6892       6891       7001       7002       7013       7012  
      6881       6882       6893       6892       7002       7003       7014       7013  
      6882       6883       6894       6893       7003       7004       7015       7014  
      6883       6884       6895       6894       7004       7005       7016       7015  
      6884       6885       6896       6895       7005       7006       7017       7016  
      6885       6886       6897       6896       7006       7007       7018       7017  
      6898       6899       6910       6909       7019       7020       7031       7030  
      6899       6900       6911       6910       7020       7021       7032       7031  
      6900       6901       6912       6911       7021       7022       7033       7032  
      6901       6902       6913       6912       7022       7023       7034       7033  
      6902       6903       6914       6913       7023       7024       7035       7034  
      6903       6904       6915       6914       7024       7025       7036       7035  
      6904       6905       6916       6915       7025       7026       7037       7036  
      6905       6906       6917       6916       7026       7027       7038       7037  
      6906       6907       6918       6917       7027       7028       7039       7038  
      6907       6908       6919       6918       7028       7029       7040       7039  
      6909       6910       6921       6920       7030       7031       7042       7041  
      6910       6911       6922       6921       7031       7032       7043       7042  
      6911       6912       6923       6922       7032       7033       7044       7043  
      6912       6913       6924       6923       7033       7034       7045       7044  
      6913       6914       6925       6924       7034       7035       7046       7045  
      6914       6915       6926       6925       7035       7036       7047       7046  
      6915       6916       6927       6926       7036       7037       7048       7047  
      6916       6917       6928       6927       7037       7038       7049       7048  
      6917       6918       6929       6928       7038       7039       7050       7049  
      6918       6919       6930       6929       7039       7040       7051       7050  
      6920       6921       6932       6931       7041       7042       7053       7052  
      6921       6922       6933       6932       7042       7043       7054       7053  
      6922       6923       6934       6933       7043       7044       7055       7054  
      6923       6924       6935       6934       7044       7045       7056       7055  
      6924       6925       6936       6935       7045       7046       7057       7056  
      6925       6926       6937       6936       7046       7047       7058       7057  
      6926       6927       6938       6937       7047       7048       7059       7058  
      6927       6928       6939       6938       7048       7049       7060       7059  
      6928       6929       6940       6939       7049       7050       7061       7060  
      6929       6930       6941       6940       7050       7051       7062       7061  
      6931       6932       6943       6942       7052       7053       7064       7063  
      6932       6933       6944       6943       7053       7054       7065       7064  
      6933       6934       6945       6944       7054       7055       7066       7065  
      6934       6935       6946       6945       7055       7056       7067       7066  
      6935       6936       6947       6946       7056       7057       7068       7067  
      6936       6937       6948       6947       7057       7058       7069       7068  
      6937       6938       6949       6948       7058       7059       7070       7069  
      6938       6939       6950       6949       7059       7060       7071       7070  
      6939       6940       6951       6950       7060       7061       7072       7071  
      6940       6941       6952       6951       7061       7062       7073       7072  
      6942       6943       6954       6953       7063       7064       7075       7074  
      6943       6944       6955       6954       7064       7065       7076       7075  
      6944       6945       6956       6955       7065       7066       7077       7076  
      6945       6946       6957       6956       7066       7067       7078       7077  
      6946       6947       6958       6957       7067       7068       7079       7078  
      6947       6948       6959       6958       7068       7069       7080       7079  
      6948       6949       6960       6959       7069       7070       7081       7080  
      6949       6950       6961       6960       7070       7071       7082       7081  
      6950       6951       6962       6961       7071       7072       7083       7082  
      6951       6952       6963       6962       7072       7073       7084       7083  
      6953       6954       6965       6964       7074       7075       7086       7085  
      6954       6955       6966       6965       7075       7076       7087       7086  
      6955       6956       6967       6966       7076       7077       7088       7087  
      6956       6957       6968       6967       7077       7078       7089       7088  
      6957       6958       6969       6968       7078       7079       7090       7089  
      6958       6959       6970       6969       7079       7080       7091       7090  
      6959       6960       6971       6970       7080       7081       7092       7091  
      6960       6961       6972       6971       7081       7082       7093       7092  
      6961       6962       6973       6972       7082       7083       7094       7093  
      6962       6963       6974       6973       7083       7084       7095       7094  
      6964       6965       6976       6975       7085       7086       7097       7096  
      6965       6966       6977       6976       7086       7087       7098       7097  
      6966       6967       6978       6977       7087       7088       7099       7098  
      6967       6968       6979       6978       7088       7089       7100       7099  
      6968       6969       6980       6979       7089       7090       7101       7100  
      6969       6970       6981       6980       7090       7091       7102       7101  
      6970       6971       6982       6981       7091       7092       7103       7102  
      6971       6972       6983       6982       7092       7093       7104       7103  
      6972       6973       6984       6983       7093       7094       7105       7104  
      6973       6974       6985       6984       7094       7095       7106       7105  
      6975       6976       6987       6986       7096       7097       7108       7107  
      6976       6977       6988       6987       7097       7098       7109       7108  
      6977       6978       6989       6988       7098       7099       7110       7109  
      6978       6979       6990       6989       7099       7100       7111       7110  
      6979       6980       6991       6990       7100       7101       7112       7111  
      6980       6981       6992       6991       7101       7102       7113       7112  
      6981       6982       6993       6992       7102       7103       7114       7113  
      6982       6983       6994       6993       7103       7104       7115       7114  
      6983       6984       6995       6994       7104       7105       7116       7115  
      6984       6985       6996       6995       7105       7106       7117       7116  
      6986       6987       6998       6997       7107       7108       7119       7118  
      6987       6988       6999       6998       7108       7109       7120       7119  
      6988       6989       7000       6999       7109       7110       7121       7120  
      6989       6990       7001       7000       7110       7111       7122       7121  
      6990       6991       7002       7001       7111       7112       7123       7122  
      6991       6992       7003       7002       7112       7113       7124       7123  
      6992       6993       7004       7003       7113       7114       7125       7124  
      6993       6994       7005       7004       7114       7115       7126       7125  
      6994       6995       7006       7005       7115       7116       7127       7126  
      6995       6996       7007       7006       7116       7117       7128       7127  
      6997       6998       7009       7008       7118       7119       7130       7129  
      6998       6999       7010       7009       7119       7120       7131       7130  
      6999       7000       7011       7010       7120       7121       7132       7131  
      7000       7001       7012       7011       7121       7122       7133       7132  
      7001       7002       7013       7012       7122       7123       7134       7133  
      7002       7003       7014       7013       7123       7124       7135       7134  
      7003       7004       7015       7014       7124       7125       7136       7135  
      7004       7005       7016       7015       7125       7126       7137       7136  
      7005       7006       7017       7016       7126       7127       7138       7137  
      7006       7007       7018       7017       7127       7128       7139       7138  
      7019       7020       7031       7030       7140       7141       7152       7151  
      7020       7021       7032       7031       7141       7142       7153       7152  
      7021       7022       7033       7032       7142       7143       7154       7153  
      7022       7023       7034       7033       7143       7144       7155       7154  
      7023       7024       7035       7034       7144       7145       7156       7155  
      7024       7025       7036       7035       7145       7146       7157       7156  
      7025       7026       7037       7036       7146       7147       7158       7157  
      7026       7027       7038       7037       7147       7148       7159       7158  
      7027       7028       7039       7038       7148       7149       7160       7159  
      7028       7029       7040       7039       7149       7150       7161       7160  
      7030       7031       7042       7041       7151       7152       7163       7162  
      7031       7032       7043       7042       7152       7153       7164       7163  
      7032       7033       7044       7043       7153       7154       7165       7164  
      7033       7034       7045       7044       7154       7155       7166       7165  
      7034       7035       7046       7045       7155       7156       7167       7166  
      7035       7036       7047       7046       7156       7157       7168       7167  
      7036       7037       7048       7047       7157       7158       7169       7168  
      7037       7038       7049       7048       7158       7159       7170       7169  
      7038       7039       7050       7049       7159       7160       7171       7170  
      7039       7040       7051       7050       7160       7161       7172       7171  
      7041       7042       7053       7052       7162       7163       7174       7173  
      7042       7043       7054       7053       7163       7164       7175       7174  
      7043       7044       7055       7054       7164       7165       7176       7175  
      7044       7045       7056       7055       7165       7166       7177       7176  
      7045       7046       7057       7056       7166       7167       7178       7177  
      7046       7047       7058       7057       7167       7168       7179       7178  
      7047       7048       7059       7058       7168       7169       7180       7179  
      7048       7049       7060       7059       7169       7170       7181       7180  
      7049       7050       7061       7060       7170       7171       7182       7181  
      7050       7051       7062       7061       7171       7172       7183       7182  
      7052       7053       7064       7063       7173       7174       7185       7184  
      7053       7054       7065       7064       7174       7175       7186       7185  
      7054       7055       7066       7065       7175       7176       7187       7186  
      7055       7056       7067       7066       7176       7177       7188       7187  
      7056       7057       7068       7067       7177       7178       7189       7188  
      7057       7058       7069       7068       7178       7179       7190       7189  
      7058       7059       7070       7069       7179       7180       7191       7190  
      7059       7060       7071       7070       7180       7181       7192       7191  
      7060       7061       7072       7071       7181       7182       7193       7192  
      7061       7062       7073       7072       7182       7183       7194       7193  
      7063       7064       7075       7074       7184       7185       7196       7195  
      7064       7065       7076       7075       7185       7186       7197       7196  
      7065       7066       7077       7076       7186       7187       7198       7197  
      7066       7067       7078       7077       7187       7188       7199       7198  
      7067       7068       7079       7078       7188       7189       7200       7199  
      7068       7069       7080       7079       7189       7190       7201       7200  
      7069       7070       7081       7080       7190       7191       7202       7201  
      7070       7071       7082       7081       7191       7192       7203       7202  
      7071       7072       7083       7082       7192       7193       7204       7203  
      7072       7073       7084       7083       7193       7194       7205       7204  
      7074       7075       7086       7085       7195       7196       7207       7206  
      7075       7076       7087       7086       7196       7197       7208       7207  
      7076       7077       7088       7087       7197       7198       7209       7208  
      7077       7078       7089       7088       7198       7199       7210       7209  
      7078       7079       7090       7089       7199       7200       7211       7210  
      7079       7080       7091       7090       7200       7201       7212       7211  
      7080       7081       7092       7091       7201       7202       7213       7212  
      7081       7082       7093       7092       7202       7203       7214       7213  
      7082       7083       7094       7093       7203       7204       7215       7214  
      7083       7084       7095       7094       7204       7205       7216       7215  
      7085       7086       7097       7096       7206       7207       7218       7217  
      7086       7087       7098       7097       7207       7208       7219       7218  
      7087       7088       7099       7098       7208       7209       7220       7219  
      7088       7089       7100       7099       7209       7210       7221       7220  
      7089       7090       7101       7100       7210       7211       7222       7221  
      7090       7091       7102       7101       7211       7212       7223       7222  
      7091       7092       7103       7102       7212       7213       7224       7223  
      7092       7093       7104       7103       7213       7214       7225       7224  
      7093       7094       7105       7104       7214       7215       7226       7225  
      7094       7095       7106       7105       7215       7216       7227       7226  
      7096       7097       7108       7107       7217       7218       7229       7228  
      7097       7098       7109       7108       7218       7219       7230       7229  
      7098       7099       7110       7109       7219       7220       7231       7230  
      7099       7100       7111       7110       7220       7221       7232       7231  
      7100       7101       7112       7111       7221       7222       7233       7232  
      7101       7102       7113       7112       7222       7223       7234       7233  
      7102       7103       7114       7113       7223       7224       7235       7234  
      7103       7104       7115       7114       7224       7225       7236       7235  
      7104       7105       7116       7115       7225       7226       7237       7236  
      7105       7106       7117       7116       7226       7227       7238       7237  
      7107       7108       7119       7118       7228       7229       7240       7239  
      7108       7109       7120       7119       7229       7230       7241       7240  
      7109       7110       7121       7120       7230       7231       7242       7241  
      7110       7111       7122       7121       7231       7232       7243       7242  
      7111       7112       7123       7122       7232       7233       7244       7243  
      7112       7113       7124       7123       7233       7234       7245       7244  
      7113       7114       7125       7124       7234       7235       7246       7245  
      7114       7115       7126       7125       7235       7236       7247       7246  
      7115       7116       7127       7126       7236       7237       7248       7247  
      7116       7117       7128       7127       7237       7238       7249       7248  
      7118       7119       7130       7129       7239       7240       7251       7250  
      7119       7120       7131       7130       7240       7241       7252       7251  
      7120       7121       7132       7131       7241       7242       7253       7252  
      7121       7122       7133       7132       7242       7243       7254       7253  
      7122       7123       7134       7133       7243       7244       7255       7254  
      7123       7124       7135       7134       7244       7245       7256       7255  
      7124       7125       7136       7135       7245       7246       7257       7256  
      7125       7126       7137       7136       7246       7247       7258       7257  
      7126       7127       7138       7137       7247       7248       7259       7258  
      7127       7128       7139       7138       7248       7249       7260       7259  
      7140       7141       7152       7151       7261       7262       7273       7272  
      7141       7142       7153       7152       7262       7263       7274       7273  
      7142       7143       7154       7153       7263       7264       7275       7274  
      7143       7144       7155       7154       7264       7265       7276       7275  
      7144       7145       7156       7155       7265       7266       7277       7276  
      7145       7146       7157       7156       7266       7267       7278       7277  
      7146       7147       7158       7157       7267       7268       7279       7278  
      7147       7148       7159       7158       7268       7269       7280       7279  
      7148       7149       7160       7159       7269       7270       7281       7280  
      7149       7150       7161       7160       7270       7271       7282       7281  
      7151       7152       7163       7162       7272       7273       7284       7283  
      7152       7153       7164       7163       7273       7274       7285       7284  
      7153       7154       7165       7164       7274       7275       7286       7285  
      7154       7155       7166       7165       7275       7276       7287       7286  
      7155       7156       7167       7166       7276       7277       7288       7287  
      7156       7157       7168       7167       7277       7278       7289       7288  
      7157       7158       7169       7168       7278       7279       7290       7289  
      7158       7159       7170       7169       7279       7280       7291       7290  
      7159       7160       7171       7170       7280       7281       7292       7291  
      7160       7161       7172       7171       7281       7282       7293       7292  
      7162       7163       7174       7173       7283       7284       7295       7294  
      7163       7164       7175       7174       7284       7285       7296       7295  
      7164       7165       7176       7175       7285       7286       7297       7296  
      7165       7166       7177       7176       7286       7287       7298       7297  
      7166       7167       7178       7177       7287       7288       7299       7298  
      7167       7168       7179       7178       7288       7289       7300       7299  
      7168       7169       7180       7179       7289       7290       7301       7300  
      7169       7170       7181       7180       7290       7291       7302       7301  
      7170       7171       7182       7181       7291       7292       7303       7302  
      7171       7172       7183       7182       7292       7293       7304       7303  
      7173       7174       7185       7184       7294       7295       7306       7305  
      7174       7175       7186       7185       7295       7296       7307       7306  
      7175       7176       7187       7186       7296       7297       7308       7307  
      7176       7177       7188       7187       7297       7298       7309       7308  
      7177       7178       7189       7188       7298       7299       7310       7309  
      7178       7179       7190       7189       7299       7300       7311       7310  
      7179       7180       7191       7190       7300       7301       7312       7311  
      7180       7181       7192       7191       7301       7302       7313       7312  
      7181       7182       7193       7192       7302       7303       7314       7313  
      7182       7183       7194       7193       7303       7304       7315       7314  
      7184       7185       7196       7195       7305       7306       7317       7316  
      7185       7186       7197       7196       7306       7307       7318       7317  
      7186       7187       7198       7197       7307       7308       7319       7318  
      7187       7188       7199       7198       7308       7309       7320       7319  
      7188       7189       7200       7199       7309       7310       7321       7320  
      7189       7190       7201       7200       7310       7311       7322       7321  
      7190       7191       7202       7201       7311       7312       7323       7322  
      7191       7192       7203       7202       7312       7313       7324       7323  
      7192       7193       7204       7203       7313       7314       7325       7324  
      7193       7194       7205       7204       7314       7315       7326       7325  
      7195       7196       7207       7206       7316       7317       7328       7327  
      7196       7197       7208       7207       7317       7318       7329       7328  
      7197       7198       7209       7208       7318       7319       7330       7329  
      7198       7199       7210       7209       7319       7320       7331       7330  
      7199       7200       7211       7210       7320       7321       7332       7331  
      7200       7201       7212       7211       7321       7322       7333       7332  
      7201       7202       7213       7212       7322       7323       7334       7333  
      7202       7203       7214       7213       7323       7324       7335       7334  
      7203       7204       7215       7214       7324       7325       7336       7335  
      7204       7205       7216       7215       7325       7326       7337       7336  
      7206       7207       7218       7217       7327       7328       7339       7338  
      7207       7208       7219       7218       7328       7329       7340       7339  
      7208       7209       7220       7219       7329       7330       7341       7340  
      7209       7210       7221       7220       7330       7331       7342       7341  
      7210       7211       7222       7221       7331       7332       7343       7342  
      7211       7212       7223       7222       7332       7333       7344       7343  
      7212       7213       7224       7223       7333       7334       7345       7344  
      7213       7214       7225       7224       7334       7335       7346       7345  
      7214       7215       7226       7225       7335       7336       7347       7346  
      7215       7216       7227       7226       7336       7337       7348       7347  
      7217       7218       7229       7228       7338       7339       7350       7349  
      7218       7219       7230       7229       7339       7340       7351       7350  
      7219       7220       7231       7230       7340       7341       7352       7351  
      7220       7221       7232       7231       7341       7342       7353       7352  
      7221       7222       7233       7232       7342       7343       7354       7353  
      7222       7223       7234       7233       7343       7344       7355       7354  
      7223       7224       7235       7234       7344       7345       7356       7355  
      7224       7225       7236       7235       7345       7346       7357       7356  
      7225       7226       7237       7236       7346       7347       7358       7357  
      7226       7227       7238       7237       7347       7348       7359       7358  
      7228       7229       7240       7239       7349       7350       7361       7360  
      7229       7230       7241       7240       7350       7351       7362       7361  
      7230       7231       7242       7241       7351       7352       7363       7362  
      7231       7232       7243       7242       7352       7353       7364       7363  
      7232       7233       7244       7243       7353       7354       7365       7364  
      7233       7234       7245       7244       7354       7355       7366       7365  
      7234       7235       7246       7245       7355       7356       7367       7366  
      7235       7236       7247       7246       7356       7357       7368       7367  
      7236       7237       7248       7247       7357       7358       7369       7368  
      7237       7238       7249       7248       7358       7359       7370       7369  
      7239       7240       7251       7250       7360       7361       7372       7371  
      7240       7241       7252       7251       7361       7362       7373       7372  
      7241       7242       7253       7252       7362       7363       7374       7373  
      7242       7243       7254       7253       7363       7364       7375       7374  
      7243       7244       7255       7254       7364       7365       7376       7375  
      7244       7245       7256       7255       7365       7366       7377       7376  
      7245       7246       7257       7256       7366       7367       7378       7377  
      7246       7247       7258       7257       7367       7368       7379       7378  
      7247       7248       7259       7258       7368       7369       7380       7379  
      7248       7249       7260       7259       7369       7370       7381       7380  
      7261       7262       7273       7272       7382       7383       7394       7393  
      7262       7263       7274       7273       7383       7384       7395       7394  
      7263       7264       7275       7274       7384       7385       7396       7395  
      7264       7265       7276       7275       7385       7386       7397       7396  
      7265       7266       7277       7276       7386       7387       7398       7397  
      7266       7267       7278       7277       7387       7388       7399       7398  
      7267       7268       7279       7278       7388       7389       7400       7399  
      7268       7269       7280       7279       7389       7390       7401       7400  
      7269       7270       7281       7280       7390       7391       7402       7401  
      7270       7271       7282       7281       7391       7392       7403       7402  
      7272       7273       7284       7283       7393       7394       7405       7404  
      7273       7274       7285       7284       7394       7395       7406       7405  
      7274       7275       7286       7285       7395       7396       7407       7406  
      7275       7276       7287       7286       7396       7397       7408       7407  
      7276       7277       7288       7287       7397       7398       7409       7408  
      7277       7278       7289       7288       7398       7399       7410       7409  
      7278       7279       7290       7289       7399       7400       7411       7410  
      7279       7280       7291       7290       7400       7401       7412       7411  
      7280       7281       7292       7291       7401       7402       7413       7412  
      7281       7282       7293       7292       7402       7403       7414       7413  
      7283       7284       7295       7294       7404       7405       7416       7415  
      7284       7285       7296       7295       7405       7406       7417       7416  
      7285       7286       7297       7296       7406       7407       7418       7417  
      7286       7287       7298       7297       7407       7408       7419       7418  
      7287       7288       7299       7298       7408       7409       7420       7419  
      7288       7289       7300       7299       7409       7410       7421       7420  
      7289       7290       7301       7300       7410       7411       7422       7421  
      7290       7291       7302       7301       7411       7412       7423       7422  
      7291       7292       7303       7302       7412       7413       7424       7423  
      7292       7293       7304       7303       7413       7414       7425       7424  
      7294       7295       7306       7305       7415       7416       7427       7426  
      7295       7296       7307       7306       7416       7417       7428       7427  
      7296       7297       7308       7307       7417       7418       7429       7428  
      7297       7298       7309       7308       7418       7419       7430       7429  
      7298       7299       7310       7309       7419       7420       7431       7430  
      7299       7300       7311       7310       7420       7421       7432       7431  
      7300       7301       7312       7311       7421       7422       7433       7432  
      7301       7302       7313       7312       7422       7423       7434       7433  
      7302       7303       7314       7313       7423       7424       7435       7434  
      7303       7304       7315       7314       7424       7425       7436       7435  
      7305       7306       7317       7316       7426       7427       7438       7437  
      7306       7307       7318       7317       7427       7428       7439       7438  
      7307       7308       7319       7318       7428       7429       7440       7439  
      7308       7309       7320       7319       7429       7430       7441       7440  
      7309       7310       7321       7320       7430       7431       7442       7441  
      7310       7311       7322       7321       7431       7432       7443       7442  
      7311       7312       7323       7322       7432       7433       7444       7443  
      7312       7313       7324       7323       7433       7434       7445       7444  
      7313       7314       7325       7324       7434       7435       7446       7445  
      7314       7315       7326       7325       7435       7436       7447       7446  
      7316       7317       7328       7327       7437       7438       7449       7448  
      7317       7318       7329       7328       7438       7439       7450       7449  
      7318       7319       7330       7329       7439       7440       7451       7450  
      7319       7320       7331       7330       7440       7441       7452       7451  
      7320       7321       7332       7331       7441       7442       7453       7452  
      7321       7322       7333       7332       7442       7443       7454       7453  
      7322       7323       7334       7333       7443       7444       7455       7454  
      7323       7324       7335       7334       7444       7445       7456       7455  
      7324       7325       7336       7335       7445       7446       7457       7456  
      7325       7326       7337       7336       7446       7447       7458       7457  
      7327       7328       7339       7338       7448       7449       7460       7459  
      7328       7329       7340       7339       7449       7450       7461       7460  
      7329       7330       7341       7340       7450       7451       7462       7461  
      7330       7331       7342       7341       7451       7452       7463       7462  
      7331       7332       7343       7342       7452       7453       7464       7463  
      7332       7333       7344       7343       7453       7454       7465       7464  
      7333       7334       7345       7344       7454       7455       7466       7465  
      7334       7335       7346       7345       7455       7456       7467       7466  
      7335       7336       7347       7346       7456       7457       7468       7467  
      7336       7337       7348       7347       7457       7458       7469       7468  
      7338       7339       7350       7349       7459       7460       7471       7470  
      7339       7340       7351       7350       7460       7461       7472       7471  
      7340       7341       7352       7351       7461       7462       7473       7472  
      7341       7342       7353       7352       7462       7463       7474       7473  
      7342       7343       7354       7353       7463       7464       7475       7474  
      7343       7344       7355       7354       7464       7465       7476       7475  
      7344       7345       7356       7355       7465       7466       7477       7476  
      7345       7346       7357       7356       7466       7467       7478       7477  
      7346       7347       7358       7357       7467       7468       7479       7478  
      7347       7348       7359       7358       7468       7469       7480       7479  
      7349       7350       7361       7360       7470       7471       7482       7481  
      7350       7351       7362       7361       7471       7472       7483       7482  
      7351       7352       7363       7362       7472       7473       7484       7483  
      7352       7353       7364       7363       7473       7474       7485       7484  
      7353       7354       7365       7364       7474       7475       7486       7485  
      7354       7355       7366       7365       7475       7476       7487       7486  
      7355       7356       7367       7366       7476       7477       7488       7487  
      7356       7357       7368       7367       7477       7478       7489       7488  
      7357       7358       7369       7368       7478       7479       7490       7489  
      7358       7359       7370       7369       7479       7480       7491       7490  
      7360       7361       7372       7371       7481       7482       7493       7492  
      7361       7362       7373       7372       7482       7483       7494       7493  
      7362       7363       7374       7373       7483       7484       7495       7494  
      7363       7364       7375       7374       7484       7485       7496       7495  
      7364       7365       7376       7375       7485       7486       7497       7496  
      7365       7366       7377       7376       7486       7487       7498       7497  
      7366       7367       7378       7377       7487       7488       7499       7498  
      7367       7368       7379       7378       7488       7489       7500       7499  
      7368       7369       7380       7379       7489       7490       7501       7500  
      7369       7370       7381       7380       7490       7491       7502       7501  
      7382       7383       7394       7393       7503       7504       7515       7514  
      7383       7384       7395       7394       7504       7505       7516       7515  
      7384       7385       7396       7395       7505       7506       7517       7516  
      7385       7386       7397       7396       7506       7507       7518       7517  
      7386       7387       7398       7397       7507       7508       7519       7518  
      7387       7388       7399       7398       7508       7509       7520       7519  
      7388       7389       7400       7399       7509       7510       7521       7520  
      7389       7390       7401       7400       7510       7511       7522       7521  
      7390       7391       7402       7401       7511       7512       7523       7522  
      7391       7392       7403       7402       7512       7513       7524       7523  
      7393       7394       7405       7404       7514       7515       7526       7525  
      7394       7395       7406       7405       7515       7516       7527       7526  
      7395       7396       7407       7406       7516       7517       7528       7527  
      7396       7397       7408       7407       7517       7518       7529       7528  
      7397       7398       7409       7408       7518       7519       7530       7529  
      7398       7399       7410       7409       7519       7520       7531       7530  
      7399       7400       7411       7410       7520       7521       7532       7531  
      7400       7401       7412       7411       7521       7522       7533       7532  
      7401       7402       7413       7412       7522       7523       7534       7533  
      7402       7403       7414       7413       7523       7524       7535       7534  
      7404       7405       7416       7415       7525       7526       7537       7536  
      7405       7406       7417       7416       7526       7527       7538       7537  
      7406       7407       7418       7417       7527       7528       7539       7538  
      7407       7408       7419       7418       7528       7529       7540       7539  
      7408       7409       7420       7419       7529       7530       7541       7540  
      7409       7410       7421       7420       7530       7531       7542       7541  
      7410       7411       7422       7421       7531       7532       7543       7542  
      7411       7412       7423       7422       7532       7533       7544       7543  
      7412       7413       7424       7423       7533       7534       7545       7544  
      7413       7414       7425       7424       7534       7535       7546       7545  
      7415       7416       7427       7426       7536       7537       7548       7547  
      7416       7417       7428       7427       7537       7538       7549       7548  
      7417       7418       7429       7428       7538       7539       7550       7549  
      7418       7419       7430       7429       7539       7540       7551       7550  
      7419       7420       7431       7430       7540       7541       7552       7551  
      7420       7421       7432       7431       7541       7542       7553       7552  
      7421       7422       7433       7432       7542       7543       7554       7553  
      7422       7423       7434       7433       7543       7544       7555       7554  
      7423       7424       7435       7434       7544       7545       7556       7555  
      7424       7425       7436       7435       7545       7546       7557       7556  
      7426       7427       7438       7437       7547       7548       7559       7558  
      7427       7428       7439       7438       7548       7549       7560       7559  
      7428       7429       7440       7439       7549       7550       7561       7560  
      7429       7430       7441       7440       7550       7551       7562       7561  
      7430       7431       7442       7441       7551       7552       7563       7562  
      7431       7432       7443       7442       7552       7553       7564       7563  
      7432       7433       7444       7443       7553       7554       7565       7564  
      7433       7434       7445       7444       7554       7555       7566       7565  
      7434       7435       7446       7445       7555       7556       7567       7566  
      7435       7436       7447       7446       7556       7557       7568       7567  
      7437       7438       7449       7448       7558       7559       7570       7569  
      7438       7439       7450       7449       7559       7560       7571       7570  
      7439       7440       7451       7450       7560       7561       7572       7571  
      7440       7441       7452       7451       7561       7562       7573       7572  
      7441       7442       7453       7452       7562       7563       7574       7573  
      7442       7443       7454       7453       7563       7564       7575       7574  
      7443       7444       7455       7454       7564       7565       7576       7575  
      7444       7445       7456       7455       7565       7566       7577       7576  
      7445       7446       7457       7456       7566       7567       7578       7577  
      7446       7447       7458       7457       7567       7568       7579       7578  
      7448       7449       7460       7459       7569       7570       7581       7580  
      7449       7450       7461       7460       7570       7571       7582       7581  
      7450       7451       7462       7461       7571       7572       7583       7582  
      7451       7452       7463       7462       7572       7573       7584       7583  
      7452       7453       7464       7463       7573       7574       7585       7584  
      7453       7454       7465       7464       7574       7575       7586       7585  
      7454       7455       7466       7465       7575       7576       7587       7586  
      7455       7456       7467       7466       7576       7577       7588       7587  
      7456       7457       7468       7467       7577       7578       7589       7588  
      7457       7458       7469       7468       7578       7579       7590       7589  
      7459       7460       7471       7470       7580       7581       7592       7591  
      7460       7461       7472       7471       7581       7582       7593       7592  
      7461       7462       7473       7472       7582       7583       7594       7593  
      7462       7463       7474       7473       7583       7584       7595       7594  
      7463       7464       7475       7474       7584       7585       7596       7595  
      7464       7465       7476       7475       7585       7586       7597       7596  
      7465       7466       7477       7476       7586       7587       7598       7597  
      7466       7467       7478       7477       7587       7588       7599       7598  
      7467       7468       7479       7478       7588       7589       7600       7599  
      7468       7469       7480       7479       7589       7590       7601       7600  
      7470       7471       7482       7481       7591       7592       7603       7602  
      7471       7472       7483       7482       7592       7593       7604       7603  
      7472       7473       7484       7483       7593       7594       7605       7604  
      7473       7474       7485       7484       7594       7595       7606       7605  
      7474       7475       7486       7485       7595       7596       7607       7606  
      7475       7476       7487       7486       7596       7597       7608       7607  
      7476       7477       7488       7487       7597       7598       7609       7608  
      7477       7478       7489       7488       7598       7599       7610       7609  
      7478       7479       7490       7489       7599       7600       7611       7610  
      7479       7480       7491       7490       7600       7601       7612       7611  
      7481       7482       7493       7492       7602       7603       7614       7613  
      7482       7483       7494       7493       7603       7604       7615       7614  
      7483       7484       7495       7494       7604       7605       7616       7615  
      7484       7485       7496       7495       7605       7606       7617       7616  
      7485       7486       7497       7496       7606       7607       7618       7617  
      7486       7487       7498       7497       7607       7608       7619       7618  
      7487       7488       7499       7498       7608       7609       7620       7619  
      7488       7489       7500       7499       7609       7610       7621       7620  
      7489       7490       7501       7500       7610       7611       7622       7621  
      7490       7491       7502       7501       7611       7612       7623       7622  
      7503       7504       7515       7514       7624       7625       7636       7635  
      7504       7505       7516       7515       7625       7626       7637       7636  
      7505       7506       7517       7516       7626       7627       7638       7637  
      7506       7507       7518       7517       7627       7628       7639       7638  
      7507       7508       7519       7518       7628       7629       7640       7639  
      7508       7509       7520       7519       7629       7630       7641       7640  
      7509       7510       7521       7520       7630       7631       7642       7641  
      7510       7511       7522       7521       7631       7632       7643       7642  
      7511       7512       7523       7522       7632       7633       7644       7643  
      7512       7513       7524       7523       7633       7634       7645       7644  
      7514       7515       7526       7525       7635       7636       7647       7646  
      7515       7516       7527       7526       7636       7637       7648       7647  
      7516       7517       7528       7527       7637       7638       7649       7648  
      7517       7518       7529       7528       7638       7639       7650       7649  
      7518       7519       7530       7529       7639       7640       7651       7650  
      7519       7520       7531       7530       7640       7641       7652       7651  
      7520       7521       7532       7531       7641       7642       7653       7652  
      7521       7522       7533       7532       7642       7643       7654       7653  
      7522       7523       7534       7533       7643       7644       7655       7654  
      7523       7524       7535       7534       7644       7645       7656       7655  
      7525       7526       7537       7536       7646       7647       7658       7657  
      7526       7527       7538       7537       7647       7648       7659       7658  
      7527       7528       7539       7538       7648       7649       7660       7659  
      7528       7529       7540       7539       7649       7650       7661       7660  
      7529       7530       7541       7540       7650       7651       7662       7661  
      7530       7531       7542       7541       7651       7652       7663       7662  
      7531       7532       7543       7542       7652       7653       7664       7663  
      7532       7533       7544       7543       7653       7654       7665       7664  
      7533       7534       7545       7544       7654       7655       7666       7665  
      7534       7535       7546       7545       7655       7656       7667       7666  
      7536       7537       7548       7547       7657       7658       7669       7668  
      7537       7538       7549       7548       7658       7659       7670       7669  
      7538       7539       7550       7549       7659       7660       7671       7670  
      7539       7540       7551       7550       7660       7661       7672       7671  
      7540       7541       7552       7551       7661       7662       7673       7672  
      7541       7542       7553       7552       7662       7663       7674       7673  
      7542       7543       7554       7553       7663       7664       7675       7674  
      7543       7544       7555       7554       7664       7665       7676       7675  
      7544       7545       7556       7555       7665       7666       7677       7676  
      7545       7546       7557       7556       7666       7667       7678       7677  
      7547       7548       7559       7558       7668       7669       7680       7679  
      7548       7549       7560       7559       7669       7670       7681       7680  
      7549       7550       7561       7560       7670       7671       7682       7681  
      7550       7551       7562       7561       7671       7672       7683       7682  
      7551       7552       7563       7562       7672       7673       7684       7683  
      7552       7553       7564       7563       7673       7674       7685       7684  
      7553       7554       7565       7564       7674       7675       7686       7685  
      7554       7555       7566       7565       7675       7676       7687       7686  
      7555       7556       7567       7566       7676       7677       7688       7687  
      7556       7557       7568       7567       7677       7678       7689       7688  
      7558       7559       7570       7569       7679       7680       7691       7690  
      7559       7560       7571       7570       7680       7681       7692       7691  
      7560       7561       7572       7571       7681       7682       7693       7692  
      7561       7562       7573       7572       7682       7683       7694       7693  
      7562       7563       7574       7573       7683       7684       7695       7694  
      7563       7564       7575       7574       7684       7685       7696       7695  
      7564       7565       7576       7575       7685       7686       7697       7696  
      7565       7566       7577       7576       7686       7687       7698       7697  
      7566       7567       7578       7577       7687       7688       7699       7698  
      7567       7568       7579       7578       7688       7689       7700       7699  
      7569       7570       7581       7580       7690       7691       7702       7701  
      7570       7571       7582       7581       7691       7692       7703       7702  
      7571       7572       7583       7582       7692       7693       7704       7703  
      7572       7573       7584       7583       7693       7694       7705       7704  
      7573       7574       7585       7584       7694       7695       7706       7705  
      7574       7575       7586       7585       7695       7696       7707       7706  
      7575       7576       7587       7586       7696       7697       7708       7707  
      7576       7577       7588       7587       7697       7698       7709       7708  
      7577       7578       7589       7588       7698       7699       7710       7709  
      7578       7579       7590       7589       7699       7700       7711       7710  
      7580       7581       7592       7591       7701       7702       7713       7712  
      7581       7582       7593       7592       7702       7703       7714       7713  
      7582       7583       7594       7593       7703       7704       7715       7714  
      7583       7584       7595       7594       7704       7705       7716       7715  
      7584       7585       7596       7595       7705       7706       7717       7716  
      7585       7586       7597       7596       7706       7707       7718       7717  
      7586       7587       7598       7597       7707       7708       7719       7718  
      7587       7588       7599       7598       7708       7709       7720       7719  
      7588       7589       7600       7599       7709       7710       7721       7720  
      7589       7590       7601       7600       7710       7711       7722       7721  
      7591       7592       7603       7602       7712       7713       7724       7723  
      7592       7593       7604       7603       7713       7714       7725       7724  
      7593       7594       7605       7604       7714       7715       7726       7725  
      7594       7595       7606       7605       7715       7716       7727       7726  
      7595       7596       7607       7606       7716       7717       7728       7727  
      7596       7597       7608       7607       7717       7718       7729       7728  
      7597       7598       7609       7608       7718       7719       7730       7729  
      7598       7599       7610       7609       7719       7720       7731       7730  
      7599       7600       7611       7610       7720       7721       7732       7731  
      7600       7601       7612       7611       7721       7722       7733       7732  
      7602       7603       7614       7613       7723       7724       7735       7734  
      7603       7604       7615       7614       7724       7725       7736       7735  
      7604       7605       7616       7615       7725       7726       7737       7736  
      7605       7606       7617       7616       7726       7727       7738       7737  
      7606       7607       7618       7617       7727       7728       7739       7738  
      7607       7608       7619       7618       7728       7729       7740       7739  
      7608       7609       7620       7619       7729       7730       7741       7740  
      7609       7610       7621       7620       7730       7731       7742       7741  
      7610       7611       7622       7621       7731       7732       7743       7742  
      7611       7612       7623       7622       7732       7733       7744       7743  
      7624       7625       7636       7635       7745       7746       7757       7756  
      7625       7626       7637       7636       7746       7747       7758       7757  
      7626       7627       7638       7637       7747       7748       7759       7758  
      7627       7628       7639       7638       7748       7749       7760       7759  
      7628       7629       7640       7639       7749       7750       7761       7760  
      7629       7630       7641       7640       7750       7751       7762       7761  
      7630       7631       7642       7641       7751       7752       7763       7762  
      7631       7632       7643       7642       7752       7753       7764       7763  
      7632       7633       7644       7643       7753       7754       7765       7764  
      7633       7634       7645       7644       7754       7755       7766       7765  
      7635       7636       7647       7646       7756       7757       7768       7767  
      7636       7637       7648       7647       7757       7758       7769       7768  
      7637       7638       7649       7648       7758       7759       7770       7769  
      7638       7639       7650       7649       7759       7760       7771       7770  
      7639       7640       7651       7650       7760       7761       7772       7771  
      7640       7641       7652       7651       7761       7762       7773       7772  
      7641       7642       7653       7652       7762       7763       7774       7773  
      7642       7643       7654       7653       7763       7764       7775       7774  
      7643       7644       7655       7654       7764       7765       7776       7775  
      7644       7645       7656       7655       7765       7766       7777       7776  
      7646       7647       7658       7657       7767       7768       7779       7778  
      7647       7648       7659       7658       7768       7769       7780       7779  
      7648       7649       7660       7659       7769       7770       7781       7780  
      7649       7650       7661       7660       7770       7771       7782       7781  
      7650       7651       7662       7661       7771       7772       7783       7782  
      7651       7652       7663       7662       7772       7773       7784       7783  
      7652       7653       7664       7663       7773       7774       7785       7784  
      7653       7654       7665       7664       7774       7775       7786       7785  
      7654       7655       7666       7665       7775       7776       7787       7786  
      7655       7656       7667       7666       7776       7777       7788       7787  
      7657       7658       7669       7668       7778       7779       7790       7789  
      7658       7659       7670       7669       7779       7780       7791       7790  
      7659       7660       7671       7670       7780       7781       7792       7791  
      7660       7661       7672       7671       7781       7782       7793       7792  
      7661       7662       7673       7672       7782       7783       7794       7793  
      7662       7663       7674       7673       7783       7784       7795       7794  
      7663       7664       7675       7674       7784       7785       7796       7795  
      7664       7665       7676       7675       7785       7786       7797       7796  
      7665       7666       7677       7676       7786       7787       7798       7797  
      7666       7667       7678       7677       7787       7788       7799       7798  
      7668       7669       7680       7679       7789       7790       7801       7800  
      7669       7670       7681       7680       7790       7791       7802       7801  
      7670       7671       7682       7681       7791       7792       7803       7802  
      7671       7672       7683       7682       7792       7793       7804       7803  
      7672       7673       7684       7683       7793       7794       7805       7804  
      7673       7674       7685       7684       7794       7795       7806       7805  
      7674       7675       7686       7685       7795       7796       7807       7806  
      7675       7676       7687       7686       7796       7797       7808       7807  
      7676       7677       7688       7687       7797       7798       7809       7808  
      7677       7678       7689       7688       7798       7799       7810       7809  
      7679       7680       7691       7690       7800       7801       7812       7811  
      7680       7681       7692       7691       7801       7802       7813       7812  
      7681       7682       7693       7692       7802       7803       7814       7813  
      7682       7683       7694       7693       7803       7804       7815       7814  
      7683       7684       7695       7694       7804       7805       7816       7815  
      7684       7685       7696       7695       7805       7806       7817       7816  
      7685       7686       7697       7696       7806       7807       7818       7817  
      7686       7687       7698       7697       7807       7808       7819       7818  
      7687       7688       7699       7698       7808       7809       7820       7819  
      7688       7689       7700       7699       7809       7810       7821       7820  
      7690       7691       7702       7701       7811       7812       7823       7822  
      7691       7692       7703       7702       7812       7813       7824       7823  
      7692       7693       7704       7703       7813       7814       7825       7824  
      7693       7694       7705       7704       7814       7815       7826       7825  
      7694       7695       7706       7705       7815       7816       7827       7826  
      7695       7696       7707       7706       7816       7817       7828       7827  
      7696       7697       7708       7707       7817       7818       7829       7828  
      7697       7698       7709       7708       7818       7819       7830       7829  
      7698       7699       7710       7709       7819       7820       7831       7830  
      7699       7700       7711       7710       7820       7821       7832       7831  
      7701       7702       7713       7712       7822       7823       7834       7833  
      7702       7703       7714       7713       7823       7824       7835       7834  
      7703       7704       7715       7714       7824       7825       7836       7835  
      7704       7705       7716       7715       7825       7826       7837       7836  
      7705       7706       7717       7716       7826       7827       7838       7837  
      7706       7707       7718       7717       7827       7828       7839       7838  
      7707       7708       7719       7718       7828       7829       7840       7839  
      7708       7709       7720       7719       7829       7830       7841       7840  
      7709       7710       7721       7720       7830       7831       7842       7841  
      7710       7711       7722       7721       7831       7832       7843       7842  
      7712       7713       7724       7723       7833       7834       7845       7844  
      7713       7714       7725       7724       7834       7835       7846       7845  
      7714       7715       7726       7725       7835       7836       7847       7846  
      7715       7716       7727       7726       7836       7837       7848       7847  
      7716       7717       7728       7727       7837       7838       7849       7848  
      7717       7718       7729       7728       7838       7839       7850       7849  
      7718       7719       7730       7729       7839       7840       7851       7850  
      7719       7720       7731       7730       7840       7841       7852       7851  
      7720       7721       7732       7731       7841       7842       7853       7852  
      7721       7722       7733       7732       7842       7843       7854       7853  
      7723       7724       7735       7734       7844       7845       7856       7855  
      7724       7725       7736       7735       7845       7846       7857       7856  
      7725       7726       7737       7736       7846       7847       7858       7857  
      7726       7727       7738       7737       7847       7848       7859       7858  
      7727       7728       7739       7738       7848       7849       7860       7859  
      7728       7729       7740       7739       7849       7850       7861       7860  
      7729       7730       7741       7740       7850       7851       7862       7861  
      7730       7731       7742       7741       7851       7852       7863       7862  
      7731       7732       7743       7742       7852       7853       7864       7863  
      7732       7733       7744       7743       7853       7854       7865       7864  
      7745       7746       7757       7756       7866       7867       7878       7877  
      7746       7747       7758       7757       7867       7868       7879       7878  
      7747       7748       7759       7758       7868       7869       7880       7879  
      7748       7749       7760       7759       7869       7870       7881       7880  
      7749       7750       7761       7760       7870       7871       7882       7881  
      7750       7751       7762       7761       7871       7872       7883       7882  
      7751       7752       7763       7762       7872       7873       7884       7883  
      7752       7753       7764       7763       7873       7874       7885       7884  
      7753       7754       7765       7764       7874       7875       7886       7885  
      7754       7755       7766       7765       7875       7876       7887       7886  
      7756       7757       7768       7767       7877       7878       7889       7888  
      7757       7758       7769       7768       7878       7879       7890       7889  
      7758       7759       7770       7769       7879       7880       7891       7890  
      7759       7760       7771       7770       7880       7881       7892       7891  
      7760       7761       7772       7771       7881       7882       7893       7892  
      7761       7762       7773       7772       7882       7883       7894       7893  
      7762       7763       7774       7773       7883       7884       7895       7894  
      7763       7764       7775       7774       7884       7885       7896       7895  
      7764       7765       7776       7775       7885       7886       7897       7896  
      7765       7766       7777       7776       7886       7887       7898       7897  
      7767       7768       7779       7778       7888       7889       7900       7899  
      7768       7769       7780       7779       7889       7890       7901       7900  
      7769       7770       7781       7780       7890       7891       7902       7901  
      7770       7771       7782       7781       7891       7892       7903       7902  
      7771       7772       7783       7782       7892       7893       7904       7903  
      7772       7773       7784       7783       7893       7894       7905       7904  
      7773       7774       7785       7784       7894       7895       7906       7905  
      7774       7775       7786       7785       7895       7896       7907       7906  
      7775       7776       7787       7786       7896       7897       7908       7907  
      7776       7777       7788       7787       7897       7898       7909       7908  
      7778       7779       7790       7789       7899       7900       7911       7910  
      7779       7780       7791       7790       7900       7901       7912       7911  
      7780       7781       7792       7791       7901       7902       7913       7912  
      7781       7782       7793       7792       7902       7903       7914       7913  
      7782       7783       7794       7793       7903       7904       7915       7914  
      7783       7784       7795       7794       7904       7905       7916       7915  
      7784       7785       7796       7795       7905       7906       7917       7916  
      7785       7786       7797       7796       7906       7907       7918       7917  
      7786       7787       7798       7797       7907       7908       7919       7918  
      7787       7788       7799       7798       7908       7909       7920       7919  
      7789       7790       7801       7800       7910       7911       7922       7921  
      7790       7791       7802       7801       7911       7912       7923       7922  
      7791       7792       7803       7802       7912       7913       7924       7923  
      7792       7793       7804       7803       7913       7914       7925       7924  
      7793       7794       7805       7804       7914       7915       7926       7925  
      7794       7795       7806       7805       7915       7916       7927       7926  
      7795       7796       7807       7806       7916       7917       7928       7927  
      7796       7797       7808       7807       7917       7918       7929       7928  
      7797       7798       7809       7808       7918       7919       7930       7929  
      7798       7799       7810       7809       7919       7920       7931       7930  
      7800       7801       7812       7811       7921       7922       7933       7932  
      7801       7802       7813       7812       7922       7923       7934       7933  
      7802       7803       7814       7813       7923       7924       7935       7934  
      7803       7804       7815       7814       7924       7925       7936       7935  
      7804       7805       7816       7815       7925       7926       7937       7936  
      7805       7806       7817       7816       7926       7927       7938       7937  
      7806       7807       7818       7817       7927       7928       7939       7938  
      7807       7808       7819       7818       7928       7929       7940       7939  
      7808       7809       7820       7819       7929       7930       7941       7940  
      7809       7810       7821       7820       7930       7931       7942       7941  
      7811       7812       7823       7822       7932       7933       7944       7943  
      7812       7813       7824       7823       7933       7934       7945       7944  
      7813       7814       7825       7824       7934       7935       7946       7945  
      7814       7815       7826       7825       7935       7936       7947       7946  
      7815       7816       7827       7826       7936       7937       7948       7947  
      7816       7817       7828       7827       7937       7938       7949       7948  
      7817       7818       7829       7828       7938       7939       7950       7949  
      7818       7819       7830       7829       7939       7940       7951       7950  
      7819       7820       7831       7830       7940       7941       7952       7951  
      7820       7821       7832       7831       7941       7942       7953       7952  
      7822       7823       7834       7833       7943       7944       7955       7954  
      7823       7824       7835       7834       7944       7945       7956       7955  
      7824       7825       7836       7835       7945       7946       7957       7956  
      7825       7826       7837       7836       7946       7947       7958       7957  
      7826       7827       7838       7837       7947       7948       7959       7958  
      7827       7828       7839       7838       7948       7949       7960       7959  
      7828       7829       7840       7839       7949       7950       7961       7960  
      7829       7830       7841       7840       7950       7951       7962       7961  
      7830       7831       7842       7841       7951       7952       7963       7962  
      7831       7832       7843       7842       7952       7953       7964       7963  
      7833       7834       7845       7844       7954       7955       7966       7965  
      7834       7835       7846       7845       7955       7956       7967       7966  
      7835       7836       7847       7846       7956       7957       7968       7967  
      7836       7837       7848       7847       7957       7958       7969       7968  
      7837       7838       7849       7848       7958       7959       7970       7969  
      7838       7839       7850       7849       7959       7960       7971       7970  
      7839       7840       7851       7850       7960       7961       7972       7971  
      7840       7841       7852       7851       7961       7962       7973       7972  
      7841       7842       7853       7852       7962       7963       7974       7973  
      7842       7843       7854       7853       7963       7964       7975       7974  
      7844       7845       7856       7855       7965       7966       7977       7976  
      7845       7846       7857       7856       7966       7967       7978       7977  
      7846       7847       7858       7857       7967       7968       7979       7978  
      7847       7848       7859       7858       7968       7969       7980       7979  
      7848       7849       7860       7859       7969       7970       7981       7980  
      7849       7850       7861       7860       7970       7971       7982       7981  
      7850       7851       7862       7861       7971       7972       7983       7982  
      7851       7852       7863       7862       7972       7973       7984       7983  
      7852       7853       7864       7863       7973       7974       7985       7984  
      7853       7854       7865       7864       7974       7975       7986       7985  
      7866       7867       7878       7877       7987       7988       7999       7998  
      7867       7868       7879       7878       7988       7989       8000       7999  
      7868       7869       7880       7879       7989       7990       8001       8000  
      7869       7870       7881       7880       7990       7991       8002       8001  
      7870       7871       7882       7881       7991       7992       8003       8002  
      7871       7872       7883       7882       7992       7993       8004       8003  
      7872       7873       7884       7883       7993       7994       8005       8004  
      7873       7874       7885       7884       7994       7995       8006       8005  
      7874       7875       7886       7885       7995       7996       8007       8006  
      7875       7876       7887       7886       7996       7997       8008       8007  
      7877       7878       7889       7888       7998       7999       8010       8009  
      7878       7879       7890       7889       7999       8000       8011       8010  
      7879       7880       7891       7890       8000       8001       8012       8011  
      7880       7881       7892       7891       8001       8002       8013       8012  
      7881       7882       7893       7892       8002       8003       8014       8013  
      7882       7883       7894       7893       8003       8004       8015       8014  
      7883       7884       7895       7894       8004       8005       8016       8015  
      7884       7885       7896       7895       8005       8006       8017       8016  
      7885       7886       7897       7896       8006       8007       8018       8017  
      7886       7887       7898       7897       8007       8008       8019       8018  
      7888       7889       7900       7899       8009       8010       8021       8020  
      7889       7890       7901       7900       8010       8011       8022       8021  
      7890       7891       7902       7901       8011       8012       8023       8022  
      7891       7892       7903       7902       8012       8013       8024       8023  
      7892       7893       7904       7903       8013       8014       8025       8024  
      7893       7894       7905       7904       8014       8015       8026       8025  
      7894       7895       7906       7905       8015       8016       8027       8026  
      7895       7896       7907       7906       8016       8017       8028       8027  
      7896       7897       7908       7907       8017       8018       8029       8028  
      7897       7898       7909       7908       8018       8019       8030       8029  
      7899       7900       7911       7910       8020       8021       8032       8031  
      7900       7901       7912       7911       8021       8022       8033       8032  
      7901       7902       7913       7912       8022       8023       8034       8033  
      7902       7903       7914       7913       8023       8024       8035       8034  
      7903       7904       7915       7914       8024       8025       8036       8035  
      7904       7905       7916       7915       8025       8026       8037       8036  
      7905       7906       7917       7916       8026       8027       8038       8037  
      7906       7907       7918       7917       8027       8028       8039       8038  
      7907       7908       7919       7918       8028       8029       8040       8039  
      7908       7909       7920       7919       8029       8030       8041       8040  
      7910       7911       7922       7921       8031       8032       8043       8042  
      7911       7912       7923       7922       8032       8033       8044       8043  
      7912       7913       7924       7923       8033       8034       8045       8044  
      7913       7914       7925       7924       8034       8035       8046       8045  
      7914       7915       7926       7925       8035       8036       8047       8046  
      7915       7916       7927       7926       8036       8037       8048       8047  
      7916       7917       7928       7927       8037       8038       8049       8048  
      7917       7918       7929       7928       8038       8039       8050       8049  
      7918       7919       7930       7929       8039       8040       8051       8050  
      7919       7920       7931       7930       8040       8041       8052       8051  
      7921       7922       7933       7932       8042       8043       8054       8053  
      7922       7923       7934       7933       8043       8044       8055       8054  
      7923       7924       7935       7934       8044       8045       8056       8055  
      7924       7925       7936       7935       8045       8046       8057       8056  
      7925       7926       7937       7936       8046       8047       8058       8057  
      7926       7927       7938       7937       8047       8048       8059       8058  
      7927       7928       7939       7938       8048       8049       8060       8059  
      7928       7929       7940       7939       8049       8050       8061       8060  
      7929       7930       7941       7940       8050       8051       8062       8061  
      7930       7931       7942       7941       8051       8052       8063       8062  
      7932       7933       7944       7943       8053       8054       8065       8064  
      7933       7934       7945       7944       8054       8055       8066       8065  
      7934       7935       7946       7945       8055       8056       8067       8066  
      7935       7936       7947       7946       8056       8057       8068       8067  
      7936       7937       7948       7947       8057       8058       8069       8068  
      7937       7938       7949       7948       8058       8059       8070       8069  
      7938       7939       7950       7949       8059       8060       8071       8070  
      7939       7940       7951       7950       8060       8061       8072       8071  
      7940       7941       7952       7951       8061       8062       8073       8072  
      7941       7942       7953       7952       8062       8063       8074       8073  
      7943       7944       7955       7954       8064       8065       8076       8075  
      7944       7945       7956       7955       8065       8066       8077       8076  
      7945       7946       7957       7956       8066       8067       8078       8077  
      7946       7947       7958       7957       8067       8068       8079       8078  
      7947       7948       7959       7958       8068       8069       8080       8079  
      7948       7949       7960       7959       8069       8070       8081       8080  
      7949       7950       7961       7960       8070       8071       8082       8081  
      7950       7951       7962       7961       8071       8072       8083       8082  
      7951       7952       7963       7962       8072       8073       8084       8083  
      7952       7953       7964       7963       8073       8074       8085       8084  
      7954       7955       7966       7965       8075       8076       8087       8086  
      7955       7956       7967       7966       8076       8077       8088       8087  
      7956       7957       7968       7967       8077       8078       8089       8088  
      7957       7958       7969       7968       8078       8079       8090       8089  
      7958       7959       7970       7969       8079       8080       8091       8090  
      7959       7960       7971       7970       8080       8081       8092       8091  
      7960       7961       7972       7971       8081       8082       8093       8092  
      7961       7962       7973       7972       8082       8083       8094       8093  
      7962       7963       7974       7973       8083       8084       8095       8094  
      7963       7964       7975       7974       8084       8085       8096       8095  
      7965       7966       7977       7976       8086       8087       8098       8097  
      7966       7967       7978       7977       8087       8088       8099       8098  
      7967       7968       7979       7978       8088       8089       8100       8099  
      7968       7969       7980       7979       8089       8090       8101       8100  
      7969       7970       7981       7980       8090       8091       8102       8101  
      7970       7971       7982       7981       8091       8092       8103       8102  
      7971       7972       7983       7982       8092       8093       8104       8103  
      7972       7973       7984       7983       8093       8094       8105       8104  
      7973       7974       7985       7984       8094       8095       8106       8105  
      7974       7975       7986       7985       8095       8096       8107       8106  
      7987       7988       7999       7998       8108       8109       8120       8119  
      7988       7989       8000       7999       8109       8110       8121       8120  
      7989       7990       8001       8000       8110       8111       8122       8121  
      7990       7991       8002       8001       8111       8112       8123       8122  
      7991       7992       8003       8002       8112       8113       8124       8123  
      7992       7993       8004       8003       8113       8114       8125       8124  
      7993       7994       8005       8004       8114       8115       8126       8125  
      7994       7995       8006       8005       8115       8116       8127       8126  
      7995       7996       8007       8006       8116       8117       8128       8127  
      7996       7997       8008       8007       8117       8118       8129       8128  
      7998       7999       8010       8009       8119       8120       8131       8130  
      7999       8000       8011       8010       8120       8121       8132       8131  
      8000       8001       8012       8011       8121       8122       8133       8132  
      8001       8002       8013       8012       8122       8123       8134       8133  
      8002       8003       8014       8013       8123       8124       8135       8134  
      8003       8004       8015       8014       8124       8125       8136       8135  
      8004       8005       8016       8015       8125       8126       8137       8136  
      8005       8006       8017       8016       8126       8127       8138       8137  
      8006       8007       8018       8017       8127       8128       8139       8138  
      8007       8008       8019       8018       8128       8129       8140       8139  
      8009       8010       8021       8020       8130       8131       8142       8141  
      8010       8011       8022       8021       8131       8132       8143       8142  
      8011       8012       8023       8022       8132       8133       8144       8143  
      8012       8013       8024       8023       8133       8134       8145       8144  
      8013       8014       8025       8024       8134       8135       8146       8145  
      8014       8015       8026       8025       8135       8136       8147       8146  
      8015       8016       8027       8026       8136       8137       8148       8147  
      8016       8017       8028       8027       8137       8138       8149       8148  
      8017       8018       8029       8028       8138       8139       8150       8149  
      8018       8019       8030       8029       8139       8140       8151       8150  
      8020       8021       8032       8031       8141       8142       8153       8152  
      8021       8022       8033       8032       8142       8143       8154       8153  
      8022       8023       8034       8033       8143       8144       8155       8154  
      8023       8024       8035       8034       8144       8145       8156       8155  
      8024       8025       8036       8035       8145       8146       8157       8156  
      8025       8026       8037       8036       8146       8147       8158       8157  
      8026       8027       8038       8037       8147       8148       8159       8158  
      8027       8028       8039       8038       8148       8149       8160       8159  
      8028       8029       8040       8039       8149       8150       8161       8160  
      8029       8030       8041       8040       8150       8151       8162       8161  
      8031       8032       8043       8042       8152       8153       8164       8163  
      8032       8033       8044       8043       8153       8154       8165       8164  
      8033       8034       8045       8044       8154       8155       8166       8165  
      8034       8035       8046       8045       8155       8156       8167       8166  
      8035       8036       8047       8046       8156       8157       8168       8167  
      8036       8037       8048       8047       8157       8158       8169       8168  
      8037       8038       8049       8048       8158       8159       8170       8169  
      8038       8039       8050       8049       8159       8160       8171       8170  
      8039       8040       8051       8050       8160       8161       8172       8171  
      8040       8041       8052       8051       8161       8162       8173       8172  
      8042       8043       8054       8053       8163       8164       8175       8174  
      8043       8044       8055       8054       8164       8165       8176       8175  
      8044       8045       8056       8055       8165       8166       8177       8176  
      8045       8046       8057       8056       8166       8167       8178       8177  
      8046       8047       8058       8057       8167       8168       8179       8178  
      8047       8048       8059       8058       8168       8169       8180       8179  
      8048       8049       8060       8059       8169       8170       8181       8180  
      8049       8050       8061       8060       8170       8171       8182       8181  
      8050       8051       8062       8061       8171       8172       8183       8182  
      8051       8052       8063       8062       8172       8173       8184       8183  
      8053       8054       8065       8064       8174       8175       8186       8185  
      8054       8055       8066       8065       8175       8176       8187       8186  
      8055       8056       8067       8066       8176       8177       8188       8187  
      8056       8057       8068       8067       8177       8178       8189       8188  
      8057       8058       8069       8068       8178       8179       8190       8189  
      8058       8059       8070       8069       8179       8180       8191       8190  
      8059       8060       8071       8070       8180       8181       8192       8191  
      8060       8061       8072       8071       8181       8182       8193       8192  
      8061       8062       8073       8072       8182       8183       8194       8193  
      8062       8063       8074       8073       8183       8184       8195       8194  
      8064       8065       8076       8075       8185       8186       8197       8196  
      8065       8066       8077       8076       8186       8187       8198       8197  
      8066       8067       8078       8077       8187       8188       8199       8198  
      8067       8068       8079       8078       8188       8189       8200       8199  
      8068       8069       8080       8079       8189       8190       8201       8200  
      8069       8070       8081       8080       8190       8191       8202       8201  
      8070       8071       8082       8081       8191       8192       8203       8202  
      8071       8072       8083       8082       8192       8193       8204       8203  
      8072       8073       8084       8083       8193       8194       8205       8204  
      8073       8074       8085       8084       8194       8195       8206       8205  
      8075       8076       8087       8086       8196       8197       8208       8207  
      8076       8077       8088       8087       8197       8198       8209       8208  
      8077       8078       8089       8088       8198       8199       8210       8209  
      8078       8079       8090       8089       8199       8200       8211       8210  
      8079       8080       8091       8090       8200       8201       8212       8211  
      8080       8081       8092       8091       8201       8202       8213       8212  
      8081       8082       8093       8092       8202       8203       8214       8213  
      8082       8083       8094       8093       8203       8204       8215       8214  
      8083       8084       8095       8094       8204       8205       8216       8215  
      8084       8085       8096       8095       8205       8206       8217       8216  
      8086       8087       8098       8097       8207       8208       8219       8218  
      8087       8088       8099       8098       8208       8209       8220       8219  
      8088       8089       8100       8099       8209       8210       8221       8220  
      8089       8090       8101       8100       8210       8211       8222       8221  
      8090       8091       8102       8101       8211       8212       8223       8222  
      8091       8092       8103       8102       8212       8213       8224       8223  
      8092       8093       8104       8103       8213       8214       8225       8224  
      8093       8094       8105       8104       8214       8215       8226       8225  
      8094       8095       8106       8105       8215       8216       8227       8226  
      8095       8096       8107       8106       8216       8217       8228       8227  
      8108       8109       8120       8119       8229       8230       8241       8240  
      8109       8110       8121       8120       8230       8231       8242       8241  
      8110       8111       8122       8121       8231       8232       8243       8242  
      8111       8112       8123       8122       8232       8233       8244       8243  
      8112       8113       8124       8123       8233       8234       8245       8244  
      8113       8114       8125       8124       8234       8235       8246       8245  
      8114       8115       8126       8125       8235       8236       8247       8246  
      8115       8116       8127       8126       8236       8237       8248       8247  
      8116       8117       8128       8127       8237       8238       8249       8248  
      8117       8118       8129       8128       8238       8239       8250       8249  
      8119       8120       8131       8130       8240       8241       8252       8251  
      8120       8121       8132       8131       8241       8242       8253       8252  
      8121       8122       8133       8132       8242       8243       8254       8253  
      8122       8123       8134       8133       8243       8244       8255       8254  
      8123       8124       8135       8134       8244       8245       8256       8255  
      8124       8125       8136       8135       8245       8246       8257       8256  
      8125       8126       8137       8136       8246       8247       8258       8257  
      8126       8127       8138       8137       8247       8248       8259       8258  
      8127       8128       8139       8138       8248       8249       8260       8259  
      8128       8129       8140       8139       8249       8250       8261       8260  
      8130       8131       8142       8141       8251       8252       8263       8262  
      8131       8132       8143       8142       8252       8253       8264       8263  
      8132       8133       8144       8143       8253       8254       8265       8264  
      8133       8134       8145       8144       8254       8255       8266       8265  
      8134       8135       8146       8145       8255       8256       8267       8266  
      8135       8136       8147       8146       8256       8257       8268       8267  
      8136       8137       8148       8147       8257       8258       8269       8268  
      8137       8138       8149       8148       8258       8259       8270       8269  
      8138       8139       8150       8149       8259       8260       8271       8270  
      8139       8140       8151       8150       8260       8261       8272       8271  
      8141       8142       8153       8152       8262       8263       8274       8273  
      8142       8143       8154       8153       8263       8264       8275       8274  
      8143       8144       8155       8154       8264       8265       8276       8275  
      8144       8145       8156       8155       8265       8266       8277       8276  
      8145       8146       8157       8156       8266       8267       8278       8277  
      8146       8147       8158       8157       8267       8268       8279       8278  
      8147       8148       8159       8158       8268       8269       8280       8279  
      8148       8149       8160       8159       8269       8270       8281       8280  
      8149       8150       8161       8160       8270       8271       8282       8281  
      8150       8151       8162       8161       8271       8272       8283       8282  
      8152       8153       8164       8163       8273       8274       8285       8284  
      8153       8154       8165       8164       8274       8275       8286       8285  
      8154       8155       8166       8165       8275       8276       8287       8286  
      8155       8156       8167       8166       8276       8277       8288       8287  
      8156       8157       8168       8167       8277       8278       8289       8288  
      8157       8158       8169       8168       8278       8279       8290       8289  
      8158       8159       8170       8169       8279       8280       8291       8290  
      8159       8160       8171       8170       8280       8281       8292       8291  
      8160       8161       8172       8171       8281       8282       8293       8292  
      8161       8162       8173       8172       8282       8283       8294       8293  
      8163       8164       8175       8174       8284       8285       8296       8295  
      8164       8165       8176       8175       8285       8286       8297       8296  
      8165       8166       8177       8176       8286       8287       8298       8297  
      8166       8167       8178       8177       8287       8288       8299       8298  
      8167       8168       8179       8178       8288       8289       8300       8299  
      8168       8169       8180       8179       8289       8290       8301       8300  
      8169       8170       8181       8180       8290       8291       8302       8301  
      8170       8171       8182       8181       8291       8292       8303       8302  
      8171       8172       8183       8182       8292       8293       8304       8303  
      8172       8173       8184       8183       8293       8294       8305       8304  
      8174       8175       8186       8185       8295       8296       8307       8306  
      8175       8176       8187       8186       8296       8297       8308       8307  
      8176       8177       8188       8187       8297       8298       8309       8308  
      8177       8178       8189       8188       8298       8299       8310       8309  
      8178       8179       8190       8189       8299       8300       8311       8310  
      8179       8180       8191       8190       8300       8301       8312       8311  
      8180       8181       8192       8191       8301       8302       8313       8312  
      8181       8182       8193       8192       8302       8303       8314       8313  
      8182       8183       8194       8193       8303       8304       8315       8314  
      8183       8184       8195       8194       8304       8305       8316       8315  
      8185       8186       8197       8196       8306       8307       8318       8317  
      8186       8187       8198       8197       8307       8308       8319       8318  
      8187       8188       8199       8198       8308       8309       8320       8319  
      8188       8189       8200       8199       8309       8310       8321       8320  
      8189       8190       8201       8200       8310       8311       8322       8321  
      8190       8191       8202       8201       8311       8312       8323       8322  
      8191       8192       8203       8202       8312       8313       8324       8323  
      8192       8193       8204       8203       8313       8314       8325       8324  
      8193       8194       8205       8204       8314       8315       8326       8325  
      8194       8195       8206       8205       8315       8316       8327       8326  
      8196       8197       8208       8207       8317       8318       8329       8328  
      8197       8198       8209       8208       8318       8319       8330       8329  
      8198       8199       8210       8209       8319       8320       8331       8330  
      8199       8200       8211       8210       8320       8321       8332       8331  
      8200       8201       8212       8211       8321       8322       8333       8332  
      8201       8202       8213       8212       8322       8323       8334       8333  
      8202       8203       8214       8213       8323       8324       8335       8334  
      8203       8204       8215       8214       8324       8325       8336       8335  
      8204       8205       8216       8215       8325       8326       8337       8336  
      8205       8206       8217       8216       8326       8327       8338       8337  
      8207       8208       8219       8218       8328       8329       8340       8339  
      8208       8209       8220       8219       8329       8330       8341       8340  
      8209       8210       8221       8220       8330       8331       8342       8341  
      8210       8211       8222       8221       8331       8332       8343       8342  
      8211       8212       8223       8222       8332       8333       8344       8343  
      8212       8213       8224       8223       8333       8334       8345       8344  
      8213       8214       8225       8224       8334       8335       8346       8345  
      8214       8215       8226       8225       8335       8336       8347       8346  
      8215       8216       8227       8226       8336       8337       8348       8347  
      8216       8217       8228       8227       8337       8338       8349       8348  
      8229       8230       8241       8240       8350       8351       8362       8361  
      8230       8231       8242       8241       8351       8352       8363       8362  
      8231       8232       8243       8242       8352       8353       8364       8363  
      8232       8233       8244       8243       8353       8354       8365       8364  
      8233       8234       8245       8244       8354       8355       8366       8365  
      8234       8235       8246       8245       8355       8356       8367       8366  
      8235       8236       8247       8246       8356       8357       8368       8367  
      8236       8237       8248       8247       8357       8358       8369       8368  
      8237       8238       8249       8248       8358       8359       8370       8369  
      8238       8239       8250       8249       8359       8360       8371       8370  
      8240       8241       8252       8251       8361       8362       8373       8372  
      8241       8242       8253       8252       8362       8363       8374       8373  
      8242       8243       8254       8253       8363       8364       8375       8374  
      8243       8244       8255       8254       8364       8365       8376       8375  
      8244       8245       8256       8255       8365       8366       8377       8376  
      8245       8246       8257       8256       8366       8367       8378       8377  
      8246       8247       8258       8257       8367       8368       8379       8378  
      8247       8248       8259       8258       8368       8369       8380       8379  
      8248       8249       8260       8259       8369       8370       8381       8380  
      8249       8250       8261       8260       8370       8371       8382       8381  
      8251       8252       8263       8262       8372       8373       8384       8383  
      8252       8253       8264       8263       8373       8374       8385       8384  
      8253       8254       8265       8264       8374       8375       8386       8385  
      8254       8255       8266       8265       8375       8376       8387       8386  
      8255       8256       8267       8266       8376       8377       8388       8387  
      8256       8257       8268       8267       8377       8378       8389       8388  
      8257       8258       8269       8268       8378       8379       8390       8389  
      8258       8259       8270       8269       8379       8380       8391       8390  
      8259       8260       8271       8270       8380       8381       8392       8391  
      8260       8261       8272       8271       8381       8382       8393       8392  
      8262       8263       8274       8273       8383       8384       8395       8394  
      8263       8264       8275       8274       8384       8385       8396       8395  
      8264       8265       8276       8275       8385       8386       8397       8396  
      8265       8266       8277       8276       8386       8387       8398       8397  
      8266       8267       8278       8277       8387       8388       8399       8398  
      8267       8268       8279       8278       8388       8389       8400       8399  
      8268       8269       8280       8279       8389       8390       8401       8400  
      8269       8270       8281       8280       8390       8391       8402       8401  
      8270       8271       8282       8281       8391       8392       8403       8402  
      8271       8272       8283       8282       8392       8393       8404       8403  
      8273       8274       8285       8284       8394       8395       8406       8405  
      8274       8275       8286       8285       8395       8396       8407       8406  
      8275       8276       8287       8286       8396       8397       8408       8407  
      8276       8277       8288       8287       8397       8398       8409       8408  
      8277       8278       8289       8288       8398       8399       8410       8409  
      8278       8279       8290       8289       8399       8400       8411       8410  
      8279       8280       8291       8290       8400       8401       8412       8411  
      8280       8281       8292       8291       8401       8402       8413       8412  
      8281       8282       8293       8292       8402       8403       8414       8413  
      8282       8283       8294       8293       8403       8404       8415       8414  
      8284       8285       8296       8295       8405       8406       8417       8416  
      8285       8286       8297       8296       8406       8407       8418       8417  
      8286       8287       8298       8297       8407       8408       8419       8418  
      8287       8288       8299       8298       8408       8409       8420       8419  
      8288       8289       8300       8299       8409       8410       8421       8420  
      8289       8290       8301       8300       8410       8411       8422       8421  
      8290       8291       8302       8301       8411       8412       8423       8422  
      8291       8292       8303       8302       8412       8413       8424       8423  
      8292       8293       8304       8303       8413       8414       8425       8424  
      8293       8294       8305       8304       8414       8415       8426       8425  
      8295       8296       8307       8306       8416       8417       8428       8427  
      8296       8297       8308       8307       8417       8418       8429       8428  
      8297       8298       8309       8308       8418       8419       8430       8429  
      8298       8299       8310       8309       8419       8420       8431       8430  
      8299       8300       8311       8310       8420       8421       8432       8431  
      8300       8301       8312       8311       8421       8422       8433       8432  
      8301       8302       8313       8312       8422       8423       8434       8433  
      8302       8303       8314       8313       8423       8424       8435       8434  
      8303       8304       8315       8314       8424       8425       8436       8435  
      8304       8305       8316       8315       8425       8426       8437       8436  
      8306       8307       8318       8317       8427       8428       8439       8438  
      8307       8308       8319       8318       8428       8429       8440       8439  
      8308       8309       8320       8319       8429       8430       8441       8440  
      8309       8310       8321       8320       8430       8431       8442       8441  
      8310       8311       8322       8321       8431       8432       8443       8442  
      8311       8312       8323       8322       8432       8433       8444       8443  
      8312       8313       8324       8323       8433       8434       8445       8444  
      8313       8314       8325       8324       8434       8435       8446       8445  
      8314       8315       8326       8325       8435       8436       8447       8446  
      8315       8316       8327       8326       8436       8437       8448       8447  
      8317       8318       8329       8328       8438       8439       8450       8449  
      8318       8319       8330       8329       8439       8440       8451       8450  
      8319       8320       8331       8330       8440       8441       8452       8451  
      8320       8321       8332       8331       8441       8442       8453       8452  
      8321       8322       8333       8332       8442       8443       8454       8453  
      8322       8323       8334       8333       8443       8444       8455       8454  
      8323       8324       8335       8334       8444       8445       8456       8455  
      8324       8325       8336       8335       8445       8446       8457       8456  
      8325       8326       8337       8336       8446       8447       8458       8457  
      8326       8327       8338       8337       8447       8448       8459       8458  
      8328       8329       8340       8339       8449       8450       8461       8460  
      8329       8330       8341       8340       8450       8451       8462       8461  
      8330       8331       8342       8341       8451       8452       8463       8462  
      8331       8332       8343       8342       8452       8453       8464       8463  
      8332       8333       8344       8343       8453       8454       8465       8464  
      8333       8334       8345       8344       8454       8455       8466       8465  
      8334       8335       8346       8345       8455       8456       8467       8466  
      8335       8336       8347       8346       8456       8457       8468       8467  
      8336       8337       8348       8347       8457       8458       8469       8468  
      8337       8338       8349       8348       8458       8459       8470       8469  
      8350       8351       8362       8361       8471       8472       8483       8482  
      8351       8352       8363       8362       8472       8473       8484       8483  
      8352       8353       8364       8363       8473       8474       8485       8484  
      8353       8354       8365       8364       8474       8475       8486       8485  
      8354       8355       8366       8365       8475       8476       8487       8486  
      8355       8356       8367       8366       8476       8477       8488       8487  
      8356       8357       8368       8367       8477       8478       8489       8488  
      8357       8358       8369       8368       8478       8479       8490       8489  
      8358       8359       8370       8369       8479       8480       8491       8490  
      8359       8360       8371       8370       8480       8481       8492       8491  
      8361       8362       8373       8372       8482       8483       8494       8493  
      8362       8363       8374       8373       8483       8484       8495       8494  
      8363       8364       8375       8374       8484       8485       8496       8495  
      8364       8365       8376       8375       8485       8486       8497       8496  
      8365       8366       8377       8376       8486       8487       8498       8497  
      8366       8367       8378       8377       8487       8488       8499       8498  
      8367       8368       8379       8378       8488       8489       8500       8499  
      8368       8369       8380       8379       8489       8490       8501       8500  
      8369       8370       8381       8380       8490       8491       8502       8501  
      8370       8371       8382       8381       8491       8492       8503       8502  
      8372       8373       8384       8383       8493       8494       8505       8504  
      8373       8374       8385       8384       8494       8495       8506       8505  
      8374       8375       8386       8385       8495       8496       8507       8506  
      8375       8376       8387       8386       8496       8497       8508       8507  
      8376       8377       8388       8387       8497       8498       8509       8508  
      8377       8378       8389       8388       8498       8499       8510       8509  
      8378       8379       8390       8389       8499       8500       8511       8510  
      8379       8380       8391       8390       8500       8501       8512       8511  
      8380       8381       8392       8391       8501       8502       8513       8512  
      8381       8382       8393       8392       8502       8503       8514       8513  
      8383       8384       8395       8394       8504       8505       8516       8515  
      8384       8385       8396       8395       8505       8506       8517       8516  
      8385       8386       8397       8396       8506       8507       8518       8517  
      8386       8387       8398       8397       8507       8508       8519       8518  
      8387       8388       8399       8398       8508       8509       8520       8519  
      8388       8389       8400       8399       8509       8510       8521       8520  
      8389       8390       8401       8400       8510       8511       8522       8521  
      8390       8391       8402       8401       8511       8512       8523       8522  
      8391       8392       8403       8402       8512       8513       8524       8523  
      8392       8393       8404       8403       8513       8514       8525       8524  
      8394       8395       8406       8405       8515       8516       8527       8526  
      8395       8396       8407       8406       8516       8517       8528       8527  
      8396       8397       8408       8407       8517       8518       8529       8528  
      8397       8398       8409       8408       8518       8519       8530       8529  
      8398       8399       8410       8409       8519       8520       8531       8530  
      8399       8400       8411       8410       8520       8521       8532       8531  
      8400       8401       8412       8411       8521       8522       8533       8532  
      8401       8402       8413       8412       8522       8523       8534       8533  
      8402       8403       8414       8413       8523       8524       8535       8534  
      8403       8404       8415       8414       8524       8525       8536       8535  
      8405       8406       8417       8416       8526       8527       8538       8537  
      8406       8407       8418       8417       8527       8528       8539       8538  
      8407       8408       8419       8418       8528       8529       8540       8539  
      8408       8409       8420       8419       8529       8530       8541       8540  
      8409       8410       8421       8420       8530       8531       8542       8541  
      8410       8411       8422       8421       8531       8532       8543       8542  
      8411       8412       8423       8422       8532       8533       8544       8543  
      8412       8413       8424       8423       8533       8534       8545       8544  
      8413       8414       8425       8424       8534       8535       8546       8545  
      8414       8415       8426       8425       8535       8536       8547       8546  
      8416       8417       8428       8427       8537       8538       8549       8548  
      8417       8418       8429       8428       8538       8539       8550       8549  
      8418       8419       8430       8429       8539       8540       8551       8550  
      8419       8420       8431       8430       8540       8541       8552       8551  
      8420       8421       8432       8431       8541       8542       8553       8552  
      8421       8422       8433       8432       8542       8543       8554       8553  
      8422       8423       8434       8433       8543       8544       8555       8554  
      8423       8424       8435       8434       8544       8545       8556       8555  
      8424       8425       8436       8435       8545       8546       8557       8556  
      8425       8426       8437       8436       8546       8547       8558       8557  
      8427       8428       8439       8438       8548       8549       8560       8559  
      8428       8429       8440       8439       8549       8550       8561       8560  
      8429       8430       8441       8440       8550       8551       8562       8561  
      8430       8431       8442       8441       8551       8552       8563       8562  
      8431       8432       8443       8442       8552       8553       8564       8563  
      8432       8433       8444       8443       8553       8554       8565       8564  
      8433       8434       8445       8444       8554       8555       8566       8565  
      8434       8435       8446       8445       8555       8556       8567       8566  
      8435       8436       8447       8446       8556       8557       8568       8567  
      8436       8437       8448       8447       8557       8558       8569       8568  
      8438       8439       8450       8449       8559       8560       8571       8570  
      8439       8440       8451       8450       8560       8561       8572       8571  
      8440       8441       8452       8451       8561       8562       8573       8572  
      8441       8442       8453       8452       8562       8563       8574       8573  
      8442       8443       8454       8453       8563       8564       8575       8574  
      8443       8444       8455       8454       8564       8565       8576       8575  
      8444       8445       8456       8455       8565       8566       8577       8576  
      8445       8446       8457       8456       8566       8567       8578       8577  
      8446       8447       8458       8457       8567       8568       8579       8578  
      8447       8448       8459       8458       8568       8569       8580       8579  
      8449       8450       8461       8460       8570       8571       8582       8581  
      8450       8451       8462       8461       8571       8572       8583       8582  
      8451       8452       8463       8462       8572       8573       8584       8583  
      8452       8453       8464       8463       8573       8574       8585       8584  
      8453       8454       8465       8464       8574       8575       8586       8585  
      8454       8455       8466       8465       8575       8576       8587       8586  
      8455       8456       8467       8466       8576       8577       8588       8587  
      8456       8457       8468       8467       8577       8578       8589       8588  
      8457       8458       8469       8468       8578       8579       8590       8589  
      8458       8459       8470       8469       8579       8580       8591       8590  
      8471       8472       8483       8482       8592       8593       8604       8603  
      8472       8473       8484       8483       8593       8594       8605       8604  
      8473       8474       8485       8484       8594       8595       8606       8605  
      8474       8475       8486       8485       8595       8596       8607       8606  
      8475       8476       8487       8486       8596       8597       8608       8607  
      8476       8477       8488       8487       8597       8598       8609       8608  
      8477       8478       8489       8488       8598       8599       8610       8609  
      8478       8479       8490       8489       8599       8600       8611       8610  
      8479       8480       8491       8490       8600       8601       8612       8611  
      8480       8481       8492       8491       8601       8602       8613       8612  
      8482       8483       8494       8493       8603       8604       8615       8614  
      8483       8484       8495       8494       8604       8605       8616       8615  
      8484       8485       8496       8495       8605       8606       8617       8616  
      8485       8486       8497       8496       8606       8607       8618       8617  
      8486       8487       8498       8497       8607       8608       8619       8618  
      8487       8488       8499       8498       8608       8609       8620       8619  
      8488       8489       8500       8499       8609       8610       8621       8620  
      8489       8490       8501       8500       8610       8611       8622       8621  
      8490       8491       8502       8501       8611       8612       8623       8622  
      8491       8492       8503       8502       8612       8613       8624       8623  
      8493       8494       8505       8504       8614       8615       8626       8625  
      8494       8495       8506       8505       8615       8616       8627       8626  
      8495       8496       8507       8506       8616       8617       8628       8627  
      8496       8497       8508       8507       8617       8618       8629       8628  
      8497       8498       8509       8508       8618       8619       8630       8629  
      8498       8499       8510       8509       8619       8620       8631       8630  
      8499       8500       8511       8510       8620       8621       8632       8631  
      8500       8501       8512       8511       8621       8622       8633       8632  
      8501       8502       8513       8512       8622       8623       8634       8633  
      8502       8503       8514       8513       8623       8624       8635       8634  
      8504       8505       8516       8515       8625       8626       8637       8636  
      8505       8506       8517       8516       8626       8627       8638       8637  
      8506       8507       8518       8517       8627       8628       8639       8638  
      8507       8508       8519       8518       8628       8629       8640       8639  
      8508       8509       8520       8519       8629       8630       8641       8640  
      8509       8510       8521       8520       8630       8631       8642       8641  
      8510       8511       8522       8521       8631       8632       8643       8642  
      8511       8512       8523       8522       8632       8633       8644       8643  
      8512       8513       8524       8523       8633       8634       8645       8644  
      8513       8514       8525       8524       8634       8635       8646       8645  
      8515       8516       8527       8526       8636       8637       8648       8647  
      8516       8517       8528       8527       8637       8638       8649       8648  
      8517       8518       8529       8528       8638       8639       8650       8649  
      8518       8519       8530       8529       8639       8640       8651       8650  
      8519       8520       8531       8530       8640       8641       8652       8651  
      8520       8521       8532       8531       8641       8642       8653       8652  
      8521       8522       8533       8532       8642       8643       8654       8653  
      8522       8523       8534       8533       8643       8644       8655       8654  
      8523       8524       8535       8534       8644       8645       8656       8655  
      8524       8525       8536       8535       8645       8646       8657       8656  
      8526       8527       8538       8537       8647       8648       8659       8658  
      8527       8528       8539       8538       8648       8649       8660       8659  
      8528       8529       8540       8539       8649       8650       8661       8660  
      8529       8530       8541       8540       8650       8651       8662       8661  
      8530       8531       8542       8541       8651       8652       8663       8662  
      8531       8532       8543       8542       8652       8653       8664       8663  
      8532       8533       8544       8543       8653       8654       8665       8664  
      8533       8534       8545       8544       8654       8655       8666       8665  
      8534       8535       8546       8545       8655       8656       8667       8666  
      8535       8536       8547       8546       8656       8657       8668       8667  
      8537       8538       8549       8548       8658       8659       8670       8669  
      8538       8539       8550       8549       8659       8660       8671       8670  
      8539       8540       8551       8550       8660       8661       8672       8671  
      8540       8541       8552       8551       8661       8662       8673       8672  
      8541       8542       8553       8552       8662       8663       8674       8673  
      8542       8543       8554       8553       8663       8664       8675       8674  
      8543       8544       8555       8554       8664       8665       8676       8675  
      8544       8545       8556       8555       8665       8666       8677       8676  
      8545       8546       8557       8556       8666       8667       8678       8677  
      8546       8547       8558       8557       8667       8668       8679       8678  
      8548       8549       8560       8559       8669       8670       8681       8680  
      8549       8550       8561       8560       8670       8671       8682       8681  
      8550       8551       8562       8561       8671       8672       8683       8682  
      8551       8552       8563       8562       8672       8673       8684       8683  
      8552       8553       8564       8563       8673       8674       8685       8684  
      8553       8554       8565       8564       8674       8675       8686       8685  
      8554       8555       8566       8565       8675       8676       8687       8686  
      8555       8556       8567       8566       8676       8677       8688       8687  
      8556       8557       8568       8567       8677       8678       8689       8688  
      8557       8558       8569       8568       8678       8679       8690       8689  
      8559       8560       8571       8570       8680       8681       8692       8691  
      8560       8561       8572       8571       8681       8682       8693       8692  
      8561       8562       8573       8572       8682       8683       8694       8693  
      8562       8563       8574       8573       8683       8684       8695       8694  
      8563       8564       8575       8574       8684       8685       8696       8695  
      8564       8565       8576       8575       8685       8686       8697       8696  
      8565       8566       8577       8576       8686       8687       8698       8697  
      8566       8567       8578       8577       8687       8688       8699       8698  
      8567       8568       8579       8578       8688       8689       8700       8699  
      8568       8569       8580       8579       8689       8690       8701       8700  
      8570       8571       8582       8581       8691       8692       8703       8702  
      8571       8572       8583       8582       8692       8693       8704       8703  
      8572       8573       8584       8583       8693       8694       8705       8704  
      8573       8574       8585       8584       8694       8695       8706       8705  
      8574       8575       8586       8585       8695       8696       8707       8706  
      8575       8576       8587       8586       8696       8697       8708       8707  
      8576       8577       8588       8587       8697       8698       8709       8708  
      8577       8578       8589       8588       8698       8699       8710       8709  
      8578       8579       8590       8589       8699       8700       8711       8710  
      8579       8580       8591       8590       8700       8701       8712       8711  
      8592       8593       8604       8603       8713       8714       8725       8724  
      8593       8594       8605       8604       8714       8715       8726       8725  
      8594       8595       8606       8605       8715       8716       8727       8726  
      8595       8596       8607       8606       8716       8717       8728       8727  
      8596       8597       8608       8607       8717       8718       8729       8728  
      8597       8598       8609       8608       8718       8719       8730       8729  
      8598       8599       8610       8609       8719       8720       8731       8730  
      8599       8600       8611       8610       8720       8721       8732       8731  
      8600       8601       8612       8611       8721       8722       8733       8732  
      8601       8602       8613       8612       8722       8723       8734       8733  
      8603       8604       8615       8614       8724       8725       8736       8735  
      8604       8605       8616       8615       8725       8726       8737       8736  
      8605       8606       8617       8616       8726       8727       8738       8737  
      8606       8607       8618       8617       8727       8728       8739       8738  
      8607       8608       8619       8618       8728       8729       8740       8739  
      8608       8609       8620       8619       8729       8730       8741       8740  
      8609       8610       8621       8620       8730       8731       8742       8741  
      8610       8611       8622       8621       8731       8732       8743       8742  
      8611       8612       8623       8622       8732       8733       8744       8743  
      8612       8613       8624       8623       8733       8734       8745       8744  
      8614       8615       8626       8625       8735       8736       8747       8746  
      8615       8616       8627       8626       8736       8737       8748       8747  
      8616       8617       8628       8627       8737       8738       8749       8748  
      8617       8618       8629       8628       8738       8739       8750       8749  
      8618       8619       8630       8629       8739       8740       8751       8750  
      8619       8620       8631       8630       8740       8741       8752       8751  
      8620       8621       8632       8631       8741       8742       8753       8752  
      8621       8622       8633       8632       8742       8743       8754       8753  
      8622       8623       8634       8633       8743       8744       8755       8754  
      8623       8624       8635       8634       8744       8745       8756       8755  
      8625       8626       8637       8636       8746       8747       8758       8757  
      8626       8627       8638       8637       8747       8748       8759       8758  
      8627       8628       8639       8638       8748       8749       8760       8759  
      8628       8629       8640       8639       8749       8750       8761       8760  
      8629       8630       8641       8640       8750       8751       8762       8761  
      8630       8631       8642       8641       8751       8752       8763       8762  
      8631       8632       8643       8642       8752       8753       8764       8763  
      8632       8633       8644       8643       8753       8754       8765       8764  
      8633       8634       8645       8644       8754       8755       8766       8765  
      8634       8635       8646       8645       8755       8756       8767       8766  
      8636       8637       8648       8647       8757       8758       8769       8768  
      8637       8638       8649       8648       8758       8759       8770       8769  
      8638       8639       8650       8649       8759       8760       8771       8770  
      8639       8640       8651       8650       8760       8761       8772       8771  
      8640       8641       8652       8651       8761       8762       8773       8772  
      8641       8642       8653       8652       8762       8763       8774       8773  
      8642       8643       8654       8653       8763       8764       8775       8774  
      8643       8644       8655       8654       8764       8765       8776       8775  
      8644       8645       8656       8655       8765       8766       8777       8776  
      8645       8646       8657       8656       8766       8767       8778       8777  
      8647       8648       8659       8658       8768       8769       8780       8779  
      8648       8649       8660       8659       8769       8770       8781       8780  
      8649       8650       8661       8660       8770       8771       8782       8781  
      8650       8651       8662       8661       8771       8772       8783       8782  
      8651       8652       8663       8662       8772       8773       8784       8783  
      8652       8653       8664       8663       8773       8774       8785       8784  
      8653       8654       8665       8664       8774       8775       8786       8785  
      8654       8655       8666       8665       8775       8776       8787       8786  
      8655       8656       8667       8666       8776       8777       8788       8787  
      8656       8657       8668       8667       8777       8778       8789       8788  
      8658       8659       8670       8669       8779       8780       8791       8790  
      8659       8660       8671       8670       8780       8781       8792       8791  
      8660       8661       8672       8671       8781       8782       8793       8792  
      8661       8662       8673       8672       8782       8783       8794       8793  
      8662       8663       8674       8673       8783       8784       8795       8794  
      8663       8664       8675       8674       8784       8785       8796       8795  
      8664       8665       8676       8675       8785       8786       8797       8796  
      8665       8666       8677       8676       8786       8787       8798       8797  
      8666       8667       8678       8677       8787       8788       8799       8798  
      8667       8668       8679       8678       8788       8789       8800       8799  
      8669       8670       8681       8680       8790       8791       8802       8801  
      8670       8671       8682       8681       8791       8792       8803       8802  
      8671       8672       8683       8682       8792       8793       8804       8803  
      8672       8673       8684       8683       8793       8794       8805       8804  
      8673       8674       8685       8684       8794       8795       8806       8805  
      8674       8675       8686       8685       8795       8796       8807       8806  
      8675       8676       8687       8686       8796       8797       8808       8807  
      8676       8677       8688       8687       8797       8798       8809       8808  
      8677       8678       8689       8688       8798       8799       8810       8809  
      8678       8679       8690       8689       8799       8800       8811       8810  
      8680       8681       8692       8691       8801       8802       8813       8812  
      8681       8682       8693       8692       8802       8803       8814       8813  
      8682       8683       8694       8693       8803       8804       8815       8814  
      8683       8684       8695       8694       8804       8805       8816       8815  
      8684       8685       8696       8695       8805       8806       8817       8816  
      8685       8686       8697       8696       8806       8807       8818       8817  
      8686       8687       8698       8697       8807       8808       8819       8818  
      8687       8688       8699       8698       8808       8809       8820       8819  
      8688       8689       8700       8699       8809       8810       8821       8820  
      8689       8690       8701       8700       8810       8811       8822       8821  
      8691       8692       8703       8702       8812       8813       8824       8823  
      8692       8693       8704       8703       8813       8814       8825       8824  
      8693       8694       8705       8704       8814       8815       8826       8825  
      8694       8695       8706       8705       8815       8816       8827       8826  
      8695       8696       8707       8706       8816       8817       8828       8827  
      8696       8697       8708       8707       8817       8818       8829       8828  
      8697       8698       8709       8708       8818       8819       8830       8829  
      8698       8699       8710       8709       8819       8820       8831       8830  
      8699       8700       8711       8710       8820       8821       8832       8831  
      8700       8701       8712       8711       8821       8822       8833       8832  
      8713       8714       8725       8724       8834       8835       8846       8845  
      8714       8715       8726       8725       8835       8836       8847       8846  
      8715       8716       8727       8726       8836       8837       8848       8847  
      8716       8717       8728       8727       8837       8838       8849       8848  
      8717       8718       8729       8728       8838       8839       8850       8849  
      8718       8719       8730       8729       8839       8840       8851       8850  
      8719       8720       8731       8730       8840       8841       8852       8851  
      8720       8721       8732       8731       8841       8842       8853       8852  
      8721       8722       8733       8732       8842       8843       8854       8853  
      8722       8723       8734       8733       8843       8844       8855       8854  
      8724       8725       8736       8735       8845       8846       8857       8856  
      8725       8726       8737       8736       8846       8847       8858       8857  
      8726       8727       8738       8737       8847       8848       8859       8858  
      8727       8728       8739       8738       8848       8849       8860       8859  
      8728       8729       8740       8739       8849       8850       8861       8860  
      8729       8730       8741       8740       8850       8851       8862       8861  
      8730       8731       8742       8741       8851       8852       8863       8862  
      8731       8732       8743       8742       8852       8853       8864       8863  
      8732       8733       8744       8743       8853       8854       8865       8864  
      8733       8734       8745       8744       8854       8855       8866       8865  
      8735       8736       8747       8746       8856       8857       8868       8867  
      8736       8737       8748       8747       8857       8858       8869       8868  
      8737       8738       8749       8748       8858       8859       8870       8869  
      8738       8739       8750       8749       8859       8860       8871       8870  
      8739       8740       8751       8750       8860       8861       8872       8871  
      8740       8741       8752       8751       8861       8862       8873       8872  
      8741       8742       8753       8752       8862       8863       8874       8873  
      8742       8743       8754       8753       8863       8864       8875       8874  
      8743       8744       8755       8754       8864       8865       8876       8875  
      8744       8745       8756       8755       8865       8866       8877       8876  
      8746       8747       8758       8757       8867       8868       8879       8878  
      8747       8748       8759       8758       8868       8869       8880       8879  
      8748       8749       8760       8759       8869       8870       8881       8880  
      8749       8750       8761       8760       8870       8871       8882       8881  
      8750       8751       8762       8761       8871       8872       8883       8882  
      8751       8752       8763       8762       8872       8873       8884       8883  
      8752       8753       8764       8763       8873       8874       8885       8884  
      8753       8754       8765       8764       8874       8875       8886       8885  
      8754       8755       8766       8765       8875       8876       8887       8886  
      8755       8756       8767       8766       8876       8877       8888       8887  
      8757       8758       8769       8768       8878       8879       8890       8889  
      8758       8759       8770       8769       8879       8880       8891       8890  
      8759       8760       8771       8770       8880       8881       8892       8891  
      8760       8761       8772       8771       8881       8882       8893       8892  
      8761       8762       8773       8772       8882       8883       8894       8893  
      8762       8763       8774       8773       8883       8884       8895       8894  
      8763       8764       8775       8774       8884       8885       8896       8895  
      8764       8765       8776       8775       8885       8886       8897       8896  
      8765       8766       8777       8776       8886       8887       8898       8897  
      8766       8767       8778       8777       8887       8888       8899       8898  
      8768       8769       8780       8779       8889       8890       8901       8900  
      8769       8770       8781       8780       8890       8891       8902       8901  
      8770       8771       8782       8781       8891       8892       8903       8902  
      8771       8772       8783       8782       8892       8893       8904       8903  
      8772       8773       8784       8783       8893       8894       8905       8904  
      8773       8774       8785       8784       8894       8895       8906       8905  
      8774       8775       8786       8785       8895       8896       8907       8906  
      8775       8776       8787       8786       8896       8897       8908       8907  
      8776       8777       8788       8787       8897       8898       8909       8908  
      8777       8778       8789       8788       8898       8899       8910       8909  
      8779       8780       8791       8790       8900       8901       8912       8911  
      8780       8781       8792       8791       8901       8902       8913       8912  
      8781       8782       8793       8792       8902       8903       8914       8913  
      8782       8783       8794       8793       8903       8904       8915       8914  
      8783       8784       8795       8794       8904       8905       8916       8915  
      8784       8785       8796       8795       8905       8906       8917       8916  
      8785       8786       8797       8796       8906       8907       8918       8917  
      8786       8787       8798       8797       8907       8908       8919       8918  
      8787       8788       8799       8798       8908       8909       8920       8919  
      8788       8789       8800       8799       8909       8910       8921       8920  
      8790       8791       8802       8801       8911       8912       8923       8922  
      8791       8792       8803       8802       8912       8913       8924       8923  
      8792       8793       8804       8803       8913       8914       8925       8924  
      8793       8794       8805       8804       8914       8915       8926       8925  
      8794       8795       8806       8805       8915       8916       8927       8926  
      8795       8796       8807       8806       8916       8917       8928       8927  
      8796       8797       8808       8807       8917       8918       8929       8928  
      8797       8798       8809       8808       8918       8919       8930       8929  
      8798       8799       8810       8809       8919       8920       8931       8930  
      8799       8800       8811       8810       8920       8921       8932       8931  
      8801       8802       8813       8812       8922       8923       8934       8933  
      8802       8803       8814       8813       8923       8924       8935       8934  
      8803       8804       8815       8814       8924       8925       8936       8935  
      8804       8805       8816       8815       8925       8926       8937       8936  
      8805       8806       8817       8816       8926       8927       8938       8937  
      8806       8807       8818       8817       8927       8928       8939       8938  
      8807       8808       8819       8818       8928       8929       8940       8939  
      8808       8809       8820       8819       8929       8930       8941       8940  
      8809       8810       8821       8820       8930       8931       8942       8941  
      8810       8811       8822       8821       8931       8932       8943       8942  
      8812       8813       8824       8823       8933       8934       8945       8944  
      8813       8814       8825       8824       8934       8935       8946       8945  
      8814       8815       8826       8825       8935       8936       8947       8946  
      8815       8816       8827       8826       8936       8937       8948       8947  
      8816       8817       8828       8827       8937       8938       8949       8948  
      8817       8818       8829       8828       8938       8939       8950       8949  
      8818       8819       8830       8829       8939       8940       8951       8950  
      8819       8820       8831       8830       8940       8941       8952       8951  
      8820       8821       8832       8831       8941       8942       8953       8952  
      8821       8822       8833       8832       8942       8943       8954       8953  
      8834       8835       8846       8845       8955       8956       8967       8966  
      8835       8836       8847       8846       8956       8957       8968       8967  
      8836       8837       8848       8847       8957       8958       8969       8968  
      8837       8838       8849       8848       8958       8959       8970       8969  
      8838       8839       8850       8849       8959       8960       8971       8970  
      8839       8840       8851       8850       8960       8961       8972       8971  
      8840       8841       8852       8851       8961       8962       8973       8972  
      8841       8842       8853       8852       8962       8963       8974       8973  
      8842       8843       8854       8853       8963       8964       8975       8974  
      8843       8844       8855       8854       8964       8965       8976       8975  
      8845       8846       8857       8856       8966       8967       8978       8977  
      8846       8847       8858       8857       8967       8968       8979       8978  
      8847       8848       8859       8858       8968       8969       8980       8979  
      8848       8849       8860       8859       8969       8970       8981       8980  
      8849       8850       8861       8860       8970       8971       8982       8981  
      8850       8851       8862       8861       8971       8972       8983       8982  
      8851       8852       8863       8862       8972       8973       8984       8983  
      8852       8853       8864       8863       8973       8974       8985       8984  
      8853       8854       8865       8864       8974       8975       8986       8985  
      8854       8855       8866       8865       8975       8976       8987       8986  
      8856       8857       8868       8867       8977       8978       8989       8988  
      8857       8858       8869       8868       8978       8979       8990       8989  
      8858       8859       8870       8869       8979       8980       8991       8990  
      8859       8860       8871       8870       8980       8981       8992       8991  
      8860       8861       8872       8871       8981       8982       8993       8992  
      8861       8862       8873       8872       8982       8983       8994       8993  
      8862       8863       8874       8873       8983       8984       8995       8994  
      8863       8864       8875       8874       8984       8985       8996       8995  
      8864       8865       8876       8875       8985       8986       8997       8996  
      8865       8866       8877       8876       8986       8987       8998       8997  
      8867       8868       8879       8878       8988       8989       9000       8999  
      8868       8869       8880       8879       8989       8990       9001       9000  
      8869       8870       8881       8880       8990       8991       9002       9001  
      8870       8871       8882       8881       8991       8992       9003       9002  
      8871       8872       8883       8882       8992       8993       9004       9003  
      8872       8873       8884       8883       8993       8994       9005       9004  
      8873       8874       8885       8884       8994       8995       9006       9005  
      8874       8875       8886       8885       8995       8996       9007       9006  
      8875       8876       8887       8886       8996       8997       9008       9007  
      8876       8877       8888       8887       8997       8998       9009       9008  
      8878       8879       8890       8889       8999       9000       9011       9010  
      8879       8880       8891       8890       9000       9001       9012       9011  
      8880       8881       8892       8891       9001       9002       9013       9012  
      8881       8882       8893       8892       9002       9003       9014       9013  
      8882       8883       8894       8893       9003       9004       9015       9014  
      8883       8884       8895       8894       9004       9005       9016       9015  
      8884       8885       8896       8895       9005       9006       9017       9016  
      8885       8886       8897       8896       9006       9007       9018       9017  
      8886       8887       8898       8897       9007       9008       9019       9018  
      8887       8888       8899       8898       9008       9009       9020       9019  
      8889       8890       8901       8900       9010       9011       9022       9021  
      8890       8891       8902       8901       9011       9012       9023       9022  
      8891       8892       8903       8902       9012       9013       9024       9023  
      8892       8893       8904       8903       9013       9014       9025       9024  
      8893       8894       8905       8904       9014       9015       9026       9025  
      8894       8895       8906       8905       9015       9016       9027       9026  
      8895       8896       8907       8906       9016       9017       9028       9027  
      8896       8897       8908       8907       9017       9018       9029       9028  
      8897       8898       8909       8908       9018       9019       9030       9029  
      8898       8899       8910       8909       9019       9020       9031       9030  
      8900       8901       8912       8911       9021       9022       9033       9032  
      8901       8902       8913       8912       9022       9023       9034       9033  
      8902       8903       8914       8913       9023       9024       9035       9034  
      8903       8904       8915       8914       9024       9025       9036       9035  
      8904       8905       8916       8915       9025       9026       9037       9036  
      8905       8906       8917       8916       9026       9027       9038       9037  
      8906       8907       8918       8917       9027       9028       9039       9038  
      8907       8908       8919       8918       9028       9029       9040       9039  
      8908       8909       8920       8919       9029       9030       9041       9040  
      8909       8910       8921       8920       9030       9031       9042       9041  
      8911       8912       8923       8922       9032       9033       9044       9043  
      8912       8913       8924       8923       9033       9034       9045       9044  
      8913       8914       8925       8924       9034       9035       9046       9045  
      8914       8915       8926       8925       9035       9036       9047       9046  
      8915       8916       8927       8926       9036       9037       9048       9047  
      8916       8917       8928       8927       9037       9038       9049       9048  
      8917       8918       8929       8928       9038       9039       9050       9049  
      8918       8919       8930       8929       9039       9040       9051       9050  
      8919       8920       8931       8930       9040       9041       9052       9051  
      8920       8921       8932       8931       9041       9042       9053       9052  
      8922       8923       8934       8933       9043       9044       9055       9054  
      8923       8924       8935       8934       9044       9045       9056       9055  
      8924       8925       8936       8935       9045       9046       9057       9056  
      8925       8926       8937       8936       9046       9047       9058       9057  
      8926       8927       8938       8937       9047       9048       9059       9058  
      8927       8928       8939       8938       9048       9049       9060       9059  
      8928       8929       8940       8939       9049       9050       9061       9060  
      8929       8930       8941       8940       9050       9051       9062       9061  
      8930       8931       8942       8941       9051       9052       9063       9062  
      8931       8932       8943       8942       9052       9053       9064       9063  
      8933       8934       8945       8944       9054       9055       9066       9065  
      8934       8935       8946       8945       9055       9056       9067       9066  
      8935       8936       8947       8946       9056       9057       9068       9067  
      8936       8937       8948       8947       9057       9058       9069       9068  
      8937       8938       8949       8948       9058       9059       9070       9069  
      8938       8939       8950       8949       9059       9060       9071       9070  
      8939       8940       8951       8950       9060       9061       9072       9071  
      8940       8941       8952       8951       9061       9062       9073       9072  
      8941       8942       8953       8952       9062       9063       9074       9073  
      8942       8943       8954       8953       9063       9064       9075       9074  
      8955       8956       8967       8966       9076       9077       9088       9087  
      8956       8957       8968       8967       9077       9078       9089       9088  
      8957       8958       8969       8968       9078       9079       9090       9089  
      8958       8959       8970       8969       9079       9080       9091       9090  
      8959       8960       8971       8970       9080       9081       9092       9091  
      8960       8961       8972       8971       9081       9082       9093       9092  
      8961       8962       8973       8972       9082       9083       9094       9093  
      8962       8963       8974       8973       9083       9084       9095       9094  
      8963       8964       8975       8974       9084       9085       9096       9095  
      8964       8965       8976       8975       9085       9086       9097       9096  
      8966       8967       8978       8977       9087       9088       9099       9098  
      8967       8968       8979       8978       9088       9089       9100       9099  
      8968       8969       8980       8979       9089       9090       9101       9100  
      8969       8970       8981       8980       9090       9091       9102       9101  
      8970       8971       8982       8981       9091       9092       9103       9102  
      8971       8972       8983       8982       9092       9093       9104       9103  
      8972       8973       8984       8983       9093       9094       9105       9104  
      8973       8974       8985       8984       9094       9095       9106       9105  
      8974       8975       8986       8985       9095       9096       9107       9106  
      8975       8976       8987       8986       9096       9097       9108       9107  
      8977       8978       8989       8988       9098       9099       9110       9109  
      8978       8979       8990       8989       9099       9100       9111       9110  
      8979       8980       8991       8990       9100       9101       9112       9111  
      8980       8981       8992       8991       9101       9102       9113       9112  
      8981       8982       8993       8992       9102       9103       9114       9113  
      8982       8983       8994       8993       9103       9104       9115       9114  
      8983       8984       8995       8994       9104       9105       9116       9115  
      8984       8985       8996       8995       9105       9106       9117       9116  
      8985       8986       8997       8996       9106       9107       9118       9117  
      8986       8987       8998       8997       9107       9108       9119       9118  
      8988       8989       9000       8999       9109       9110       9121       9120  
      8989       8990       9001       9000       9110       9111       9122       9121  
      8990       8991       9002       9001       9111       9112       9123       9122  
      8991       8992       9003       9002       9112       9113       9124       9123  
      8992       8993       9004       9003       9113       9114       9125       9124  
      8993       8994       9005       9004       9114       9115       9126       9125  
      8994       8995       9006       9005       9115       9116       9127       9126  
      8995       8996       9007       9006       9116       9117       9128       9127  
      8996       8997       9008       9007       9117       9118       9129       9128  
      8997       8998       9009       9008       9118       9119       9130       9129  
      8999       9000       9011       9010       9120       9121       9132       9131  
      9000       9001       9012       9011       9121       9122       9133       9132  
      9001       9002       9013       9012       9122       9123       9134       9133  
      9002       9003       9014       9013       9123       9124       9135       9134  
      9003       9004       9015       9014       9124       9125       9136       9135  
      9004       9005       9016       9015       9125       9126       9137       9136  
      9005       9006       9017       9016       9126       9127       9138       9137  
      9006       9007       9018       9017       9127       9128       9139       9138  
      9007       9008       9019       9018       9128       9129       9140       9139  
      9008       9009       9020       9019       9129       9130       9141       9140  
      9010       9011       9022       9021       9131       9132       9143       9142  
      9011       9012       9023       9022       9132       9133       9144       9143  
      9012       9013       9024       9023       9133       9134       9145       9144  
      9013       9014       9025       9024       9134       9135       9146       9145  
      9014       9015       9026       9025       9135       9136       9147       9146  
      9015       9016       9027       9026       9136       9137       9148       9147  
      9016       9017       9028       9027       9137       9138       9149       9148  
      9017       9018       9029       9028       9138       9139       9150       9149  
      9018       9019       9030       9029       9139       9140       9151       9150  
      9019       9020       9031       9030       9140       9141       9152       9151  
      9021       9022       9033       9032       9142       9143       9154       9153  
      9022       9023       9034       9033       9143       9144       9155       9154  
      9023       9024       9035       9034       9144       9145       9156       9155  
      9024       9025       9036       9035       9145       9146       9157       9156  
      9025       9026       9037       9036       9146       9147       9158       9157  
      9026       9027       9038       9037       9147       9148       9159       9158  
      9027       9028       9039       9038       9148       9149       9160       9159  
      9028       9029       9040       9039       9149       9150       9161       9160  
      9029       9030       9041       9040       9150       9151       9162       9161  
      9030       9031       9042       9041       9151       9152       9163       9162  
      9032       9033       9044       9043       9153       9154       9165       9164  
      9033       9034       9045       9044       9154       9155       9166       9165  
      9034       9035       9046       9045       9155       9156       9167       9166  
      9035       9036       9047       9046       9156       9157       9168       9167  
      9036       9037       9048       9047       9157       9158       9169       9168  
      9037       9038       9049       9048       9158       9159       9170       9169  
      9038       9039       9050       9049       9159       9160       9171       9170  
      9039       9040       9051       9050       9160       9161       9172       9171  
      9040       9041       9052       9051       9161       9162       9173       9172  
      9041       9042       9053       9052       9162       9163       9174       9173  
      9043       9044       9055       9054       9164       9165       9176       9175  
      9044       9045       9056       9055       9165       9166       9177       9176  
      9045       9046       9057       9056       9166       9167       9178       9177  
      9046       9047       9058       9057       9167       9168       9179       9178  
      9047       9048       9059       9058       9168       9169       9180       9179  
      9048       9049       9060       9059       9169       9170       9181       9180  
      9049       9050       9061       9060       9170       9171       9182       9181  
      9050       9051       9062       9061       9171       9172       9183       9182  
      9051       9052       9063       9062       9172       9173       9184       9183  
      9052       9053       9064       9063       9173       9174       9185       9184  
      9054       9055       9066       9065       9175       9176       9187       9186  
      9055       9056       9067       9066       9176       9177       9188       9187  
      9056       9057       9068       9067       9177       9178       9189       9188  
      9057       9058       9069       9068       9178       9179       9190       9189  
      9058       9059       9070       9069       9179       9180       9191       9190  
      9059       9060       9071       9070       9180       9181       9192       9191  
      9060       9061       9072       9071       9181       9182       9193       9192  
      9061       9062       9073       9072       9182       9183       9194       9193  
      9062       9063       9074       9073       9183       9184       9195       9194  
      9063       9064       9075       9074       9184       9185       9196       9195  
      9076       9077       9088       9087       9197       9198       9209       9208  
      9077       9078       9089       9088       9198       9199       9210       9209  
      9078       9079       9090       9089       9199       9200       9211       9210  
      9079       9080       9091       9090       9200       9201       9212       9211  
      9080       9081       9092       9091       9201       9202       9213       9212  
      9081       9082       9093       9092       9202       9203       9214       9213  
      9082       9083       9094       9093       9203       9204       9215       9214  
      9083       9084       9095       9094       9204       9205       9216       9215  
      9084       9085       9096       9095       9205       9206       9217       9216  
      9085       9086       9097       9096       9206       9207       9218       9217  
      9087       9088       9099       9098       9208       9209       9220       9219  
      9088       9089       9100       9099       9209       9210       9221       9220  
      9089       9090       9101       9100       9210       9211       9222       9221  
      9090       9091       9102       9101       9211       9212       9223       9222  
      9091       9092       9103       9102       9212       9213       9224       9223  
      9092       9093       9104       9103       9213       9214       9225       9224  
      9093       9094       9105       9104       9214       9215       9226       9225  
      9094       9095       9106       9105       9215       9216       9227       9226  
      9095       9096       9107       9106       9216       9217       9228       9227  
      9096       9097       9108       9107       9217       9218       9229       9228  
      9098       9099       9110       9109       9219       9220       9231       9230  
      9099       9100       9111       9110       9220       9221       9232       9231  
      9100       9101       9112       9111       9221       9222       9233       9232  
      9101       9102       9113       9112       9222       9223       9234       9233  
      9102       9103       9114       9113       9223       9224       9235       9234  
      9103       9104       9115       9114       9224       9225       9236       9235  
      9104       9105       9116       9115       9225       9226       9237       9236  
      9105       9106       9117       9116       9226       9227       9238       9237  
      9106       9107       9118       9117       9227       9228       9239       9238  
      9107       9108       9119       9118       9228       9229       9240       9239  
      9109       9110       9121       9120       9230       9231       9242       9241  
      9110       9111       9122       9121       9231       9232       9243       9242  
      9111       9112       9123       9122       9232       9233       9244       9243  
      9112       9113       9124       9123       9233       9234       9245       9244  
      9113       9114       9125       9124       9234       9235       9246       9245  
      9114       9115       9126       9125       9235       9236       9247       9246  
      9115       9116       9127       9126       9236       9237       9248       9247  
      9116       9117       9128       9127       9237       9238       9249       9248  
      9117       9118       9129       9128       9238       9239       9250       9249  
      9118       9119       9130       9129       9239       9240       9251       9250  
      9120       9121       9132       9131       9241       9242       9253       9252  
      9121       9122       9133       9132       9242       9243       9254       9253  
      9122       9123       9134       9133       9243       9244       9255       9254  
      9123       9124       9135       9134       9244       9245       9256       9255  
      9124       9125       9136       9135       9245       9246       9257       9256  
      9125       9126       9137       9136       9246       9247       9258       9257  
      9126       9127       9138       9137       9247       9248       9259       9258  
      9127       9128       9139       9138       9248       9249       9260       9259  
      9128       9129       9140       9139       9249       9250       9261       9260  
      9129       9130       9141       9140       9250       9251       9262       9261  
      9131       9132       9143       9142       9252       9253       9264       9263  
      9132       9133       9144       9143       9253       9254       9265       9264  
      9133       9134       9145       9144       9254       9255       9266       9265  
      9134       9135       9146       9145       9255       9256       9267       9266  
      9135       9136       9147       9146       9256       9257       9268       9267  
      9136       9137       9148       9147       9257       9258       9269       9268  
      9137       9138       9149       9148       9258       9259       9270       9269  
      9138       9139       9150       9149       9259       9260       9271       9270  
      9139       9140       9151       9150       9260       9261       9272       9271  
      9140       9141       9152       9151       9261       9262       9273       9272  
      9142       9143       9154       9153       9263       9264       9275       9274  
      9143       9144       9155       9154       9264       9265       9276       9275  
      9144       9145       9156       9155       9265       9266       9277       9276  
      9145       9146       9157       9156       9266       9267       9278       9277  
      9146       9147       9158       9157       9267       9268       9279       9278  
      9147       9148       9159       9158       9268       9269       9280       9279  
      9148       9149       9160       9159       9269       9270       9281       9280  
      9149       9150       9161       9160       9270       9271       9282       9281  
      9150       9151       9162       9161       9271       9272       9283       9282  
      9151       9152       9163       9162       9272       9273       9284       9283  
      9153       9154       9165       9164       9274       9275       9286       9285  
      9154       9155       9166       9165       9275       9276       9287       9286  
      9155       9156       9167       9166       9276       9277       9288       9287  
      9156       9157       9168       9167       9277       9278       9289       9288  
      9157       9158       9169       9168       9278       9279       9290       9289  
      9158       9159       9170       9169       9279       9280       9291       9290  
      9159       9160       9171       9170       9280       9281       9292       9291  
      9160       9161       9172       9171       9281       9282       9293       9292  
      9161       9162       9173       9172       9282       9283       9294       9293  
      9162       9163       9174       9173       9283       9284       9295       9294  
      9164       9165       9176       9175       9285       9286       9297       9296  
      9165       9166       9177       9176       9286       9287       9298       9297  
      9166       9167       9178       9177       9287       9288       9299       9298  
      9167       9168       9179       9178       9288       9289       9300       9299  
      9168       9169       9180       9179       9289       9290       9301       9300  
      9169       9170       9181       9180       9290       9291       9302       9301  
      9170       9171       9182       9181       9291       9292       9303       9302  
      9171       9172       9183       9182       9292       9293       9304       9303  
      9172       9173       9184       9183       9293       9294       9305       9304  
      9173       9174       9185       9184       9294       9295       9306       9305  
      9175       9176       9187       9186       9296       9297       9308       9307  
      9176       9177       9188       9187       9297       9298       9309       9308  
      9177       9178       9189       9188       9298       9299       9310       9309  
      9178       9179       9190       9189       9299       9300       9311       9310  
      9179       9180       9191       9190       9300       9301       9312       9311  
      9180       9181       9192       9191       9301       9302       9313       9312  
      9181       9182       9193       9192       9302       9303       9314       9313  
      9182       9183       9194       9193       9303       9304       9315       9314  
      9183       9184       9195       9194       9304       9305       9316       9315  
      9184       9185       9196       9195       9305       9306       9317       9316  
      9197       9198       9209       9208       9318       9319       9330       9329  
      9198       9199       9210       9209       9319       9320       9331       9330  
      9199       9200       9211       9210       9320       9321       9332       9331  
      9200       9201       9212       9211       9321       9322       9333       9332  
      9201       9202       9213       9212       9322       9323       9334       9333  
      9202       9203       9214       9213       9323       9324       9335       9334  
      9203       9204       9215       9214       9324       9325       9336       9335  
      9204       9205       9216       9215       9325       9326       9337       9336  
      9205       9206       9217       9216       9326       9327       9338       9337  
      9206       9207       9218       9217       9327       9328       9339       9338  
      9208       9209       9220       9219       9329       9330       9341       9340  
      9209       9210       9221       9220       9330       9331       9342       9341  
      9210       9211       9222       9221       9331       9332       9343       9342  
      9211       9212       9223       9222       9332       9333       9344       9343  
      9212       9213       9224       9223       9333       9334       9345       9344  
      9213       9214       9225       9224       9334       9335       9346       9345  
      9214       9215       9226       9225       9335       9336       9347       9346  
      9215       9216       9227       9226       9336       9337       9348       9347  
      9216       9217       9228       9227       9337       9338       9349       9348  
      9217       9218       9229       9228       9338       9339       9350       9349  
      9219       9220       9231       9230       9340       9341       9352       9351  
      9220       9221       9232       9231       9341       9342       9353       9352  
      9221       9222       9233       9232       9342       9343       9354       9353  
      9222       9223       9234       9233       9343       9344       9355       9354  
      9223       9224       9235       9234       9344       9345       9356       9355  
      9224       9225       9236       9235       9345       9346       9357       9356  
      9225       9226       9237       9236       9346       9347       9358       9357  
      9226       9227       9238       9237       9347       9348       9359       9358  
      9227       9228       9239       9238       9348       9349       9360       9359  
      9228       9229       9240       9239       9349       9350       9361       9360  
      9230       9231       9242       9241       9351       9352       9363       9362  
      9231       9232       9243       9242       9352       9353       9364       9363  
      9232       9233       9244       9243       9353       9354       9365       9364  
      9233       9234       9245       9244       9354       9355       9366       9365  
      9234       9235       9246       9245       9355       9356       9367       9366  
      9235       9236       9247       9246       9356       9357       9368       9367  
      9236       9237       9248       9247       9357       9358       9369       9368  
      9237       9238       9249       9248       9358       9359       9370       9369  
      9238       9239       9250       9249       9359       9360       9371       9370  
      9239       9240       9251       9250       9360       9361       9372       9371  
      9241       9242       9253       9252       9362       9363       9374       9373  
      9242       9243       9254       9253       9363       9364       9375       9374  
      9243       9244       9255       9254       9364       9365       9376       9375  
      9244       9245       9256       9255       9365       9366       9377       9376  
      9245       9246       9257       9256       9366       9367       9378       9377  
      9246       9247       9258       9257       9367       9368       9379       9378  
      9247       9248       9259       9258       9368       9369       9380       9379  
      9248       9249       9260       9259       9369       9370       9381       9380  
      9249       9250       9261       9260       9370       9371       9382       9381  
      9250       9251       9262       9261       9371       9372       9383       9382  
      9252       9253       9264       9263       9373       9374       9385       9384  
      9253       9254       9265       9264       9374       9375       9386       9385  
      9254       9255       9266       9265       9375       9376       9387       9386  
      9255       9256       9267       9266       9376       9377       9388       9387  
      9256       9257       9268       9267       9377       9378       9389       9388  
      9257       9258       9269       9268       9378       9379       9390       9389  
      9258       9259       9270       9269       9379       9380       9391       9390  
      9259       9260       9271       9270       9380       9381       9392       9391  
      9260       9261       9272       9271       9381       9382       9393       9392  
      9261       9262       9273       9272       9382       9383       9394       9393  
      9263       9264       9275       9274       9384       9385       9396       9395  
      9264       9265       9276       9275       9385       9386       9397       9396  
      9265       9266       9277       9276       9386       9387       9398       9397  
      9266       9267       9278       9277       9387       9388       9399       9398  
      9267       9268       9279       9278       9388       9389       9400       9399  
      9268       9269       9280       9279       9389       9390       9401       9400  
      9269       9270       9281       9280       9390       9391       9402       9401  
      9270       9271       9282       9281       9391       9392       9403       9402  
      9271       9272       9283       9282       9392       9393       9404       9403  
      9272       9273       9284       9283       9393       9394       9405       9404  
      9274       9275       9286       9285       9395       9396       9407       9406  
      9275       9276       9287       9286       9396       9397       9408       9407  
      9276       9277       9288       9287       9397       9398       9409       9408  
      9277       9278       9289       9288       9398       9399       9410       9409  
      9278       9279       9290       9289       9399       9400       9411       9410  
      9279       9280       9291       9290       9400       9401       9412       9411  
      9280       9281       9292       9291       9401       9402       9413       9412  
      9281       9282       9293       9292       9402       9403       9414       9413  
      9282       9283       9294       9293       9403       9404       9415       9414  
      9283       9284       9295       9294       9404       9405       9416       9415  
      9285       9286       9297       9296       9406       9407       9418       9417  
      9286       9287       9298       9297       9407       9408       9419       9418  
      9287       9288       9299       9298       9408       9409       9420       9419  
      9288       9289       9300       9299       9409       9410       9421       9420  
      9289       9290       9301       9300       9410       9411       9422       9421  
      9290       9291       9302       9301       9411       9412       9423       9422  
      9291       9292       9303       9302       9412       9413       9424       9423  
      9292       9293       9304       9303       9413       9414       9425       9424  
      9293       9294       9305       9304       9414       9415       9426       9425  
      9294       9295       9306       9305       9415       9416       9427       9426  
      9296       9297       9308       9307       9417       9418       9429       9428  
      9297       9298       9309       9308       9418       9419       9430       9429  
      9298       9299       9310       9309       9419       9420       9431       9430  
      9299       9300       9311       9310       9420       9421       9432       9431  
      9300       9301       9312       9311       9421       9422       9433       9432  
      9301       9302       9313       9312       9422       9423       9434       9433  
      9302       9303       9314       9313       9423       9424       9435       9434  
      9303       9304       9315       9314       9424       9425       9436       9435  
      9304       9305       9316       9315       9425       9426       9437       9436  
      9305       9306       9317       9316       9426       9427       9438       9437  
      9318       9319       9330       9329       9439       9440       9451       9450  
      9319       9320       9331       9330       9440       9441       9452       9451  
      9320       9321       9332       9331       9441       9442       9453       9452  
      9321       9322       9333       9332       9442       9443       9454       9453  
      9322       9323       9334       9333       9443       9444       9455       9454  
      9323       9324       9335       9334       9444       9445       9456       9455  
      9324       9325       9336       9335       9445       9446       9457       9456  
      9325       9326       9337       9336       9446       9447       9458       9457  
      9326       9327       9338       9337       9447       9448       9459       9458  
      9327       9328       9339       9338       9448       9449       9460       9459  
      9329       9330       9341       9340       9450       9451       9462       9461  
      9330       9331       9342       9341       9451       9452       9463       9462  
      9331       9332       9343       9342       9452       9453       9464       9463  
      9332       9333       9344       9343       9453       9454       9465       9464  
      9333       9334       9345       9344       9454       9455       9466       9465  
      9334       9335       9346       9345       9455       9456       9467       9466  
      9335       9336       9347       9346       9456       9457       9468       9467  
      9336       9337       9348       9347       9457       9458       9469       9468  
      9337       9338       9349       9348       9458       9459       9470       9469  
      9338       9339       9350       9349       9459       9460       9471       9470  
      9340       9341       9352       9351       9461       9462       9473       9472  
      9341       9342       9353       9352       9462       9463       9474       9473  
      9342       9343       9354       9353       9463       9464       9475       9474  
      9343       9344       9355       9354       9464       9465       9476       9475  
      9344       9345       9356       9355       9465       9466       9477       9476  
      9345       9346       9357       9356       9466       9467       9478       9477  
      9346       9347       9358       9357       9467       9468       9479       9478  
      9347       9348       9359       9358       9468       9469       9480       9479  
      9348       9349       9360       9359       9469       9470       9481       9480  
      9349       9350       9361       9360       9470       9471       9482       9481  
      9351       9352       9363       9362       9472       9473       9484       9483  
      9352       9353       9364       9363       9473       9474       9485       9484  
      9353       9354       9365       9364       9474       9475       9486       9485  
      9354       9355       9366       9365       9475       9476       9487       9486  
      9355       9356       9367       9366       9476       9477       9488       9487  
      9356       9357       9368       9367       9477       9478       9489       9488  
      9357       9358       9369       9368       9478       9479       9490       9489  
      9358       9359       9370       9369       9479       9480       9491       9490  
      9359       9360       9371       9370       9480       9481       9492       9491  
      9360       9361       9372       9371       9481       9482       9493       9492  
      9362       9363       9374       9373       9483       9484       9495       9494  
      9363       9364       9375       9374       9484       9485       9496       9495  
      9364       9365       9376       9375       9485       9486       9497       9496  
      9365       9366       9377       9376       9486       9487       9498       9497  
      9366       9367       9378       9377       9487       9488       9499       9498  
      9367       9368       9379       9378       9488       9489       9500       9499  
      9368       9369       9380       9379       9489       9490       9501       9500  
      9369       9370       9381       9380       9490       9491       9502       9501  
      9370       9371       9382       9381       9491       9492       9503       9502  
      9371       9372       9383       9382       9492       9493       9504       9503  
      9373       9374       9385       9384       9494       9495       9506       9505  
      9374       9375       9386       9385       9495       9496       9507       9506  
      9375       9376       9387       9386       9496       9497       9508       9507  
      9376       9377       9388       9387       9497       9498       9509       9508  
      9377       9378       9389       9388       9498       9499       9510       9509  
      9378       9379       9390       9389       9499       9500       9511       9510  
      9379       9380       9391       9390       9500       9501       9512       9511  
      9380       9381       9392       9391       9501       9502       9513       9512  
      9381       9382       9393       9392       9502       9503       9514       9513  
      9382       9383       9394       9393       9503       9504       9515       9514  
      9384       9385       9396       9395       9505       9506       9517       9516  
      9385       9386       9397       9396       9506       9507       9518       9517  
      9386       9387       9398       9397       9507       9508       9519       9518  
      9387       9388       9399       9398       9508       9509       9520       9519  
      9388       9389       9400       9399       9509       9510       9521       9520  
      9389       9390       9401       9400       9510       9511       9522       9521  
      9390       9391       9402       9401       9511       9512       9523       9522  
      9391       9392       9403       9402       9512       9513       9524       9523  
      9392       9393       9404       9403       9513       9514       9525       9524  
      9393       9394       9405       9404       9514       9515       9526       9525  
      9395       9396       9407       9406       9516       9517       9528       9527  
      9396       9397       9408       9407       9517       9518       9529       9528  
      9397       9398       9409       9408       9518       9519       9530       9529  
      9398       9399       9410       9409       9519       9520       9531       9530  
      9399       9400       9411       9410       9520       9521       9532       9531  
      9400       9401       9412       9411       9521       9522       9533       9532  
      9401       9402       9413       9412       9522       9523       9534       9533  
      9402       9403       9414       9413       9523       9524       9535       9534  
      9403       9404       9415       9414       9524       9525       9536       9535  
      9404       9405       9416       9415       9525       9526       9537       9536  
      9406       9407       9418       9417       9527       9528       9539       9538  
      9407       9408       9419       9418       9528       9529       9540       9539  
      9408       9409       9420       9419       9529       9530       9541       9540  
      9409       9410       9421       9420       9530       9531       9542       9541  
      9410       9411       9422       9421       9531       9532       9543       9542  
      9411       9412       9423       9422       9532       9533       9544       9543  
      9412       9413       9424       9423       9533       9534       9545       9544  
      9413       9414       9425       9424       9534       9535       9546       9545  
      9414       9415       9426       9425       9535       9536       9547       9546  
      9415       9416       9427       9426       9536       9537       9548       9547  
      9417       9418       9429       9428       9538       9539       9550       9549  
      9418       9419       9430       9429       9539       9540       9551       9550  
      9419       9420       9431       9430       9540       9541       9552       9551  
      9420       9421       9432       9431       9541       9542       9553       9552  
      9421       9422       9433       9432       9542       9543       9554       9553  
      9422       9423       9434       9433       9543       9544       9555       9554  
      9423       9424       9435       9434       9544       9545       9556       9555  
      9424       9425       9436       9435       9545       9546       9557       9556  
      9425       9426       9437       9436       9546       9547       9558       9557  
      9426       9427       9438       9437       9547       9548       9559       9558  
      9439       9440       9451       9450       9560       9561       9572       9571  
      9440       9441       9452       9451       9561       9562       9573       9572  
      9441       9442       9453       9452       9562       9563       9574       9573  
      9442       9443       9454       9453       9563       9564       9575       9574  
      9443       9444       9455       9454       9564       9565       9576       9575  
      9444       9445       9456       9455       9565       9566       9577       9576  
      9445       9446       9457       9456       9566       9567       9578       9577  
      9446       9447       9458       9457       9567       9568       9579       9578  
      9447       9448       9459       9458       9568       9569       9580       9579  
      9448       9449       9460       9459       9569       9570       9581       9580  
      9450       9451       9462       9461       9571       9572       9583       9582  
      9451       9452       9463       9462       9572       9573       9584       9583  
      9452       9453       9464       9463       9573       9574       9585       9584  
      9453       9454       9465       9464       9574       9575       9586       9585  
      9454       9455       9466       9465       9575       9576       9587       9586  
      9455       9456       9467       9466       9576       9577       9588       9587  
      9456       9457       9468       9467       9577       9578       9589       9588  
      9457       9458       9469       9468       9578       9579       9590       9589  
      9458       9459       9470       9469       9579       9580       9591       9590  
      9459       9460       9471       9470       9580       9581       9592       9591  
      9461       9462       9473       9472       9582       9583       9594       9593  
      9462       9463       9474       9473       9583       9584       9595       9594  
      9463       9464       9475       9474       9584       9585       9596       9595  
      9464       9465       9476       9475       9585       9586       9597       9596  
      9465       9466       9477       9476       9586       9587       9598       9597  
      9466       9467       9478       9477       9587       9588       9599       9598  
      9467       9468       9479       9478       9588       9589       9600       9599  
      9468       9469       9480       9479       9589       9590       9601       9600  
      9469       9470       9481       9480       9590       9591       9602       9601  
      9470       9471       9482       9481       9591       9592       9603       9602  
      9472       9473       9484       9483       9593       9594       9605       9604  
      9473       9474       9485       9484       9594       9595       9606       9605  
      9474       9475       9486       9485       9595       9596       9607       9606  
      9475       9476       9487       9486       9596       9597       9608       9607  
      9476       9477       9488       9487       9597       9598       9609       9608  
      9477       9478       9489       9488       9598       9599       9610       9609  
      9478       9479       9490       9489       9599       9600       9611       9610  
      9479       9480       9491       9490       9600       9601       9612       9611  
      9480       9481       9492       9491       9601       9602       9613       9612  
      9481       9482       9493       9492       9602       9603       9614       9613  
      9483       9484       9495       9494       9604       9605       9616       9615  
      9484       9485       9496       9495       9605       9606       9617       9616  
      9485       9486       9497       9496       9606       9607       9618       9617  
      9486       9487       9498       9497       9607       9608       9619       9618  
      9487       9488       9499       9498       9608       9609       9620       9619  
      9488       9489       9500       9499       9609       9610       9621       9620  
      9489       9490       9501       9500       9610       9611       9622       9621  
      9490       9491       9502       9501       9611       9612       9623       9622  
      9491       9492       9503       9502       9612       9613       9624       9623  
      9492       9493       9504       9503       9613       9614       9625       9624  
      9494       9495       9506       9505       9615       9616       9627       9626  
      9495       9496       9507       9506       9616       9617       9628       9627  
      9496       9497       9508       9507       9617       9618       9629       9628  
      9497       9498       9509       9508       9618       9619       9630       9629  
      9498       9499       9510       9509       9619       9620       9631       9630  
      9499       9500       9511       9510       9620       9621       9632       9631  
      9500       9501       9512       9511       9621       9622       9633       9632  
      9501       9502       9513       9512       9622       9623       9634       9633  
      9502       9503       9514       9513       9623       9624       9635       9634  
      9503       9504       9515       9514       9624       9625       9636       9635  
      9505       9506       9517       9516       9626       9627       9638       9637  
      9506       9507       9518       9517       9627       9628       9639       9638  
      9507       9508       9519       9518       9628       9629       9640       9639  
      9508       9509       9520       9519       9629       9630       9641       9640  
      9509       9510       9521       9520       9630       9631       9642       9641  
      9510       9511       9522       9521       9631       9632       9643       9642  
      9511       9512       9523       9522       9632       9633       9644       9643  
      9512       9513       9524       9523       9633       9634       9645       9644  
      9513       9514       9525       9524       9634       9635       9646       9645  
      9514       9515       9526       9525       9635       9636       9647       9646  
      9516       9517       9528       9527       9637       9638       9649       9648  
      9517       9518       9529       9528       9638       9639       9650       9649  
      9518       9519       9530       9529       9639       9640       9651       9650  
      9519       9520       9531       9530       9640       9641       9652       9651  
      9520       9521       9532       9531       9641       9642       9653       9652  
      9521       9522       9533       9532       9642       9643       9654       9653  
      9522       9523       9534       9533       9643       9644       9655       9654  
      9523       9524       9535       9534       9644       9645       9656       9655  
      9524       9525       9536       9535       9645       9646       9657       9656  
      9525       9526       9537       9536       9646       9647       9658       9657  
      9527       9528       9539       9538       9648       9649       9660       9659  
      9528       9529       9540       9539       9649       9650       9661       9660  
      9529       9530       9541       9540       9650       9651       9662       9661  
      9530       9531       9542       9541       9651       9652       9663       9662  
      9531       9532       9543       9542       9652       9653       9664       9663  
      9532       9533       9544       9543       9653       9654       9665       9664  
      9533       9534       9545       9544       9654       9655       9666       9665  
      9534       9535       9546       9545       9655       9656       9667       9666  
      9535       9536       9547       9546       9656       9657       9668       9667  
      9536       9537       9548       9547       9657       9658       9669       9668  
      9538       9539       9550       9549       9659       9660       9671       9670  
      9539       9540       9551       9550       9660       9661       9672       9671  
      9540       9541       9552       9551       9661       9662       9673       9672  
      9541       9542       9553       9552       9662       9663       9674       9673  
      9542       9543       9554       9553       9663       9664       9675       9674  
      9543       9544       9555       9554       9664       9665       9676       9675  
      9544       9545       9556       9555       9665       9666       9677       9676  
      9545       9546       9557       9556       9666       9667       9678       9677  
      9546       9547       9558       9557       9667       9668       9679       9678  
      9547       9548       9559       9558       9668       9669       9680       9679  
      9560       9561       9572       9571       9681       9682       9693       9692  
      9561       9562       9573       9572       9682       9683       9694       9693  
      9562       9563       9574       9573       9683       9684       9695       9694  
      9563       9564       9575       9574       9684       9685       9696       9695  
      9564       9565       9576       9575       9685       9686       9697       9696  
      9565       9566       9577       9576       9686       9687       9698       9697  
      9566       9567       9578       9577       9687       9688       9699       9698  
      9567       9568       9579       9578       9688       9689       9700       9699  
      9568       9569       9580       9579       9689       9690       9701       9700  
      9569       9570       9581       9580       9690       9691       9702       9701  
      9571       9572       9583       9582       9692       9693       9704       9703  
      9572       9573       9584       9583       9693       9694       9705       9704  
      9573       9574       9585       9584       9694       9695       9706       9705  
      9574       9575       9586       9585       9695       9696       9707       9706  
      9575       9576       9587       9586       9696       9697       9708       9707  
      9576       9577       9588       9587       9697       9698       9709       9708  
      9577       9578       9589       9588       9698       9699       9710       9709  
      9578       9579       9590       9589       9699       9700       9711       9710  
      9579       9580       9591       9590       9700       9701       9712       9711  
      9580       9581       9592       9591       9701       9702       9713       9712  
      9582       9583       9594       9593       9703       9704       9715       9714  
      9583       9584       9595       9594       9704       9705       9716       9715  
      9584       9585       9596       9595       9705       9706       9717       9716  
      9585       9586       9597       9596       9706       9707       9718       9717  
      9586       9587       9598       9597       9707       9708       9719       9718  
      9587       9588       9599       9598       9708       9709       9720       9719  
      9588       9589       9600       9599       9709       9710       9721       9720  
      9589       9590       9601       9600       9710       9711       9722       9721  
      9590       9591       9602       9601       9711       9712       9723       9722  
      9591       9592       9603       9602       9712       9713       9724       9723  
      9593       9594       9605       9604       9714       9715       9726       9725  
      9594       9595       9606       9605       9715       9716       9727       9726  
      9595       9596       9607       9606       9716       9717       9728       9727  
      9596       9597       9608       9607       9717       9718       9729       9728  
      9597       9598       9609       9608       9718       9719       9730       9729  
      9598       9599       9610       9609       9719       9720       9731       9730  
      9599       9600       9611       9610       9720       9721       9732       9731  
      9600       9601       9612       9611       9721       9722       9733       9732  
      9601       9602       9613       9612       9722       9723       9734       9733  
      9602       9603       9614       9613       9723       9724       9735       9734  
      9604       9605       9616       9615       9725       9726       9737       9736  
      9605       9606       9617       9616       9726       9727       9738       9737  
      9606       9607       9618       9617       9727       9728       9739       9738  
      9607       9608       9619       9618       9728       9729       9740       9739  
      9608       9609       9620       9619       9729       9730       9741       9740  
      9609       9610       9621       9620       9730       9731       9742       9741  
      9610       9611       9622       9621       9731       9732       9743       9742  
      9611       9612       9623       9622       9732       9733       9744       9743  
      9612       9613       9624       9623       9733       9734       9745       9744  
      9613       9614       9625       9624       9734       9735       9746       9745  
      9615       9616       9627       9626       9736       9737       9748       9747  
      9616       9617       9628       9627       9737       9738       9749       9748  
      9617       9618       9629       9628       9738       9739       9750       9749  
      9618       9619       9630       9629       9739       9740       9751       9750  
      9619       9620       9631       9630       9740       9741       9752       9751  
      9620       9621       9632       9631       9741       9742       9753       9752  
      9621       9622       9633       9632       9742       9743       9754       9753  
      9622       9623       9634       9633       9743       9744       9755       9754  
      9623       9624       9635       9634       9744       9745       9756       9755  
      9624       9625       9636       9635       9745       9746       9757       9756  
      9626       9627       9638       9637       9747       9748       9759       9758  
      9627       9628       9639       9638       9748       9749       9760       9759  
      9628       9629       9640       9639       9749       9750       9761       9760  
      9629       9630       9641       9640       9750       9751       9762       9761  
      9630       9631       9642       9641       9751       9752       9763       9762  
      9631       9632       9643       9642       9752       9753       9764       9763  
      9632       9633       9644       9643       9753       9754       9765       9764  
      9633       9634       9645       9644       9754       9755       9766       9765  
      9634       9635       9646       9645       9755       9756       9767       9766  
      9635       9636       9647       9646       9756       9757       9768       9767  
      9637       9638       9649       9648       9758       9759       9770       9769  
      9638       9639       9650       9649       9759       9760       9771       9770  
      9639       9640       9651       9650       9760       9761       9772       9771  
      9640       9641       9652       9651       9761       9762       9773       9772  
      9641       9642       9653       9652       9762       9763       9774       9773  
      9642       9643       9654       9653       9763       9764       9775       9774  
      9643       9644       9655       9654       9764       9765       9776       9775  
      9644       9645       9656       9655       9765       9766       9777       9776  
      9645       9646       9657       9656       9766       9767       9778       9777  
      9646       9647       9658       9657       9767       9768       9779       9778  
      9648       9649       9660       9659       9769       9770       9781       9780  
      9649       9650       9661       9660       9770       9771       9782       9781  
      9650       9651       9662       9661       9771       9772       9783       9782  
      9651       9652       9663       9662       9772       9773       9784       9783  
      9652       9653       9664       9663       9773       9774       9785       9784  
      9653       9654       9665       9664       9774       9775       9786       9785  
      9654       9655       9666       9665       9775       9776       9787       9786  
      9655       9656       9667       9666       9776       9777       9788       9787  
      9656       9657       9668       9667       9777       9778       9789       9788  
      9657       9658       9669       9668       9778       9779       9790       9789  
      9659       9660       9671       9670       9780       9781       9792       9791  
      9660       9661       9672       9671       9781       9782       9793       9792  
      9661       9662       9673       9672       9782       9783       9794       9793  
      9662       9663       9674       9673       9783       9784       9795       9794  
      9663       9664       9675       9674       9784       9785       9796       9795  
      9664       9665       9676       9675       9785       9786       9797       9796  
      9665       9666       9677       9676       9786       9787       9798       9797  
      9666       9667       9678       9677       9787       9788       9799       9798  
      9667       9668       9679       9678       9788       9789       9800       9799  
      9668       9669       9680       9679       9789       9790       9801       9800  
      9681       9682       9693       9692       9802       9803       9814       9813  
      9682       9683       9694       9693       9803       9804       9815       9814  
      9683       9684       9695       9694       9804       9805       9816       9815  
      9684       9685       9696       9695       9805       9806       9817       9816  
      9685       9686       9697       9696       9806       9807       9818       9817  
      9686       9687       9698       9697       9807       9808       9819       9818  
      9687       9688       9699       9698       9808       9809       9820       9819  
      9688       9689       9700       9699       9809       9810       9821       9820  
      9689       9690       9701       9700       9810       9811       9822       9821  
      9690       9691       9702       9701       9811       9812       9823       9822  
      9692       9693       9704       9703       9813       9814       9825       9824  
      9693       9694       9705       9704       9814       9815       9826       9825  
      9694       9695       9706       9705       9815       9816       9827       9826  
      9695       9696       9707       9706       9816       9817       9828       9827  
      9696       9697       9708       9707       9817       9818       9829       9828  
      9697       9698       9709       9708       9818       9819       9830       9829  
      9698       9699       9710       9709       9819       9820       9831       9830  
      9699       9700       9711       9710       9820       9821       9832       9831  
      9700       9701       9712       9711       9821       9822       9833       9832  
      9701       9702       9713       9712       9822       9823       9834       9833  
      9703       9704       9715       9714       9824       9825       9836       9835  
      9704       9705       9716       9715       9825       9826       9837       9836  
      9705       9706       9717       9716       9826       9827       9838       9837  
      9706       9707       9718       9717       9827       9828       9839       9838  
      9707       9708       9719       9718       9828       9829       9840       9839  
      9708       9709       9720       9719       9829       9830       9841       9840  
      9709       9710       9721       9720       9830       9831       9842       9841  
      9710       9711       9722       9721       9831       9832       9843       9842  
      9711       9712       9723       9722       9832       9833       9844       9843  
      9712       9713       9724       9723       9833       9834       9845       9844  
      9714       9715       9726       9725       9835       9836       9847       9846  
      9715       9716       9727       9726       9836       9837       9848       9847  
      9716       9717       9728       9727       9837       9838       9849       9848  
      9717       9718       9729       9728       9838       9839       9850       9849  
      9718       9719       9730       9729       9839       9840       9851       9850  
      9719       9720       9731       9730       9840       9841       9852       9851  
      9720       9721       9732       9731       9841       9842       9853       9852  
      9721       9722       9733       9732       9842       9843       9854       9853  
      9722       9723       9734       9733       9843       9844       9855       9854  
      9723       9724       9735       9734       9844       9845       9856       9855  
      9725       9726       9737       9736       9846       9847       9858       9857  
      9726       9727       9738       9737       9847       9848       9859       9858  
      9727       9728       9739       9738       9848       9849       9860       9859  
      9728       9729       9740       9739       9849       9850       9861       9860  
      9729       9730       9741       9740       9850       9851       9862       9861  
      9730       9731       9742       9741       9851       9852       9863       9862  
      9731       9732       9743       9742       9852       9853       9864       9863  
      9732       9733       9744       9743       9853       9854       9865       9864  
      9733       9734       9745       9744       9854       9855       9866       9865  
      9734       9735       9746       9745       9855       9856       9867       9866  
      9736       9737       9748       9747       9857       9858       9869       9868  
      9737       9738       9749       9748       9858       9859       9870       9869  
      9738       9739       9750       9749       9859       9860       9871       9870  
      9739       9740       9751       9750       9860       9861       9872       9871  
      9740       9741       9752       9751       9861       9862       9873       9872  
      9741       9742       9753       9752       9862       9863       9874       9873  
      9742       9743       9754       9753       9863       9864       9875       9874  
      9743       9744       9755       9754       9864       9865       9876       9875  
      9744       9745       9756       9755       9865       9866       9877       9876  
      9745       9746       9757       9756       9866       9867       9878       9877  
      9747       9748       9759       9758       9868       9869       9880       9879  
      9748       9749       9760       9759       9869       9870       9881       9880  
      9749       9750       9761       9760       9870       9871       9882       9881  
      9750       9751       9762       9761       9871       9872       9883       9882  
      9751       9752       9763       9762       9872       9873       9884       9883  
      9752       9753       9764       9763       9873       9874       9885       9884  
      9753       9754       9765       9764       9874       9875       9886       9885  
      9754       9755       9766       9765       9875       9876       9887       9886  
      9755       9756       9767       9766       9876       9877       9888       9887  
      9756       9757       9768       9767       9877       9878       9889       9888  
      9758       9759       9770       9769       9879       9880       9891       9890  
      9759       9760       9771       9770       9880       9881       9892       9891  
      9760       9761       9772       9771       9881       9882       9893       9892  
      9761       9762       9773       9772       9882       9883       9894       9893  
      9762       9763       9774       9773       9883       9884       9895       9894  
      9763       9764       9775       9774       9884       9885       9896       9895  
      9764       9765       9776       9775       9885       9886       9897       9896  
      9765       9766       9777       9776       9886       9887       9898       9897  
      9766       9767       9778       9777       9887       9888       9899       9898  
      9767       9768       9779       9778       9888       9889       9900       9899  
      9769       9770       9781       9780       9890       9891       9902       9901  
      9770       9771       9782       9781       9891       9892       9903       9902  
      9771       9772       9783       9782       9892       9893       9904       9903  
      9772       9773       9784       9783       9893       9894       9905       9904  
      9773       9774       9785       9784       9894       9895       9906       9905  
      9774       9775       9786       9785       9895       9896       9907       9906  
      9775       9776       9787       9786       9896       9897       9908       9907  
      9776       9777       9788       9787       9897       9898       9909       9908  
      9777       9778       9789       9788       9898       9899       9910       9909  
      9778       9779       9790       9789       9899       9900       9911       9910  
      9780       9781       9792       9791       9901       9902       9913       9912  
      9781       9782       9793       9792       9902       9903       9914       9913  
      9782       9783       9794       9793       9903       9904       9915       9914  
      9783       9784       9795       9794       9904       9905       9916       9915  
      9784       9785       9796       9795       9905       9906       9917       9916  
      9785       9786       9797       9796       9906       9907       9918       9917  
      9786       9787       9798       9797       9907       9908       9919       9918  
      9787       9788       9799       9798       9908       9909       9920       9919  
      9788       9789       9800       9799       9909       9910       9921       9920  
      9789       9790       9801       9800       9910       9911       9922       9921  
      9802       9803       9814       9813       9923       9924       9935       9934  
      9803       9804       9815       9814       9924       9925       9936       9935  
      9804       9805       9816       9815       9925       9926       9937       9936  
      9805       9806       9817       9816       9926       9927       9938       9937  
      9806       9807       9818       9817       9927       9928       9939       9938  
      9807       9808       9819       9818       9928       9929       9940       9939  
      9808       9809       9820       9819       9929       9930       9941       9940  
      9809       9810       9821       9820       9930       9931       9942       9941  
      9810       9811       9822       9821       9931       9932       9943       9942  
      9811       9812       9823       9822       9932       9933       9944       9943  
      9813       9814       9825       9824       9934       9935       9946       9945  
      9814       9815       9826       9825       9935       9936       9947       9946  
      9815       9816       9827       9826       9936       9937       9948       9947  
      9816       9817       9828       9827       9937       9938       9949       9948  
      9817       9818       9829       9828       9938       9939       9950       9949  
      9818       9819       9830       9829       9939       9940       9951       9950  
      9819       9820       9831       9830       9940       9941       9952       9951  
      9820       9821       9832       9831       9941       9942       9953       9952  
      9821       9822       9833       9832       9942       9943       9954       9953  
      9822       9823       9834       9833       9943       9944       9955       9954  
      9824       9825       9836       9835       9945       9946       9957       9956  
      9825       9826       9837       9836       9946       9947       9958       9957  
      9826       9827       9838       9837       9947       9948       9959       9958  
      9827       9828       9839       9838       9948       9949       9960       9959  
      9828       9829       9840       9839       9949       9950       9961       9960  
      9829       9830       9841       9840       9950       9951       9962       9961  
      9830       9831       9842       9841       9951       9952       9963       9962  
      9831       9832       9843       9842       9952       9953       9964       9963  
      9832       9833       9844       9843       9953       9954       9965       9964  
      9833       9834       9845       9844       9954       9955       9966       9965  
      9835       9836       9847       9846       9956       9957       9968       9967  
      9836       9837       9848       9847       9957       9958       9969       9968  
      9837       9838       9849       9848       9958       9959       9970       9969  
      9838       9839       9850       9849       9959       9960       9971       9970  
      9839       9840       9851       9850       9960       9961       9972       9971  
      9840       9841       9852       9851       9961       9962       9973       9972  
      9841       9842       9853       9852       9962       9963       9974       9973  
      9842       9843       9854       9853       9963       9964       9975       9974  
      9843       9844       9855       9854       9964       9965       9976       9975  
      9844       9845       9856       9855       9965       9966       9977       9976  
      9846       9847       9858       9857       9967       9968       9979       9978  
      9847       9848       9859       9858       9968       9969       9980       9979  
      9848       9849       9860       9859       9969       9970       9981       9980  
      9849       9850       9861       9860       9970       9971       9982       9981  
      9850       9851       9862       9861       9971       9972       9983       9982  
      9851       9852       9863       9862       9972       9973       9984       9983  
      9852       9853       9864       9863       9973       9974       9985       9984  
      9853       9854       9865       9864       9974       9975       9986       9985  
      9854       9855       9866       9865       9975       9976       9987       9986  
      9855       9856       9867       9866       9976       9977       9988       9987  
      9857       9858       9869       9868       9978       9979       9990       9989  
      9858       9859       9870       9869       9979       9980       9991       9990  
      9859       9860       9871       9870       9980       9981       9992       9991  
      9860       9861       9872       9871       9981       9982       9993       9992  
      9861       9862       9873       9872       9982       9983       9994       9993  
      9862       9863       9874       9873       9983       9984       9995       9994  
      9863       9864       9875       9874       9984       9985       9996       9995  
      9864       9865       9876       9875       9985       9986       9997       9996  
      9865       9866       9877       9876       9986       9987       9998       9997  
      9866       9867       9878       9877       9987       9988       9999       9998  
      9868       9869       9880       9879       9989       9990      10001      10000  
      9869       9870       9881       9880       9990       9991      10002      10001  
      9870       9871       9882       9881       9991       9992      10003      10002  
      9871       9872       9883       9882       9992       9993      10004      10003  
      9872       9873       9884       9883       9993       9994      10005      10004  
      9873       9874       9885       9884       9994       9995      10006      10005  
      9874       9875       9886       9885       9995       9996      10007      10006  
      9875       9876       9887       9886       9996       9997      10008      10007  
      9876       9877       9888       9887       9997       9998      10009      10008  
      9877       9878       9889       9888       9998       9999      10010      10009  
      9879       9880       9891       9890      10000      10001      10012      10011  
      9880       9881       9892       9891      10001      10002      10013      10012  
      9881       9882       9893       9892      10002      10003      10014      10013  
      9882       9883       9894       9893      10003      10004      10015      10014  
      9883       9884       9895       9894      10004      10005      10016      10015  
      9884       9885       9896       9895      10005      10006      10017      10016  
      9885       9886       9897       9896      10006      10007      10018      10017  
      9886       9887       9898       9897      10007      10008      10019      10018  
      9887       9888       9899       9898      10008      10009      10020      10019  
      9888       9889       9900       9899      10009      10010      10021      10020  
      9890       9891       9902       9901      10011      10012      10023      10022  
      9891       9892       9903       9902      10012      10013      10024      10023  
      9892       9893       9904       9903      10013      10014      10025      10024  
      9893       9894       9905       9904      10014      10015      10026      10025  
      9894       9895       9906       9905      10015      10016      10027      10026  
      9895       9896       9907       9906      10016      10017      10028      10027  
      9896       9897       9908       9907      10017      10018      10029      10028  
      9897       9898       9909       9908      10018      10019      10030      10029  
      9898       9899       9910       9909      10019      10020      10031      10030  
      9899       9900       9911       9910      10020      10021      10032      10031  
      9901       9902       9913       9912      10022      10023      10034      10033  
      9902       9903       9914       9913      10023      10024      10035      10034  
      9903       9904       9915       9914      10024      10025      10036      10035  
      9904       9905       9916       9915      10025      10026      10037      10036  
      9905       9906       9917       9916      10026      10027      10038      10037  
      9906       9907       9918       9917      10027      10028      10039      10038  
      9907       9908       9919       9918      10028      10029      10040      10039  
      9908       9909       9920       9919      10029      10030      10041      10040  
      9909       9910       9921       9920      10030      10031      10042      10041  
      9910       9911       9922       9921      10031      10032      10043      10042  
      9923       9924       9935       9934      10044      10045      10056      10055  
      9924       9925       9936       9935      10045      10046      10057      10056  
      9925       9926       9937       9936      10046      10047      10058      10057  
      9926       9927       9938       9937      10047      10048      10059      10058  
      9927       9928       9939       9938      10048      10049      10060      10059  
      9928       9929       9940       9939      10049      10050      10061      10060  
      9929       9930       9941       9940      10050      10051      10062      10061  
      9930       9931       9942       9941      10051      10052      10063      10062  
      9931       9932       9943       9942      10052      10053      10064      10063  
      9932       9933       9944       9943      10053      10054      10065      10064  
      9934       9935       9946       9945      10055      10056      10067      10066  
      9935       9936       9947       9946      10056      10057      10068      10067  
      9936       9937       9948       9947      10057      10058      10069      10068  
      9937       9938       9949       9948      10058      10059      10070      10069  
      9938       9939       9950       9949      10059      10060      10071      10070  
      9939       9940       9951       9950      10060      10061      10072      10071  
      9940       9941       9952       9951      10061      10062      10073      10072  
      9941       9942       9953       9952      10062      10063      10074      10073  
      9942       9943       9954       9953      10063      10064      10075      10074  
      9943       9944       9955       9954      10064      10065      10076      10075  
      9945       9946       9957       9956      10066      10067      10078      10077  
      9946       9947       9958       9957      10067      10068      10079      10078  
      9947       9948       9959       9958      10068      10069      10080      10079  
      9948       9949       9960       9959      10069      10070      10081      10080  
      9949       9950       9961       9960      10070      10071      10082      10081  
      9950       9951       9962       9961      10071      10072      10083      10082  
      9951       9952       9963       9962      10072      10073      10084      10083  
      9952       9953       9964       9963      10073      10074      10085      10084  
      9953       9954       9965       9964      10074      10075      10086      10085  
      9954       9955       9966       9965      10075      10076      10087      10086  
      9956       9957       9968       9967      10077      10078      10089      10088  
      9957       9958       9969       9968      10078      10079      10090      10089  
      9958       9959       9970       9969      10079      10080      10091      10090  
      9959       9960       9971       9970      10080      10081      10092      10091  
      9960       9961       9972       9971      10081      10082      10093      10092  
      9961       9962       9973       9972      10082      10083      10094      10093  
      9962       9963       9974       9973      10083      10084      10095      10094  
      9963       9964       9975       9974      10084      10085      10096      10095  
      9964       9965       9976       9975      10085      10086      10097      10096  
      9965       9966       9977       9976      10086      10087      10098      10097  
      9967       9968       9979       9978      10088      10089      10100      10099  
      9968       9969       9980       9979      10089      10090      10101      10100  
      9969       9970       9981       9980      10090      10091      10102      10101  
      9970       9971       9982       9981      10091      10092      10103      10102  
      9971       9972       9983       9982      10092      10093      10104      10103  
      9972       9973       9984       9983      10093      10094      10105      10104  
      9973       9974       9985       9984      10094      10095      10106      10105  
      9974       9975       9986       9985      10095      10096      10107      10106  
      9975       9976       9987       9986      10096      10097      10108      10107  
      9976       9977       9988       9987      10097      10098      10109      10108  
      9978       9979       9990       9989      10099      10100      10111      10110  
      9979       9980       9991       9990      10100      10101      10112      10111  
      9980       9981       9992       9991      10101      10102      10113      10112  
      9981       9982       9993       9992      10102      10103      10114      10113  
      9982       9983       9994       9993      10103      10104      10115      10114  
      9983       9984       9995       9994      10104      10105      10116      10115  
      9984       9985       9996       9995      10105      10106      10117      10116  
      9985       9986       9997       9996      10106      10107      10118      10117  
      9986       9987       9998       9997      10107      10108      10119      10118  
      9987       9988       9999       9998      10108      10109      10120      10119  
      9989       9990      10001      10000      10110      10111      10122      10121  
      9990       9991      10002      10001      10111      10112      10123      10122  
      9991       9992      10003      10002      10112      10113      10124      10123  
      9992       9993      10004      10003      10113      10114      10125      10124  
      9993       9994      10005      10004      10114      10115      10126      10125  
      9994       9995      10006      10005      10115      10116      10127      10126  
      9995       9996      10007      10006      10116      10117      10128      10127  
      9996       9997      10008      10007      10117      10118      10129      10128  
      9997       9998      10009      10008      10118      10119      10130      10129  
      9998       9999      10010      10009      10119      10120      10131      10130  
     10000      10001      10012      10011      10121      10122      10133      10132  
     10001      10002      10013      10012      10122      10123      10134      10133  
     10002      10003      10014      10013      10123      10124      10135      10134  
     10003      10004      10015      10014      10124      10125      10136      10135  
     10004      10005      10016      10015      10125      10126      10137      10136  
     10005      10006      10017      10016      10126      10127      10138      10137  
     10006      10007      10018      10017      10127      10128      10139      10138  
     10007      10008      10019      10018      10128      10129      10140      10139  
     10008      10009      10020      10019      10129      10130      10141      10140  
     10009      10010      10021      10020      10130      10131      10142      10141  
     10011      10012      10023      10022      10132      10133      10144      10143  
     10012      10013      10024      10023      10133      10134      10145      10144  
     10013      10014      10025      10024      10134      10135      10146      10145  
     10014      10015      10026      10025      10135      10136      10147      10146  
     10015      10016      10027      10026      10136      10137      10148      10147  
     10016      10017      10028      10027      10137      10138      10149      10148  
     10017      10018      10029      10028      10138      10139      10150      10149  
     10018      10019      10030      10029      10139      10140      10151      10150  
     10019      10020      10031      10030      10140      10141      10152      10151  
     10020      10021      10032      10031      10141      10142      10153      10152  
     10022      10023      10034      10033      10143      10144      10155      10154  
     10023      10024      10035      10034      10144      10145      10156      10155  
     10024      10025      10036      10035      10145      10146      10157      10156  
     10025      10026      10037      10036      10146      10147      10158      10157  
     10026      10027      10038      10037      10147      10148      10159      10158  
     10027      10028      10039      10038      10148      10149      10160      10159  
     10028      10029      10040      10039      10149      10150      10161      10160  
     10029      10030      10041      10040      10150      10151      10162      10161  
     10030      10031      10042      10041      10151      10152      10163      10162  
     10031      10032      10043      10042      10152      10153      10164      10163  
     10044      10045      10056      10055      10165      10166      10177      10176  
     10045      10046      10057      10056      10166      10167      10178      10177  
     10046      10047      10058      10057      10167      10168      10179      10178  
     10047      10048      10059      10058      10168      10169      10180      10179  
     10048      10049      10060      10059      10169      10170      10181      10180  
     10049      10050      10061      10060      10170      10171      10182      10181  
     10050      10051      10062      10061      10171      10172      10183      10182  
     10051      10052      10063      10062      10172      10173      10184      10183  
     10052      10053      10064      10063      10173      10174      10185      10184  
     10053      10054      10065      10064      10174      10175      10186      10185  
     10055      10056      10067      10066      10176      10177      10188      10187  
     10056      10057      10068      10067      10177      10178      10189      10188  
     10057      10058      10069      10068      10178      10179      10190      10189  
     10058      10059      10070      10069      10179      10180      10191      10190  
     10059      10060      10071      10070      10180      10181      10192      10191  
     10060      10061      10072      10071      10181      10182      10193      10192  
     10061      10062      10073      10072      10182      10183      10194      10193  
     10062      10063      10074      10073      10183      10184      10195      10194  
     10063      10064      10075      10074      10184      10185      10196      10195  
     10064      10065      10076      10075      10185      10186      10197      10196  
     10066      10067      10078      10077      10187      10188      10199      10198  
     10067      10068      10079      10078      10188      10189      10200      10199  
     10068      10069      10080      10079      10189      10190      10201      10200  
     10069      10070      10081      10080      10190      10191      10202      10201  
     10070      10071      10082      10081      10191      10192      10203      10202  
     10071      10072      10083      10082      10192      10193      10204      10203  
     10072      10073      10084      10083      10193      10194      10205      10204  
     10073      10074      10085      10084      10194      10195      10206      10205  
     10074      10075      10086      10085      10195      10196      10207      10206  
     10075      10076      10087      10086      10196      10197      10208      10207  
     10077      10078      10089      10088      10198      10199      10210      10209  
     10078      10079      10090      10089      10199      10200      10211      10210  
     10079      10080      10091      10090      10200      10201      10212      10211  
     10080      10081      10092      10091      10201      10202      10213      10212  
     10081      10082      10093      10092      10202      10203      10214      10213  
     10082      10083      10094      10093      10203      10204      10215      10214  
     10083      10084      10095      10094      10204      10205      10216      10215  
     10084      10085      10096      10095      10205      10206      10217      10216  
     10085      10086      10097      10096      10206      10207      10218      10217  
     10086      10087      10098      10097      10207      10208      10219      10218  
     10088      10089      10100      10099      10209      10210      10221      10220  
     10089      10090      10101      10100      10210      10211      10222      10221  
     10090      10091      10102      10101      10211      10212      10223      10222  
     10091      10092      10103      10102      10212      10213      10224      10223  
     10092      10093      10104      10103      10213      10214      10225      10224  
     10093      10094      10105      10104      10214      10215      10226      10225  
     10094      10095      10106      10105      10215      10216      10227      10226  
     10095      10096      10107      10106      10216      10217      10228      10227  
     10096      10097      10108      10107      10217      10218      10229      10228  
     10097      10098      10109      10108      10218      10219      10230      10229  
     10099      10100      10111      10110      10220      10221      10232      10231  
     10100      10101      10112      10111      10221      10222      10233      10232  
     10101      10102      10113      10112      10222      10223      10234      10233  
     10102      10103      10114      10113      10223      10224      10235      10234  
     10103      10104      10115      10114      10224      10225      10236      10235  
     10104      10105      10116      10115      10225      10226      10237      10236  
     10105      10106      10117      10116      10226      10227      10238      10237  
     10106      10107      10118      10117      10227      10228      10239      10238  
     10107      10108      10119      10118      10228      10229      10240      10239  
     10108      10109      10120      10119      10229      10230      10241      10240  
     10110      10111      10122      10121      10231      10232      10243      10242  
     10111      10112      10123      10122      10232      10233      10244      10243  
     10112      10113      10124      10123      10233      10234      10245      10244  
     10113      10114      10125      10124      10234      10235      10246      10245  
     10114      10115      10126      10125      10235      10236      10247      10246  
     10115      10116      10127      10126      10236      10237      10248      10247  
     10116      10117      10128      10127      10237      10238      10249      10248  
     10117      10118      10129      10128      10238      10239      10250      10249  
     10118      10119      10130      10129      10239      10240      10251      10250  
     10119      10120      10131      10130      10240      10241      10252      10251  
     10121      10122      10133      10132      10242      10243      10254      10253  
     10122      10123      10134      10133      10243      10244      10255      10254  
     10123      10124      10135      10134      10244      10245      10256      10255  
     10124      10125      10136      10135      10245      10246      10257      10256  
     10125      10126      10137      10136      10246      10247      10258      10257  
     10126      10127      10138      10137      10247      10248      10259      10258  
     10127      10128      10139      10138      10248      10249      10260      10259  
     10128      10129      10140      10139      10249      10250      10261      10260  
     10129      10130      10141      10140      10250      10251      10262      10261  
     10130      10131      10142      10141      10251      10252      10263      10262  
     10132      10133      10144      10143      10253      10254      10265      10264  
     10133      10134      10145      10144      10254      10255      10266      10265  
     10134      10135      10146      10145      10255      10256      10267      10266  
     10135      10136      10147      10146      10256      10257      10268      10267  
     10136      10137      10148      10147      10257      10258      10269      10268  
     10137      10138      10149      10148      10258      10259      10270      10269  
     10138      10139      10150      10149      10259      10260      10271      10270  
     10139      10140      10151      10150      10260      10261      10272      10271  
     10140      10141      10152      10151      10261      10262      10273      10272  
     10141      10142      10153      10152      10262      10263      10274      10273  
     10143      10144      10155      10154      10264      10265      10276      10275  
     10144      10145      10156      10155      10265      10266      10277      10276  
     10145      10146      10157      10156      10266      10267      10278      10277  
     10146      10147      10158      10157      10267      10268      10279      10278  
     10147      10148      10159      10158      10268      10269      10280      10279  
     10148      10149      10160      10159      10269      10270      10281      10280  
     10149      10150      10161      10160      10270      10271      10282      10281  
     10150      10151      10162      10161      10271      10272      10283      10282  
     10151      10152      10163      10162      10272      10273      10284      10283  
     10152      10153      10164      10163      10273      10274      10285      10284  
     10165      10166      10177      10176      10286      10287      10298      10297  
     10166      10167      10178      10177      10287      10288      10299      10298  
     10167      10168      10179      10178      10288      10289      10300      10299  
     10168      10169      10180      10179      10289      10290      10301      10300  
     10169      10170      10181      10180      10290      10291      10302      10301  
     10170      10171      10182      10181      10291      10292      10303      10302  
     10171      10172      10183      10182      10292      10293      10304      10303  
     10172      10173      10184      10183      10293      10294      10305      10304  
     10173      10174      10185      10184      10294      10295      10306      10305  
     10174      10175      10186      10185      10295      10296      10307      10306  
     10176      10177      10188      10187      10297      10298      10309      10308  
     10177      10178      10189      10188      10298      10299      10310      10309  
     10178      10179      10190      10189      10299      10300      10311      10310  
     10179      10180      10191      10190      10300      10301      10312      10311  
     10180      10181      10192      10191      10301      10302      10313      10312  
     10181      10182      10193      10192      10302      10303      10314      10313  
     10182      10183      10194      10193      10303      10304      10315      10314  
     10183      10184      10195      10194      10304      10305      10316      10315  
     10184      10185      10196      10195      10305      10306      10317      10316  
     10185      10186      10197      10196      10306      10307      10318      10317  
     10187      10188      10199      10198      10308      10309      10320      10319  
     10188      10189      10200      10199      10309      10310      10321      10320  
     10189      10190      10201      10200      10310      10311      10322      10321  
     10190      10191      10202      10201      10311      10312      10323      10322  
     10191      10192      10203      10202      10312      10313      10324      10323  
     10192      10193      10204      10203      10313      10314      10325      10324  
     10193      10194      10205      10204      10314      10315      10326      10325  
     10194      10195      10206      10205      10315      10316      10327      10326  
     10195      10196      10207      10206      10316      10317      10328      10327  
     10196      10197      10208      10207      10317      10318      10329      10328  
     10198      10199      10210      10209      10319      10320      10331      10330  
     10199      10200      10211      10210      10320      10321      10332      10331  
     10200      10201      10212      10211      10321      10322      10333      10332  
     10201      10202      10213      10212      10322      10323      10334      10333  
     10202      10203      10214      10213      10323      10324      10335      10334  
     10203      10204      10215      10214      10324      10325      10336      10335  
     10204      10205      10216      10215      10325      10326      10337      10336  
     10205      10206      10217      10216      10326      10327      10338      10337  
     10206      10207      10218      10217      10327      10328      10339      10338  
     10207      10208      10219      10218      10328      10329      10340      10339  
     10209      10210      10221      10220      10330      10331      10342      10341  
     10210      10211      10222      10221      10331      10332      10343      10342  
     10211      10212      10223      10222      10332      10333      10344      10343  
     10212      10213      10224      10223      10333      10334      10345      10344  
     10213      10214      10225      10224      10334      10335      10346      10345  
     10214      10215      10226      10225      10335      10336      10347      10346  
     10215      10216      10227      10226      10336      10337      10348      10347  
     10216      10217      10228      10227      10337      10338      10349      10348  
     10217      10218      10229      10228      10338      10339      10350      10349  
     10218      10219      10230      10229      10339      10340      10351      10350  
     10220      10221      10232      10231      10341      10342      10353      10352  
     10221      10222      10233      10232      10342      10343      10354      10353  
     10222      10223      10234      10233      10343      10344      10355      10354  
     10223      10224      10235      10234      10344      10345      10356      10355  
     10224      10225      10236      10235      10345      10346      10357      10356  
     10225      10226      10237      10236      10346      10347      10358      10357  
     10226      10227      10238      10237      10347      10348      10359      10358  
     10227      10228      10239      10238      10348      10349      10360      10359  
     10228      10229      10240      10239      10349      10350      10361      10360  
     10229      10230      10241      10240      10350      10351      10362      10361  
     10231      10232      10243      10242      10352      10353      10364      10363  
     10232      10233      10244      10243      10353      10354      10365      10364  
     10233      10234      10245      10244      10354      10355      10366      10365  
     10234      10235      10246      10245      10355      10356      10367      10366  
     10235      10236      10247      10246      10356      10357      10368      10367  
     10236      10237      10248      10247      10357      10358      10369      10368  
     10237      10238      10249      10248      10358      10359      10370      10369  
     10238      10239      10250      10249      10359      10360      10371      10370  
     10239      10240      10251      10250      10360      10361      10372      10371  
     10240      10241      10252      10251      10361      10362      10373      10372  
     10242      10243      10254      10253      10363      10364      10375      10374  
     10243      10244      10255      10254      10364      10365      10376      10375  
     10244      10245      10256      10255      10365      10366      10377      10376  
     10245      10246      10257      10256      10366      10367      10378      10377  
     10246      10247      10258      10257      10367      10368      10379      10378  
     10247      10248      10259      10258      10368      10369      10380      10379  
     10248      10249      10260      10259      10369      10370      10381      10380  
     10249      10250      10261      10260      10370      10371      10382      10381  
     10250      10251      10262      10261      10371      10372      10383      10382  
     10251      10252      10263      10262      10372      10373      10384      10383  
     10253      10254      10265      10264      10374      10375      10386      10385  
     10254      10255      10266      10265      10375      10376      10387      10386  
     10255      10256      10267      10266      10376      10377      10388      10387  
     10256      10257      10268      10267      10377      10378      10389      10388  
     10257      10258      10269      10268      10378      10379      10390      10389  
     10258      10259      10270      10269      10379      10380      10391      10390  
     10259      10260      10271      10270      10380      10381      10392      10391  
     10260      10261      10272      10271      10381      10382      10393      10392  
     10261      10262      10273      10272      10382      10383      10394      10393  
     10262      10263      10274      10273      10383      10384      10395      10394  
     10264      10265      10276      10275      10385      10386      10397      10396  
     10265      10266      10277      10276      10386      10387      10398      10397  
     10266      10267      10278      10277      10387      10388      10399      10398  
     10267      10268      10279      10278      10388      10389      10400      10399  
     10268      10269      10280      10279      10389      10390      10401      10400  
     10269      10270      10281      10280      10390      10391      10402      10401  
     10270      10271      10282      10281      10391      10392      10403      10402  
     10271      10272      10283      10282      10392      10393      10404      10403  
     10272      10273      10284      10283      10393      10394      10405      10404  
     10273      10274      10285      10284      10394      10395      10406      10405  
     10286      10287      10298      10297      10407      10408      10419      10418  
     10287      10288      10299      10298      10408      10409      10420      10419  
     10288      10289      10300      10299      10409      10410      10421      10420  
     10289      10290      10301      10300      10410      10411      10422      10421  
     10290      10291      10302      10301      10411      10412      10423      10422  
     10291      10292      10303      10302      10412      10413      10424      10423  
     10292      10293      10304      10303      10413      10414      10425      10424  
     10293      10294      10305      10304      10414      10415      10426      10425  
     10294      10295      10306      10305      10415      10416      10427      10426  
     10295      10296      10307      10306      10416      10417      10428      10427  
     10297      10298      10309      10308      10418      10419      10430      10429  
     10298      10299      10310      10309      10419      10420      10431      10430  
     10299      10300      10311      10310      10420      10421      10432      10431  
     10300      10301      10312      10311      10421      10422      10433      10432  
     10301      10302      10313      10312      10422      10423      10434      10433  
     10302      10303      10314      10313      10423      10424      10435      10434  
     10303      10304      10315      10314      10424      10425      10436      10435  
     10304      10305      10316      10315      10425      10426      10437      10436  
     10305      10306      10317      10316      10426      10427      10438      10437  
     10306      10307      10318      10317      10427      10428      10439      10438  
     10308      10309      10320      10319      10429      10430      10441      10440  
     10309      10310      10321      10320      10430      10431      10442      10441  
     10310      10311      10322      10321      10431      10432      10443      10442  
     10311      10312      10323      10322      10432      10433      10444      10443  
     10312      10313      10324      10323      10433      10434      10445      10444  
     10313      10314      10325      10324      10434      10435      10446      10445  
     10314      10315      10326      10325      10435      10436      10447      10446  
     10315      10316      10327      10326      10436      10437      10448      10447  
     10316      10317      10328      10327      10437      10438      10449      10448  
     10317      10318      10329      10328      10438      10439      10450      10449  
     10319      10320      10331      10330      10440      10441      10452      10451  
     10320      10321      10332      10331      10441      10442      10453      10452  
     10321      10322      10333      10332      10442      10443      10454      10453  
     10322      10323      10334      10333      10443      10444      10455      10454  
     10323      10324      10335      10334      10444      10445      10456      10455  
     10324      10325      10336      10335      10445      10446      10457      10456  
     10325      10326      10337      10336      10446      10447      10458      10457  
     10326      10327      10338      10337      10447      10448      10459      10458  
     10327      10328      10339      10338      10448      10449      10460      10459  
     10328      10329      10340      10339      10449      10450      10461      10460  
     10330      10331      10342      10341      10451      10452      10463      10462  
     10331      10332      10343      10342      10452      10453      10464      10463  
     10332      10333      10344      10343      10453      10454      10465      10464  
     10333      10334      10345      10344      10454      10455      10466      10465  
     10334      10335      10346      10345      10455      10456      10467      10466  
     10335      10336      10347      10346      10456      10457      10468      10467  
     10336      10337      10348      10347      10457      10458      10469      10468  
     10337      10338      10349      10348      10458      10459      10470      10469  
     10338      10339      10350      10349      10459      10460      10471      10470  
     10339      10340      10351      10350      10460      10461      10472      10471  
     10341      10342      10353      10352      10462      10463      10474      10473  
     10342      10343      10354      10353      10463      10464      10475      10474  
     10343      10344      10355      10354      10464      10465      10476      10475  
     10344      10345      10356      10355      10465      10466      10477      10476  
     10345      10346      10357      10356      10466      10467      10478      10477  
     10346      10347      10358      10357      10467      10468      10479      10478  
     10347      10348      10359      10358      10468      10469      10480      10479  
     10348      10349      10360      10359      10469      10470      10481      10480  
     10349      10350      10361      10360      10470      10471      10482      10481  
     10350      10351      10362      10361      10471      10472      10483      10482  
     10352      10353      10364      10363      10473      10474      10485      10484  
     10353      10354      10365      10364      10474      10475      10486      10485  
     10354      10355      10366      10365      10475      10476      10487      10486  
     10355      10356      10367      10366      10476      10477      10488      10487  
     10356      10357      10368      10367      10477      10478      10489      10488  
     10357      10358      10369      10368      10478      10479      10490      10489  
     10358      10359      10370      10369      10479      10480      10491      10490  
     10359      10360      10371      10370      10480      10481      10492      10491  
     10360      10361      10372      10371      10481      10482      10493      10492  
     10361      10362      10373      10372      10482      10483      10494      10493  
     10363      10364      10375      10374      10484      10485      10496      10495  
     10364      10365      10376      10375      10485      10486      10497      10496  
     10365      10366      10377      10376      10486      10487      10498      10497  
     10366      10367      10378      10377      10487      10488      10499      10498  
     10367      10368      10379      10378      10488      10489      10500      10499  
     10368      10369      10380      10379      10489      10490      10501      10500  
     10369      10370      10381      10380      10490      10491      10502      10501  
     10370      10371      10382      10381      10491      10492      10503      10502  
     10371      10372      10383      10382      10492      10493      10504      10503  
     10372      10373      10384      10383      10493      10494      10505      10504  
     10374      10375      10386      10385      10495      10496      10507      10506  
     10375      10376      10387      10386      10496      10497      10508      10507  
     10376      10377      10388      10387      10497      10498      10509      10508  
     10377      10378      10389      10388      10498      10499      10510      10509  
     10378      10379      10390      10389      10499      10500      10511      10510  
     10379      10380      10391      10390      10500      10501      10512      10511  
     10380      10381      10392      10391      10501      10502      10513      10512  
     10381      10382      10393      10392      10502      10503      10514      10513  
     10382      10383      10394      10393      10503      10504      10515      10514  
     10383      10384      10395      10394      10504      10505      10516      10515  
     10385      10386      10397      10396      10506      10507      10518      10517  
     10386      10387      10398      10397      10507      10508      10519      10518  
     10387      10388      10399      10398      10508      10509      10520      10519  
     10388      10389      10400      10399      10509      10510      10521      10520  
     10389      10390      10401      10400      10510      10511      10522      10521  
     10390      10391      10402      10401      10511      10512      10523      10522  
     10391      10392      10403      10402      10512      10513      10524      10523  
     10392      10393      10404      10403      10513      10514      10525      10524  
     10393      10394      10405      10404      10514      10515      10526      10525  
     10394      10395      10406      10405      10515      10516      10527      10526  
     10407      10408      10419      10418      10528      10529      10540      10539  
     10408      10409      10420      10419      10529      10530      10541      10540  
     10409      10410      10421      10420      10530      10531      10542      10541  
     10410      10411      10422      10421      10531      10532      10543      10542  
     10411      10412      10423      10422      10532      10533      10544      10543  
     10412      10413      10424      10423      10533      10534      10545      10544  
     10413      10414      10425      10424      10534      10535      10546      10545  
     10414      10415      10426      10425      10535      10536      10547      10546  
     10415      10416      10427      10426      10536      10537      10548      10547  
     10416      10417      10428      10427      10537      10538      10549      10548  
     10418      10419      10430      10429      10539      10540      10551      10550  
     10419      10420      10431      10430      10540      10541      10552      10551  
     10420      10421      10432      10431      10541      10542      10553      10552  
     10421      10422      10433      10432      10542      10543      10554      10553  
     10422      10423      10434      10433      10543      10544      10555      10554  
     10423      10424      10435      10434      10544      10545      10556      10555  
     10424      10425      10436      10435      10545      10546      10557      10556  
     10425      10426      10437      10436      10546      10547      10558      10557  
     10426      10427      10438      10437      10547      10548      10559      10558  
     10427      10428      10439      10438      10548      10549      10560      10559  
     10429      10430      10441      10440      10550      10551      10562      10561  
     10430      10431      10442      10441      10551      10552      10563      10562  
     10431      10432      10443      10442      10552      10553      10564      10563  
     10432      10433      10444      10443      10553      10554      10565      10564  
     10433      10434      10445      10444      10554      10555      10566      10565  
     10434      10435      10446      10445      10555      10556      10567      10566  
     10435      10436      10447      10446      10556      10557      10568      10567  
     10436      10437      10448      10447      10557      10558      10569      10568  
     10437      10438      10449      10448      10558      10559      10570      10569  
     10438      10439      10450      10449      10559      10560      10571      10570  
     10440      10441      10452      10451      10561      10562      10573      10572  
     10441      10442      10453      10452      10562      10563      10574      10573  
     10442      10443      10454      10453      10563      10564      10575      10574  
     10443      10444      10455      10454      10564      10565      10576      10575  
     10444      10445      10456      10455      10565      10566      10577      10576  
     10445      10446      10457      10456      10566      10567      10578      10577  
     10446      10447      10458      10457      10567      10568      10579      10578  
     10447      10448      10459      10458      10568      10569      10580      10579  
     10448      10449      10460      10459      10569      10570      10581      10580  
     10449      10450      10461      10460      10570      10571      10582      10581  
     10451      10452      10463      10462      10572      10573      10584      10583  
     10452      10453      10464      10463      10573      10574      10585      10584  
     10453      10454      10465      10464      10574      10575      10586      10585  
     10454      10455      10466      10465      10575      10576      10587      10586  
     10455      10456      10467      10466      10576      10577      10588      10587  
     10456      10457      10468      10467      10577      10578      10589      10588  
     10457      10458      10469      10468      10578      10579      10590      10589  
     10458      10459      10470      10469      10579      10580      10591      10590  
     10459      10460      10471      10470      10580      10581      10592      10591  
     10460      10461      10472      10471      10581      10582      10593      10592  
     10462      10463      10474      10473      10583      10584      10595      10594  
     10463      10464      10475      10474      10584      10585      10596      10595  
     10464      10465      10476      10475      10585      10586      10597      10596  
     10465      10466      10477      10476      10586      10587      10598      10597  
     10466      10467      10478      10477      10587      10588      10599      10598  
     10467      10468      10479      10478      10588      10589      10600      10599  
     10468      10469      10480      10479      10589      10590      10601      10600  
     10469      10470      10481      10480      10590      10591      10602      10601  
     10470      10471      10482      10481      10591      10592      10603      10602  
     10471      10472      10483      10482      10592      10593      10604      10603  
     10473      10474      10485      10484      10594      10595      10606      10605  
     10474      10475      10486      10485      10595      10596      10607      10606  
     10475      10476      10487      10486      10596      10597      10608      10607  
     10476      10477      10488      10487      10597      10598      10609      10608  
     10477      10478      10489      10488      10598      10599      10610      10609  
     10478      10479      10490      10489      10599      10600      10611      10610  
     10479      10480      10491      10490      10600      10601      10612      10611  
     10480      10481      10492      10491      10601      10602      10613      10612  
     10481      10482      10493      10492      10602      10603      10614      10613  
     10482      10483      10494      10493      10603      10604      10615      10614  
     10484      10485      10496      10495      10605      10606      10617      10616  
     10485      10486      10497      10496      10606      10607      10618      10617  
     10486      10487      10498      10497      10607      10608      10619      10618  
     10487      10488      10499      10498      10608      10609      10620      10619  
     10488      10489      10500      10499      10609      10610      10621      10620  
     10489      10490      10501      10500      10610      10611      10622      10621  
     10490      10491      10502      10501      10611      10612      10623      10622  
     10491      10492      10503      10502      10612      10613      10624      10623  
     10492      10493      10504      10503      10613      10614      10625      10624  
     10493      10494      10505      10504      10614      10615      10626      10625  
     10495      10496      10507      10506      10616      10617      10628      10627  
     10496      10497      10508      10507      10617      10618      10629      10628  
     10497      10498      10509      10508      10618      10619      10630      10629  
     10498      10499      10510      10509      10619      10620      10631      10630  
     10499      10500      10511      10510      10620      10621      10632      10631  
     10500      10501      10512      10511      10621      10622      10633      10632  
     10501      10502      10513      10512      10622      10623      10634      10633  
     10502      10503      10514      10513      10623      10624      10635      10634  
     10503      10504      10515      10514      10624      10625      10636      10635  
     10504      10505      10516      10515      10625      10626      10637      10636  
     10506      10507      10518      10517      10627      10628      10639      10638  
     10507      10508      10519      10518      10628      10629      10640      10639  
     10508      10509      10520      10519      10629      10630      10641      10640  
     10509      10510      10521      10520      10630      10631      10642      10641  
     10510      10511      10522      10521      10631      10632      10643      10642  
     10511      10512      10523      10522      10632      10633      10644      10643  
     10512      10513      10524      10523      10633      10634      10645      10644  
     10513      10514      10525      10524      10634      10635      10646      10645  
     10514      10515      10526      10525      10635      10636      10647      10646  
     10515      10516      10527      10526      10636      10637      10648      10647  
     10528      10529      10540      10539      10649      10650      10661      10660  
     10529      10530      10541      10540      10650      10651      10662      10661  
     10530      10531      10542      10541      10651      10652      10663      10662  
     10531      10532      10543      10542      10652      10653      10664      10663  
     10532      10533      10544      10543      10653      10654      10665      10664  
     10533      10534      10545      10544      10654      10655      10666      10665  
     10534      10535      10546      10545      10655      10656      10667      10666  
     10535      10536      10547      10546      10656      10657      10668      10667  
     10536      10537      10548      10547      10657      10658      10669      10668  
     10537      10538      10549      10548      10658      10659      10670      10669  
     10539      10540      10551      10550      10660      10661      10672      10671  
     10540      10541      10552      10551      10661      10662      10673      10672  
     10541      10542      10553      10552      10662      10663      10674      10673  
     10542      10543      10554      10553      10663      10664      10675      10674  
     10543      10544      10555      10554      10664      10665      10676      10675  
     10544      10545      10556      10555      10665      10666      10677      10676  
     10545      10546      10557      10556      10666      10667      10678      10677  
     10546      10547      10558      10557      10667      10668      10679      10678  
     10547      10548      10559      10558      10668      10669      10680      10679  
     10548      10549      10560      10559      10669      10670      10681      10680  
     10550      10551      10562      10561      10671      10672      10683      10682  
     10551      10552      10563      10562      10672      10673      10684      10683  
     10552      10553      10564      10563      10673      10674      10685      10684  
     10553      10554      10565      10564      10674      10675      10686      10685  
     10554      10555      10566      10565      10675      10676      10687      10686  
     10555      10556      10567      10566      10676      10677      10688      10687  
     10556      10557      10568      10567      10677      10678      10689      10688  
     10557      10558      10569      10568      10678      10679      10690      10689  
     10558      10559      10570      10569      10679      10680      10691      10690  
     10559      10560      10571      10570      10680      10681      10692      10691  
     10561      10562      10573      10572      10682      10683      10694      10693  
     10562      10563      10574      10573      10683      10684      10695      10694  
     10563      10564      10575      10574      10684      10685      10696      10695  
     10564      10565      10576      10575      10685      10686      10697      10696  
     10565      10566      10577      10576      10686      10687      10698      10697  
     10566      10567      10578      10577      10687      10688      10699      10698  
     10567      10568      10579      10578      10688      10689      10700      10699  
     10568      10569      10580      10579      10689      10690      10701      10700  
     10569      10570      10581      10580      10690      10691      10702      10701  
     10570      10571      10582      10581      10691      10692      10703      10702  
     10572      10573      10584      10583      10693      10694      10705      10704  
     10573      10574      10585      10584      10694      10695      10706      10705  
     10574      10575      10586      10585      10695      10696      10707      10706  
     10575      10576      10587      10586      10696      10697      10708      10707  
     10576      10577      10588      10587      10697      10698      10709      10708  
     10577      10578      10589      10588      10698      10699      10710      10709  
     10578      10579      10590      10589      10699      10700      10711      10710  
     10579      10580      10591      10590      10700      10701      10712      10711  
     10580      10581      10592      10591      10701      10702      10713      10712  
     10581      10582      10593      10592      10702      10703      10714      10713  
     10583      10584      10595      10594      10704      10705      10716      10715  
     10584      10585      10596      10595      10705      10706      10717      10716  
     10585      10586      10597      10596      10706      10707      10718      10717  
     10586      10587      10598      10597      10707      10708      10719      10718  
     10587      10588      10599      10598      10708      10709      10720      10719  
     10588      10589      10600      10599      10709      10710      10721      10720  
     10589      10590      10601      10600      10710      10711      10722      10721  
     10590      10591      10602      10601      10711      10712      10723      10722  
     10591      10592      10603      10602      10712      10713      10724      10723  
     10592      10593      10604      10603      10713      10714      10725      10724  
     10594      10595      10606      10605      10715      10716      10727      10726  
     10595      10596      10607      10606      10716      10717      10728      10727  
     10596      10597      10608      10607      10717      10718      10729      10728  
     10597      10598      10609      10608      10718      10719      10730      10729  
     10598      10599      10610      10609      10719      10720      10731      10730  
     10599      10600      10611      10610      10720      10721      10732      10731  
     10600      10601      10612      10611      10721      10722      10733      10732  
     10601      10602      10613      10612      10722      10723      10734      10733  
     10602      10603      10614      10613      10723      10724      10735      10734  
     10603      10604      10615      10614      10724      10725      10736      10735  
     10605      10606      10617      10616      10726      10727      10738      10737  
     10606      10607      10618      10617      10727      10728      10739      10738  
     10607      10608      10619      10618      10728      10729      10740      10739  
     10608      10609      10620      10619      10729      10730      10741      10740  
     10609      10610      10621      10620      10730      10731      10742      10741  
     10610      10611      10622      10621      10731      10732      10743      10742  
     10611      10612      10623      10622      10732      10733      10744      10743  
     10612      10613      10624      10623      10733      10734      10745      10744  
     10613      10614      10625      10624      10734      10735      10746      10745  
     10614      10615      10626      10625      10735      10736      10747      10746  
     10616      10617      10628      10627      10737      10738      10749      10748  
     10617      10618      10629      10628      10738      10739      10750      10749  
     10618      10619      10630      10629      10739      10740      10751      10750  
     10619      10620      10631      10630      10740      10741      10752      10751  
     10620      10621      10632      10631      10741      10742      10753      10752  
     10621      10622      10633      10632      10742      10743      10754      10753  
     10622      10623      10634      10633      10743      10744      10755      10754  
     10623      10624      10635      10634      10744      10745      10756      10755  
     10624      10625      10636      10635      10745      10746      10757      10756  
     10625      10626      10637      10636      10746      10747      10758      10757  
     10627      10628      10639      10638      10748      10749      10760      10759  
     10628      10629      10640      10639      10749      10750      10761      10760  
     10629      10630      10641      10640      10750      10751      10762      10761  
     10630      10631      10642      10641      10751      10752      10763      10762  
     10631      10632      10643      10642      10752      10753      10764      10763  
     10632      10633      10644      10643      10753      10754      10765      10764  
     10633      10634      10645      10644      10754      10755      10766      10765  
     10634      10635      10646      10645      10755      10756      10767      10766  
     10635      10636      10647      10646      10756      10757      10768      10767  
     10636      10637      10648      10647      10757      10758      10769      10768  
     10649      10650      10661      10660      10770      10771      10782      10781  
     10650      10651      10662      10661      10771      10772      10783      10782  
     10651      10652      10663      10662      10772      10773      10784      10783  
     10652      10653      10664      10663      10773      10774      10785      10784  
     10653      10654      10665      10664      10774      10775      10786      10785  
     10654      10655      10666      10665      10775      10776      10787      10786  
     10655      10656      10667      10666      10776      10777      10788      10787  
     10656      10657      10668      10667      10777      10778      10789      10788  
     10657      10658      10669      10668      10778      10779      10790      10789  
     10658      10659      10670      10669      10779      10780      10791      10790  
     10660      10661      10672      10671      10781      10782      10793      10792  
     10661      10662      10673      10672      10782      10783      10794      10793  
     10662      10663      10674      10673      10783      10784      10795      10794  
     10663      10664      10675      10674      10784      10785      10796      10795  
     10664      10665      10676      10675      10785      10786      10797      10796  
     10665      10666      10677      10676      10786      10787      10798      10797  
     10666      10667      10678      10677      10787      10788      10799      10798  
     10667      10668      10679      10678      10788      10789      10800      10799  
     10668      10669      10680      10679      10789      10790      10801      10800  
     10669      10670      10681      10680      10790      10791      10802      10801  
     10671      10672      10683      10682      10792      10793      10804      10803  
     10672      10673      10684      10683      10793      10794      10805      10804  
     10673      10674      10685      10684      10794      10795      10806      10805  
     10674      10675      10686      10685      10795      10796      10807      10806  
     10675      10676      10687      10686      10796      10797      10808      10807  
     10676      10677      10688      10687      10797      10798      10809      10808  
     10677      10678      10689      10688      10798      10799      10810      10809  
     10678      10679      10690      10689      10799      10800      10811      10810  
     10679      10680      10691      10690      10800      10801      10812      10811  
     10680      10681      10692      10691      10801      10802      10813      10812  
     10682      10683      10694      10693      10803      10804      10815      10814  
     10683      10684      10695      10694      10804      10805      10816      10815  
     10684      10685      10696      10695      10805      10806      10817      10816  
     10685      10686      10697      10696      10806      10807      10818      10817  
     10686      10687      10698      10697      10807      10808      10819      10818  
     10687      10688      10699      10698      10808      10809      10820      10819  
     10688      10689      10700      10699      10809      10810      10821      10820  
     10689      10690      10701      10700      10810      10811      10822      10821  
     10690      10691      10702      10701      10811      10812      10823      10822  
     10691      10692      10703      10702      10812      10813      10824      10823  
     10693      10694      10705      10704      10814      10815      10826      10825  
     10694      10695      10706      10705      10815      10816      10827      10826  
     10695      10696      10707      10706      10816      10817      10828      10827  
     10696      10697      10708      10707      10817      10818      10829      10828  
     10697      10698      10709      10708      10818      10819      10830      10829  
     10698      10699      10710      10709      10819      10820      10831      10830  
     10699      10700      10711      10710      10820      10821      10832      10831  
     10700      10701      10712      10711      10821      10822      10833      10832  
     10701      10702      10713      10712      10822      10823      10834      10833  
     10702      10703      10714      10713      10823      10824      10835      10834  
     10704      10705      10716      10715      10825      10826      10837      10836  
     10705      10706      10717      10716      10826      10827      10838      10837  
     10706      10707      10718      10717      10827      10828      10839      10838  
     10707      10708      10719      10718      10828      10829      10840      10839  
     10708      10709      10720      10719      10829      10830      10841      10840  
     10709      10710      10721      10720      10830      10831      10842      10841  
     10710      10711      10722      10721      10831      10832      10843      10842  
     10711      10712      10723      10722      10832      10833      10844      10843  
     10712      10713      10724      10723      10833      10834      10845      10844  
     10713      10714      10725      10724      10834      10835      10846      10845  
     10715      10716      10727      10726      10836      10837      10848      10847  
     10716      10717      10728      10727      10837      10838      10849      10848  
     10717      10718      10729      10728      10838      10839      10850      10849  
     10718      10719      10730      10729      10839      10840      10851      10850  
     10719      10720      10731      10730      10840      10841      10852      10851  
     10720      10721      10732      10731      10841      10842      10853      10852  
     10721      10722      10733      10732      10842      10843      10854      10853  
     10722      10723      10734      10733      10843      10844      10855      10854  
     10723      10724      10735      10734      10844      10845      10856      10855  
     10724      10725      10736      10735      10845      10846      10857      10856  
     10726      10727      10738      10737      10847      10848      10859      10858  
     10727      10728      10739      10738      10848      10849      10860      10859  
     10728      10729      10740      10739      10849      10850      10861      10860  
     10729      10730      10741      10740      10850      10851      10862      10861  
     10730      10731      10742      10741      10851      10852      10863      10862  
     10731      10732      10743      10742      10852      10853      10864      10863  
     10732      10733      10744      10743      10853      10854      10865      10864  
     10733      10734      10745      10744      10854      10855      10866      10865  
     10734      10735      10746      10745      10855      10856      10867      10866  
     10735      10736      10747      10746      10856      10857      10868      10867  
     10737      10738      10749      10748      10858      10859      10870      10869  
     10738      10739      10750      10749      10859      10860      10871      10870  
     10739      10740      10751      10750      10860      10861      10872      10871  
     10740      10741      10752      10751      10861      10862      10873      10872  
     10741      10742      10753      10752      10862      10863      10874      10873  
     10742      10743      10754      10753      10863      10864      10875      10874  
     10743      10744      10755      10754      10864      10865      10876      10875  
     10744      10745      10756      10755      10865      10866      10877      10876  
     10745      10746      10757      10756      10866      10867      10878      10877  
     10746      10747      10758      10757      10867      10868      10879      10878  
     10748      10749      10760      10759      10869      10870      10881      10880  
     10749      10750      10761      10760      10870      10871      10882      10881  
     10750      10751      10762      10761      10871      10872      10883      10882  
     10751      10752      10763      10762      10872      10873      10884      10883  
     10752      10753      10764      10763      10873      10874      10885      10884  
     10753      10754      10765      10764      10874      10875      10886      10885  
     10754      10755      10766      10765      10875      10876      10887      10886  
     10755      10756      10767      10766      10876      10877      10888      10887  
     10756      10757      10768      10767      10877      10878      10889      10888  
     10757      10758      10769      10768      10878      10879      10890      10889  
     10770      10771      10782      10781      10891      10892      10903      10902  
     10771      10772      10783      10782      10892      10893      10904      10903  
     10772      10773      10784      10783      10893      10894      10905      10904  
     10773      10774      10785      10784      10894      10895      10906      10905  
     10774      10775      10786      10785      10895      10896      10907      10906  
     10775      10776      10787      10786      10896      10897      10908      10907  
     10776      10777      10788      10787      10897      10898      10909      10908  
     10777      10778      10789      10788      10898      10899      10910      10909  
     10778      10779      10790      10789      10899      10900      10911      10910  
     10779      10780      10791      10790      10900      10901      10912      10911  
     10781      10782      10793      10792      10902      10903      10914      10913  
     10782      10783      10794      10793      10903      10904      10915      10914  
     10783      10784      10795      10794      10904      10905      10916      10915  
     10784      10785      10796      10795      10905      10906      10917      10916  
     10785      10786      10797      10796      10906      10907      10918      10917  
     10786      10787      10798      10797      10907      10908      10919      10918  
     10787      10788      10799      10798      10908      10909      10920      10919  
     10788      10789      10800      10799      10909      10910      10921      10920  
     10789      10790      10801      10800      10910      10911      10922      10921  
     10790      10791      10802      10801      10911      10912      10923      10922  
     10792      10793      10804      10803      10913      10914      10925      10924  
     10793      10794      10805      10804      10914      10915      10926      10925  
     10794      10795      10806      10805      10915      10916      10927      10926  
     10795      10796      10807      10806      10916      10917      10928      10927  
     10796      10797      10808      10807      10917      10918      10929      10928  
     10797      10798      10809      10808      10918      10919      10930      10929  
     10798      10799      10810      10809      10919      10920      10931      10930  
     10799      10800      10811      10810      10920      10921      10932      10931  
     10800      10801      10812      10811      10921      10922      10933      10932  
     10801      10802      10813      10812      10922      10923      10934      10933  
     10803      10804      10815      10814      10924      10925      10936      10935  
     10804      10805      10816      10815      10925      10926      10937      10936  
     10805      10806      10817      10816      10926      10927      10938      10937  
     10806      10807      10818      10817      10927      10928      10939      10938  
     10807      10808      10819      10818      10928      10929      10940      10939  
     10808      10809      10820      10819      10929      10930      10941      10940  
     10809      10810      10821      10820      10930      10931      10942      10941  
     10810      10811      10822      10821      10931      10932      10943      10942  
     10811      10812      10823      10822      10932      10933      10944      10943  
     10812      10813      10824      10823      10933      10934      10945      10944  
     10814      10815      10826      10825      10935      10936      10947      10946  
     10815      10816      10827      10826      10936      10937      10948      10947  
     10816      10817      10828      10827      10937      10938      10949      10948  
     10817      10818      10829      10828      10938      10939      10950      10949  
     10818      10819      10830      10829      10939      10940      10951      10950  
     10819      10820      10831      10830      10940      10941      10952      10951  
     10820      10821      10832      10831      10941      10942      10953      10952  
     10821      10822      10833      10832      10942      10943      10954      10953  
     10822      10823      10834      10833      10943      10944      10955      10954  
     10823      10824      10835      10834      10944      10945      10956      10955  
     10825      10826      10837      10836      10946      10947      10958      10957  
     10826      10827      10838      10837      10947      10948      10959      10958  
     10827      10828      10839      10838      10948      10949      10960      10959  
     10828      10829      10840      10839      10949      10950      10961      10960  
     10829      10830      10841      10840      10950      10951      10962      10961  
     10830      10831      10842      10841      10951      10952      10963      10962  
     10831      10832      10843      10842      10952      10953      10964      10963  
     10832      10833      10844      10843      10953      10954      10965      10964  
     10833      10834      10845      10844      10954      10955      10966      10965  
     10834      10835      10846      10845      10955      10956      10967      10966  
     10836      10837      10848      10847      10957      10958      10969      10968  
     10837      10838      10849      10848      10958      10959      10970      10969  
     10838      10839      10850      10849      10959      10960      10971      10970  
     10839      10840      10851      10850      10960      10961      10972      10971  
     10840      10841      10852      10851      10961      10962      10973      10972  
     10841      10842      10853      10852      10962      10963      10974      10973  
     10842      10843      10854      10853      10963      10964      10975      10974  
     10843      10844      10855      10854      10964      10965      10976      10975  
     10844      10845      10856      10855      10965      10966      10977      10976  
     10845      10846      10857      10856      10966      10967      10978      10977  
     10847      10848      10859      10858      10968      10969      10980      10979  
     10848      10849      10860      10859      10969      10970      10981      10980  
     10849      10850      10861      10860      10970      10971      10982      10981  
     10850      10851      10862      10861      10971      10972      10983      10982  
     10851      10852      10863      10862      10972      10973      10984      10983  
     10852      10853      10864      10863      10973      10974      10985      10984  
     10853      10854      10865      10864      10974      10975      10986      10985  
     10854      10855      10866      10865      10975      10976      10987      10986  
     10855      10856      10867      10866      10976      10977      10988      10987  
     10856      10857      10868      10867      10977      10978      10989      10988  
     10858      10859      10870      10869      10979      10980      10991      10990  
     10859      10860      10871      10870      10980      10981      10992      10991  
     10860      10861      10872      10871      10981      10982      10993      10992  
     10861      10862      10873      10872      10982      10983      10994      10993  
     10862      10863      10874      10873      10983      10984      10995      10994  
     10863      10864      10875      10874      10984      10985      10996      10995  
     10864      10865      10876      10875      10985      10986      10997      10996  
     10865      10866      10877      10876      10986      10987      10998      10997  
     10866      10867      10878      10877      10987      10988      10999      10998  
     10867      10868      10879      10878      10988      10989      11000      10999  
     10869      10870      10881      10880      10990      10991      11002      11001  
     10870      10871      10882      10881      10991      10992      11003      11002  
     10871      10872      10883      10882      10992      10993      11004      11003  
     10872      10873      10884      10883      10993      10994      11005      11004  
     10873      10874      10885      10884      10994      10995      11006      11005  
     10874      10875      10886      10885      10995      10996      11007      11006  
     10875      10876      10887      10886      10996      10997      11008      11007  
     10876      10877      10888      10887      10997      10998      11009      11008  
     10877      10878      10889      10888      10998      10999      11010      11009  
     10878      10879      10890      10889      10999      11000      11011      11010  
     10891      10892      10903      10902      11012      11013      11024      11023  
     10892      10893      10904      10903      11013      11014      11025      11024  
     10893      10894      10905      10904      11014      11015      11026      11025  
     10894      10895      10906      10905      11015      11016      11027      11026  
     10895      10896      10907      10906      11016      11017      11028      11027  
     10896      10897      10908      10907      11017      11018      11029      11028  
     10897      10898      10909      10908      11018      11019      11030      11029  
     10898      10899      10910      10909      11019      11020      11031      11030  
     10899      10900      10911      10910      11020      11021      11032      11031  
     10900      10901      10912      10911      11021      11022      11033      11032  
     10902      10903      10914      10913      11023      11024      11035      11034  
     10903      10904      10915      10914      11024      11025      11036      11035  
     10904      10905      10916      10915      11025      11026      11037      11036  
     10905      10906      10917      10916      11026      11027      11038      11037  
     10906      10907      10918      10917      11027      11028      11039      11038  
     10907      10908      10919      10918      11028      11029      11040      11039  
     10908      10909      10920      10919      11029      11030      11041      11040  
     10909      10910      10921      10920      11030      11031      11042      11041  
     10910      10911      10922      10921      11031      11032      11043      11042  
     10911      10912      10923      10922      11032      11033      11044      11043  
     10913      10914      10925      10924      11034      11035      11046      11045  
     10914      10915      10926      10925      11035      11036      11047      11046  
     10915      10916      10927      10926      11036      11037      11048      11047  
     10916      10917      10928      10927      11037      11038      11049      11048  
     10917      10918      10929      10928      11038      11039      11050      11049  
     10918      10919      10930      10929      11039      11040      11051      11050  
     10919      10920      10931      10930      11040      11041      11052      11051  
     10920      10921      10932      10931      11041      11042      11053      11052  
     10921      10922      10933      10932      11042      11043      11054      11053  
     10922      10923      10934      10933      11043      11044      11055      11054  
     10924      10925      10936      10935      11045      11046      11057      11056  
     10925      10926      10937      10936      11046      11047      11058      11057  
     10926      10927      10938      10937      11047      11048      11059      11058  
     10927      10928      10939      10938      11048      11049      11060      11059  
     10928      10929      10940      10939      11049      11050      11061      11060  
     10929      10930      10941      10940      11050      11051      11062      11061  
     10930      10931      10942      10941      11051      11052      11063      11062  
     10931      10932      10943      10942      11052      11053      11064      11063  
     10932      10933      10944      10943      11053      11054      11065      11064  
     10933      10934      10945      10944      11054      11055      11066      11065  
     10935      10936      10947      10946      11056      11057      11068      11067  
     10936      10937      10948      10947      11057      11058      11069      11068  
     10937      10938      10949      10948      11058      11059      11070      11069  
     10938      10939      10950      10949      11059      11060      11071      11070  
     10939      10940      10951      10950      11060      11061      11072      11071  
     10940      10941      10952      10951      11061      11062      11073      11072  
     10941      10942      10953      10952      11062      11063      11074      11073  
     10942      10943      10954      10953      11063      11064      11075      11074  
     10943      10944      10955      10954      11064      11065      11076      11075  
     10944      10945      10956      10955      11065      11066      11077      11076  
     10946      10947      10958      10957      11067      11068      11079      11078  
     10947      10948      10959      10958      11068      11069      11080      11079  
     10948      10949      10960      10959      11069      11070      11081      11080  
     10949      10950      10961      10960      11070      11071      11082      11081  
     10950      10951      10962      10961      11071      11072      11083      11082  
     10951      10952      10963      10962      11072      11073      11084      11083  
     10952      10953      10964      10963      11073      11074      11085      11084  
     10953      10954      10965      10964      11074      11075      11086      11085  
     10954      10955      10966      10965      11075      11076      11087      11086  
     10955      10956      10967      10966      11076      11077      11088      11087  
     10957      10958      10969      10968      11078      11079      11090      11089  
     10958      10959      10970      10969      11079      11080      11091      11090  
     10959      10960      10971      10970      11080      11081      11092      11091  
     10960      10961      10972      10971      11081      11082      11093      11092  
     10961      10962      10973      10972      11082      11083      11094      11093  
     10962      10963      10974      10973      11083      11084      11095      11094  
     10963      10964      10975      10974      11084      11085      11096      11095  
     10964      10965      10976      10975      11085      11086      11097      11096  
     10965      10966      10977      10976      11086      11087      11098      11097  
     10966      10967      10978      10977      11087      11088      11099      11098  
     10968      10969      10980      10979      11089      11090      11101      11100  
     10969      10970      10981      10980      11090      11091      11102      11101  
     10970      10971      10982      10981      11091      11092      11103      11102  
     10971      10972      10983      10982      11092      11093      11104      11103  
     10972      10973      10984      10983      11093      11094      11105      11104  
     10973      10974      10985      10984      11094      11095      11106      11105  
     10974      10975      10986      10985      11095      11096      11107      11106  
     10975      10976      10987      10986      11096      11097      11108      11107  
     10976      10977      10988      10987      11097      11098      11109      11108  
     10977      10978      10989      10988      11098      11099      11110      11109  
     10979      10980      10991      10990      11100      11101      11112      11111  
     10980      10981      10992      10991      11101      11102      11113      11112  
     10981      10982      10993      10992      11102      11103      11114      11113  
     10982      10983      10994      10993      11103      11104      11115      11114  
     10983      10984      10995      10994      11104      11105      11116      11115  
     10984      10985      10996      10995      11105      11106      11117      11116  
     10985      10986      10997      10996      11106      11107      11118      11117  
     10986      10987      10998      10997      11107      11108      11119      11118  
     10987      10988      10999      10998      11108      11109      11120      11119  
     10988      10989      11000      10999      11109      11110      11121      11120  
     10990      10991      11002      11001      11111      11112      11123      11122  
     10991      10992      11003      11002      11112      11113      11124      11123  
     10992      10993      11004      11003      11113      11114      11125      11124  
     10993      10994      11005      11004      11114      11115      11126      11125  
     10994      10995      11006      11005      11115      11116      11127      11126  
     10995      10996      11007      11006      11116      11117      11128      11127  
     10996      10997      11008      11007      11117      11118      11129      11128  
     10997      10998      11009      11008      11118      11119      11130      11129  
     10998      10999      11010      11009      11119      11120      11131      11130  
     10999      11000      11011      11010      11120      11121      11132      11131  
     11012      11013      11024      11023      11133      11134      11145      11144  
     11013      11014      11025      11024      11134      11135      11146      11145  
     11014      11015      11026      11025      11135      11136      11147      11146  
     11015      11016      11027      11026      11136      11137      11148      11147  
     11016      11017      11028      11027      11137      11138      11149      11148  
     11017      11018      11029      11028      11138      11139      11150      11149  
     11018      11019      11030      11029      11139      11140      11151      11150  
     11019      11020      11031      11030      11140      11141      11152      11151  
     11020      11021      11032      11031      11141      11142      11153      11152  
     11021      11022      11033      11032      11142      11143      11154      11153  
     11023      11024      11035      11034      11144      11145      11156      11155  
     11024      11025      11036      11035      11145      11146      11157      11156  
     11025      11026      11037      11036      11146      11147      11158      11157  
     11026      11027      11038      11037      11147      11148      11159      11158  
     11027      11028      11039      11038      11148      11149      11160      11159  
     11028      11029      11040      11039      11149      11150      11161      11160  
     11029      11030      11041      11040      11150      11151      11162      11161  
     11030      11031      11042      11041      11151      11152      11163      11162  
     11031      11032      11043      11042      11152      11153      11164      11163  
     11032      11033      11044      11043      11153      11154      11165      11164  
     11034      11035      11046      11045      11155      11156      11167      11166  
     11035      11036      11047      11046      11156      11157      11168      11167  
     11036      11037      11048      11047      11157      11158      11169      11168  
     11037      11038      11049      11048      11158      11159      11170      11169  
     11038      11039      11050      11049      11159      11160      11171      11170  
     11039      11040      11051      11050      11160      11161      11172      11171  
     11040      11041      11052      11051      11161      11162      11173      11172  
     11041      11042      11053      11052      11162      11163      11174      11173  
     11042      11043      11054      11053      11163      11164      11175      11174  
     11043      11044      11055      11054      11164      11165      11176      11175  
     11045      11046      11057      11056      11166      11167      11178      11177  
     11046      11047      11058      11057      11167      11168      11179      11178  
     11047      11048      11059      11058      11168      11169      11180      11179  
     11048      11049      11060      11059      11169      11170      11181      11180  
     11049      11050      11061      11060      11170      11171      11182      11181  
     11050      11051      11062      11061      11171      11172      11183      11182  
     11051      11052      11063      11062      11172      11173      11184      11183  
     11052      11053      11064      11063      11173      11174      11185      11184  
     11053      11054      11065      11064      11174      11175      11186      11185  
     11054      11055      11066      11065      11175      11176      11187      11186  
     11056      11057      11068      11067      11177      11178      11189      11188  
     11057      11058      11069      11068      11178      11179      11190      11189  
     11058      11059      11070      11069      11179      11180      11191      11190  
     11059      11060      11071      11070      11180      11181      11192      11191  
     11060      11061      11072      11071      11181      11182      11193      11192  
     11061      11062      11073      11072      11182      11183      11194      11193  
     11062      11063      11074      11073      11183      11184      11195      11194  
     11063      11064      11075      11074      11184      11185      11196      11195  
     11064      11065      11076      11075      11185      11186      11197      11196  
     11065      11066      11077      11076      11186      11187      11198      11197  
     11067      11068      11079      11078      11188      11189      11200      11199  
     11068      11069      11080      11079      11189      11190      11201      11200  
     11069      11070      11081      11080      11190      11191      11202      11201  
     11070      11071      11082      11081      11191      11192      11203      11202  
     11071      11072      11083      11082      11192      11193      11204      11203  
     11072      11073      11084      11083      11193      11194      11205      11204  
     11073      11074      11085      11084      11194      11195      11206      11205  
     11074      11075      11086      11085      11195      11196      11207      11206  
     11075      11076      11087      11086      11196      11197      11208      11207  
     11076      11077      11088      11087      11197      11198      11209      11208  
     11078      11079      11090      11089      11199      11200      11211      11210  
     11079      11080      11091      11090      11200      11201      11212      11211  
     11080      11081      11092      11091      11201      11202      11213      11212  
     11081      11082      11093      11092      11202      11203      11214      11213  
     11082      11083      11094      11093      11203      11204      11215      11214  
     11083      11084      11095      11094      11204      11205      11216      11215  
     11084      11085      11096      11095      11205      11206      11217      11216  
     11085      11086      11097      11096      11206      11207      11218      11217  
     11086      11087      11098      11097      11207      11208      11219      11218  
     11087      11088      11099      11098      11208      11209      11220      11219  
     11089      11090      11101      11100      11210      11211      11222      11221  
     11090      11091      11102      11101      11211      11212      11223      11222  
     11091      11092      11103      11102      11212      11213      11224      11223  
     11092      11093      11104      11103      11213      11214      11225      11224  
     11093      11094      11105      11104      11214      11215      11226      11225  
     11094      11095      11106      11105      11215      11216      11227      11226  
     11095      11096      11107      11106      11216      11217      11228      11227  
     11096      11097      11108      11107      11217      11218      11229      11228  
     11097      11098      11109      11108      11218      11219      11230      11229  
     11098      11099      11110      11109      11219      11220      11231      11230  
     11100      11101      11112      11111      11221      11222      11233      11232  
     11101      11102      11113      11112      11222      11223      11234      11233  
     11102      11103      11114      11113      11223      11224      11235      11234  
     11103      11104      11115      11114      11224      11225      11236      11235  
     11104      11105      11116      11115      11225      11226      11237      11236  
     11105      11106      11117      11116      11226      11227      11238      11237  
     11106      11107      11118      11117      11227      11228      11239      11238  
     11107      11108      11119      11118      11228      11229      11240      11239  
     11108      11109      11120      11119      11229      11230      11241      11240  
     11109      11110      11121      11120      11230      11231      11242      11241  
     11111      11112      11123      11122      11232      11233      11244      11243  
     11112      11113      11124      11123      11233      11234      11245      11244  
     11113      11114      11125      11124      11234      11235      11246      11245  
     11114      11115      11126      11125      11235      11236      11247      11246  
     11115      11116      11127      11126      11236      11237      11248      11247  
     11116      11117      11128      11127      11237      11238      11249      11248  
     11117      11118      11129      11128      11238      11239      11250      11249  
     11118      11119      11130      11129      11239      11240      11251      11250  
     11119      11120      11131      11130      11240      11241      11252      11251  
     11120      11121      11132      11131      11241      11242      11253      11252  
     11133      11134      11145      11144      11254      11255      11266      11265  
     11134      11135      11146      11145      11255      11256      11267      11266  
     11135      11136      11147      11146      11256      11257      11268      11267  
     11136      11137      11148      11147      11257      11258      11269      11268  
     11137      11138      11149      11148      11258      11259      11270      11269  
     11138      11139      11150      11149      11259      11260      11271      11270  
     11139      11140      11151      11150      11260      11261      11272      11271  
     11140      11141      11152      11151      11261      11262      11273      11272  
     11141      11142      11153      11152      11262      11263      11274      11273  
     11142      11143      11154      11153      11263      11264      11275      11274  
     11144      11145      11156      11155      11265      11266      11277      11276  
     11145      11146      11157      11156      11266      11267      11278      11277  
     11146      11147      11158      11157      11267      11268      11279      11278  
     11147      11148      11159      11158      11268      11269      11280      11279  
     11148      11149      11160      11159      11269      11270      11281      11280  
     11149      11150      11161      11160      11270      11271      11282      11281  
     11150      11151      11162      11161      11271      11272      11283      11282  
     11151      11152      11163      11162      11272      11273      11284      11283  
     11152      11153      11164      11163      11273      11274      11285      11284  
     11153      11154      11165      11164      11274      11275      11286      11285  
     11155      11156      11167      11166      11276      11277      11288      11287  
     11156      11157      11168      11167      11277      11278      11289      11288  
     11157      11158      11169      11168      11278      11279      11290      11289  
     11158      11159      11170      11169      11279      11280      11291      11290  
     11159      11160      11171      11170      11280      11281      11292      11291  
     11160      11161      11172      11171      11281      11282      11293      11292  
     11161      11162      11173      11172      11282      11283      11294      11293  
     11162      11163      11174      11173      11283      11284      11295      11294  
     11163      11164      11175      11174      11284      11285      11296      11295  
     11164      11165      11176      11175      11285      11286      11297      11296  
     11166      11167      11178      11177      11287      11288      11299      11298  
     11167      11168      11179      11178      11288      11289      11300      11299  
     11168      11169      11180      11179      11289      11290      11301      11300  
     11169      11170      11181      11180      11290      11291      11302      11301  
     11170      11171      11182      11181      11291      11292      11303      11302  
     11171      11172      11183      11182      11292      11293      11304      11303  
     11172      11173      11184      11183      11293      11294      11305      11304  
     11173      11174      11185      11184      11294      11295      11306      11305  
     11174      11175      11186      11185      11295      11296      11307      11306  
     11175      11176      11187      11186      11296      11297      11308      11307  
     11177      11178      11189      11188      11298      11299      11310      11309  
     11178      11179      11190      11189      11299      11300      11311      11310  
     11179      11180      11191      11190      11300      11301      11312      11311  
     11180      11181      11192      11191      11301      11302      11313      11312  
     11181      11182      11193      11192      11302      11303      11314      11313  
     11182      11183      11194      11193      11303      11304      11315      11314  
     11183      11184      11195      11194      11304      11305      11316      11315  
     11184      11185      11196      11195      11305      11306      11317      11316  
     11185      11186      11197      11196      11306      11307      11318      11317  
     11186      11187      11198      11197      11307      11308      11319      11318  
     11188      11189      11200      11199      11309      11310      11321      11320  
     11189      11190      11201      11200      11310      11311      11322      11321  
     11190      11191      11202      11201      11311      11312      11323      11322  
     11191      11192      11203      11202      11312      11313      11324      11323  
     11192      11193      11204      11203      11313      11314      11325      11324  
     11193      11194      11205      11204      11314      11315      11326      11325  
     11194      11195      11206      11205      11315      11316      11327      11326  
     11195      11196      11207      11206      11316      11317      11328      11327  
     11196      11197      11208      11207      11317      11318      11329      11328  
     11197      11198      11209      11208      11318      11319      11330      11329  
     11199      11200      11211      11210      11320      11321      11332      11331  
     11200      11201      11212      11211      11321      11322      11333      11332  
     11201      11202      11213      11212      11322      11323      11334      11333  
     11202      11203      11214      11213      11323      11324      11335      11334  
     11203      11204      11215      11214      11324      11325      11336      11335  
     11204      11205      11216      11215      11325      11326      11337      11336  
     11205      11206      11217      11216      11326      11327      11338      11337  
     11206      11207      11218      11217      11327      11328      11339      11338  
     11207      11208      11219      11218      11328      11329      11340      11339  
     11208      11209      11220      11219      11329      11330      11341      11340  
     11210      11211      11222      11221      11331      11332      11343      11342  
     11211      11212      11223      11222      11332      11333      11344      11343  
     11212      11213      11224      11223      11333      11334      11345      11344  
     11213      11214      11225      11224      11334      11335      11346      11345  
     11214      11215      11226      11225      11335      11336      11347      11346  
     11215      11216      11227      11226      11336      11337      11348      11347  
     11216      11217      11228      11227      11337      11338      11349      11348  
     11217      11218      11229      11228      11338      11339      11350      11349  
     11218      11219      11230      11229      11339      11340      11351      11350  
     11219      11220      11231      11230      11340      11341      11352      11351  
     11221      11222      11233      11232      11342      11343      11354      11353  
     11222      11223      11234      11233      11343      11344      11355      11354  
     11223      11224      11235      11234      11344      11345      11356      11355  
     11224      11225      11236      11235      11345      11346      11357      11356  
     11225      11226      11237      11236      11346      11347      11358      11357  
     11226      11227      11238      11237      11347      11348      11359      11358  
     11227      11228      11239      11238      11348      11349      11360      11359  
     11228      11229      11240      11239      11349      11350      11361      11360  
     11229      11230      11241      11240      11350      11351      11362      11361  
     11230      11231      11242      11241      11351      11352      11363      11362  
     11232      11233      11244      11243      11353      11354      11365      11364  
     11233      11234      11245      11244      11354      11355      11366      11365  
     11234      11235      11246      11245      11355      11356      11367      11366  
     11235      11236      11247      11246      11356      11357      11368      11367  
     11236      11237      11248      11247      11357      11358      11369      11368  
     11237      11238      11249      11248      11358      11359      11370      11369  
     11238      11239      11250      11249      11359      11360      11371      11370  
     11239      11240      11251      11250      11360      11361      11372      11371  
     11240      11241      11252      11251      11361      11362      11373      11372  
     11241      11242      11253      11252      11362      11363      11374      11373  
     11254      11255      11266      11265      11375      11376      11387      11386  
     11255      11256      11267      11266      11376      11377      11388      11387  
     11256      11257      11268      11267      11377      11378      11389      11388  
     11257      11258      11269      11268      11378      11379      11390      11389  
     11258      11259      11270      11269      11379      11380      11391      11390  
     11259      11260      11271      11270      11380      11381      11392      11391  
     11260      11261      11272      11271      11381      11382      11393      11392  
     11261      11262      11273      11272      11382      11383      11394      11393  
     11262      11263      11274      11273      11383      11384      11395      11394  
     11263      11264      11275      11274      11384      11385      11396      11395  
     11265      11266      11277      11276      11386      11387      11398      11397  
     11266      11267      11278      11277      11387      11388      11399      11398  
     11267      11268      11279      11278      11388      11389      11400      11399  
     11268      11269      11280      11279      11389      11390      11401      11400  
     11269      11270      11281      11280      11390      11391      11402      11401  
     11270      11271      11282      11281      11391      11392      11403      11402  
     11271      11272      11283      11282      11392      11393      11404      11403  
     11272      11273      11284      11283      11393      11394      11405      11404  
     11273      11274      11285      11284      11394      11395      11406      11405  
     11274      11275      11286      11285      11395      11396      11407      11406  
     11276      11277      11288      11287      11397      11398      11409      11408  
     11277      11278      11289      11288      11398      11399      11410      11409  
     11278      11279      11290      11289      11399      11400      11411      11410  
     11279      11280      11291      11290      11400      11401      11412      11411  
     11280      11281      11292      11291      11401      11402      11413      11412  
     11281      11282      11293      11292      11402      11403      11414      11413  
     11282      11283      11294      11293      11403      11404      11415      11414  
     11283      11284      11295      11294      11404      11405      11416      11415  
     11284      11285      11296      11295      11405      11406      11417      11416  
     11285      11286      11297      11296      11406      11407      11418      11417  
     11287      11288      11299      11298      11408      11409      11420      11419  
     11288      11289      11300      11299      11409      11410      11421      11420  
     11289      11290      11301      11300      11410      11411      11422      11421  
     11290      11291      11302      11301      11411      11412      11423      11422  
     11291      11292      11303      11302      11412      11413      11424      11423  
     11292      11293      11304      11303      11413      11414      11425      11424  
     11293      11294      11305      11304      11414      11415      11426      11425  
     11294      11295      11306      11305      11415      11416      11427      11426  
     11295      11296      11307      11306      11416      11417      11428      11427  
     11296      11297      11308      11307      11417      11418      11429      11428  
     11298      11299      11310      11309      11419      11420      11431      11430  
     11299      11300      11311      11310      11420      11421      11432      11431  
     11300      11301      11312      11311      11421      11422      11433      11432  
     11301      11302      11313      11312      11422      11423      11434      11433  
     11302      11303      11314      11313      11423      11424      11435      11434  
     11303      11304      11315      11314      11424      11425      11436      11435  
     11304      11305      11316      11315      11425      11426      11437      11436  
     11305      11306      11317      11316      11426      11427      11438      11437  
     11306      11307      11318      11317      11427      11428      11439      11438  
     11307      11308      11319      11318      11428      11429      11440      11439  
     11309      11310      11321      11320      11430      11431      11442      11441  
     11310      11311      11322      11321      11431      11432      11443      11442  
     11311      11312      11323      11322      11432      11433      11444      11443  
     11312      11313      11324      11323      11433      11434      11445      11444  
     11313      11314      11325      11324      11434      11435      11446      11445  
     11314      11315      11326      11325      11435      11436      11447      11446  
     11315      11316      11327      11326      11436      11437      11448      11447  
     11316      11317      11328      11327      11437      11438      11449      11448  
     11317      11318      11329      11328      11438      11439      11450      11449  
     11318      11319      11330      11329      11439      11440      11451      11450  
     11320      11321      11332      11331      11441      11442      11453      11452  
     11321      11322      11333      11332      11442      11443      11454      11453  
     11322      11323      11334      11333      11443      11444      11455      11454  
     11323      11324      11335      11334      11444      11445      11456      11455  
     11324      11325      11336      11335      11445      11446      11457      11456  
     11325      11326      11337      11336      11446      11447      11458      11457  
     11326      11327      11338      11337      11447      11448      11459      11458  
     11327      11328      11339      11338      11448      11449      11460      11459  
     11328      11329      11340      11339      11449      11450      11461      11460  
     11329      11330      11341      11340      11450      11451      11462      11461  
     11331      11332      11343      11342      11452      11453      11464      11463  
     11332      11333      11344      11343      11453      11454      11465      11464  
     11333      11334      11345      11344      11454      11455      11466      11465  
     11334      11335      11346      11345      11455      11456      11467      11466  
     11335      11336      11347      11346      11456      11457      11468      11467  
     11336      11337      11348      11347      11457      11458      11469      11468  
     11337      11338      11349      11348      11458      11459      11470      11469  
     11338      11339      11350      11349      11459      11460      11471      11470  
     11339      11340      11351      11350      11460      11461      11472      11471  
     11340      11341      11352      11351      11461      11462      11473      11472  
     11342      11343      11354      11353      11463      11464      11475      11474  
     11343      11344      11355      11354      11464      11465      11476      11475  
     11344      11345      11356      11355      11465      11466      11477      11476  
     11345      11346      11357      11356      11466      11467      11478      11477  
     11346      11347      11358      11357      11467      11468      11479      11478  
     11347      11348      11359      11358      11468      11469      11480      11479  
     11348      11349      11360      11359      11469      11470      11481      11480  
     11349      11350      11361      11360      11470      11471      11482      11481  
     11350      11351      11362      11361      11471      11472      11483      11482  
     11351      11352      11363      11362      11472      11473      11484      11483  
     11353      11354      11365      11364      11474      11475      11486      11485  
     11354      11355      11366      11365      11475      11476      11487      11486  
     11355      11356      11367      11366      11476      11477      11488      11487  
     11356      11357      11368      11367      11477      11478      11489      11488  
     11357      11358      11369      11368      11478      11479      11490      11489  
     11358      11359      11370      11369      11479      11480      11491      11490  
     11359      11360      11371      11370      11480      11481      11492      11491  
     11360      11361      11372      11371      11481      11482      11493      11492  
     11361      11362      11373      11372      11482      11483      11494      11493  
     11362      11363      11374      11373      11483      11484      11495      11494  
     11375      11376      11387      11386      11496      11497      11508      11507  
     11376      11377      11388      11387      11497      11498      11509      11508  
     11377      11378      11389      11388      11498      11499      11510      11509  
     11378      11379      11390      11389      11499      11500      11511      11510  
     11379      11380      11391      11390      11500      11501      11512      11511  
     11380      11381      11392      11391      11501      11502      11513      11512  
     11381      11382      11393      11392      11502      11503      11514      11513  
     11382      11383      11394      11393      11503      11504      11515      11514  
     11383      11384      11395      11394      11504      11505      11516      11515  
     11384      11385      11396      11395      11505      11506      11517      11516  
     11386      11387      11398      11397      11507      11508      11519      11518  
     11387      11388      11399      11398      11508      11509      11520      11519  
     11388      11389      11400      11399      11509      11510      11521      11520  
     11389      11390      11401      11400      11510      11511      11522      11521  
     11390      11391      11402      11401      11511      11512      11523      11522  
     11391      11392      11403      11402      11512      11513      11524      11523  
     11392      11393      11404      11403      11513      11514      11525      11524  
     11393      11394      11405      11404      11514      11515      11526      11525  
     11394      11395      11406      11405      11515      11516      11527      11526  
     11395      11396      11407      11406      11516      11517      11528      11527  
     11397      11398      11409      11408      11518      11519      11530      11529  
     11398      11399      11410      11409      11519      11520      11531      11530  
     11399      11400      11411      11410      11520      11521      11532      11531  
     11400      11401      11412      11411      11521      11522      11533      11532  
     11401      11402      11413      11412      11522      11523      11534      11533  
     11402      11403      11414      11413      11523      11524      11535      11534  
     11403      11404      11415      11414      11524      11525      11536      11535  
     11404      11405      11416      11415      11525      11526      11537      11536  
     11405      11406      11417      11416      11526      11527      11538      11537  
     11406      11407      11418      11417      11527      11528      11539      11538  
     11408      11409      11420      11419      11529      11530      11541      11540  
     11409      11410      11421      11420      11530      11531      11542      11541  
     11410      11411      11422      11421      11531      11532      11543      11542  
     11411      11412      11423      11422      11532      11533      11544      11543  
     11412      11413      11424      11423      11533      11534      11545      11544  
     11413      11414      11425      11424      11534      11535      11546      11545  
     11414      11415      11426      11425      11535      11536      11547      11546  
     11415      11416      11427      11426      11536      11537      11548      11547  
     11416      11417      11428      11427      11537      11538      11549      11548  
     11417      11418      11429      11428      11538      11539      11550      11549  
     11419      11420      11431      11430      11540      11541      11552      11551  
     11420      11421      11432      11431      11541      11542      11553      11552  
     11421      11422      11433      11432      11542      11543      11554      11553  
     11422      11423      11434      11433      11543      11544      11555      11554  
     11423      11424      11435      11434      11544      11545      11556      11555  
     11424      11425      11436      11435      11545      11546      11557      11556  
     11425      11426      11437      11436      11546      11547      11558      11557  
     11426      11427      11438      11437      11547      11548      11559      11558  
     11427      11428      11439      11438      11548      11549      11560      11559  
     11428      11429      11440      11439      11549      11550      11561      11560  
     11430      11431      11442      11441      11551      11552      11563      11562  
     11431      11432      11443      11442      11552      11553      11564      11563  
     11432      11433      11444      11443      11553      11554      11565      11564  
     11433      11434      11445      11444      11554      11555      11566      11565  
     11434      11435      11446      11445      11555      11556      11567      11566  
     11435      11436      11447      11446      11556      11557      11568      11567  
     11436      11437      11448      11447      11557      11558      11569      11568  
     11437      11438      11449      11448      11558      11559      11570      11569  
     11438      11439      11450      11449      11559      11560      11571      11570  
     11439      11440      11451      11450      11560      11561      11572      11571  
     11441      11442      11453      11452      11562      11563      11574      11573  
     11442      11443      11454      11453      11563      11564      11575      11574  
     11443      11444      11455      11454      11564      11565      11576      11575  
     11444      11445      11456      11455      11565      11566      11577      11576  
     11445      11446      11457      11456      11566      11567      11578      11577  
     11446      11447      11458      11457      11567      11568      11579      11578  
     11447      11448      11459      11458      11568      11569      11580      11579  
     11448      11449      11460      11459      11569      11570      11581      11580  
     11449      11450      11461      11460      11570      11571      11582      11581  
     11450      11451      11462      11461      11571      11572      11583      11582  
     11452      11453      11464      11463      11573      11574      11585      11584  
     11453      11454      11465      11464      11574      11575      11586      11585  
     11454      11455      11466      11465      11575      11576      11587      11586  
     11455      11456      11467      11466      11576      11577      11588      11587  
     11456      11457      11468      11467      11577      11578      11589      11588  
     11457      11458      11469      11468      11578      11579      11590      11589  
     11458      11459      11470      11469      11579      11580      11591      11590  
     11459      11460      11471      11470      11580      11581      11592      11591  
     11460      11461      11472      11471      11581      11582      11593      11592  
     11461      11462      11473      11472      11582      11583      11594      11593  
     11463      11464      11475      11474      11584      11585      11596      11595  
     11464      11465      11476      11475      11585      11586      11597      11596  
     11465      11466      11477      11476      11586      11587      11598      11597  
     11466      11467      11478      11477      11587      11588      11599      11598  
     11467      11468      11479      11478      11588      11589      11600      11599  
     11468      11469      11480      11479      11589      11590      11601      11600  
     11469      11470      11481      11480      11590      11591      11602      11601  
     11470      11471      11482      11481      11591      11592      11603      11602  
     11471      11472      11483      11482      11592      11593      11604      11603  
     11472      11473      11484      11483      11593      11594      11605      11604  
     11474      11475      11486      11485      11595      11596      11607      11606  
     11475      11476      11487      11486      11596      11597      11608      11607  
     11476      11477      11488      11487      11597      11598      11609      11608  
     11477      11478      11489      11488      11598      11599      11610      11609  
     11478      11479      11490      11489      11599      11600      11611      11610  
     11479      11480      11491      11490      11600      11601      11612      11611  
     11480      11481      11492      11491      11601      11602      11613      11612  
     11481      11482      11493      11492      11602      11603      11614      11613  
     11482      11483      11494      11493      11603      11604      11615      11614  
     11483      11484      11495      11494      11604      11605      11616      11615  
     11496      11497      11508      11507      11617      11618      11629      11628  
     11497      11498      11509      11508      11618      11619      11630      11629  
     11498      11499      11510      11509      11619      11620      11631      11630  
     11499      11500      11511      11510      11620      11621      11632      11631  
     11500      11501      11512      11511      11621      11622      11633      11632  
     11501      11502      11513      11512      11622      11623      11634      11633  
     11502      11503      11514      11513      11623      11624      11635      11634  
     11503      11504      11515      11514      11624      11625      11636      11635  
     11504      11505      11516      11515      11625      11626      11637      11636  
     11505      11506      11517      11516      11626      11627      11638      11637  
     11507      11508      11519      11518      11628      11629      11640      11639  
     11508      11509      11520      11519      11629      11630      11641      11640  
     11509      11510      11521      11520      11630      11631      11642      11641  
     11510      11511      11522      11521      11631      11632      11643      11642  
     11511      11512      11523      11522      11632      11633      11644      11643  
     11512      11513      11524      11523      11633      11634      11645      11644  
     11513      11514      11525      11524      11634      11635      11646      11645  
     11514      11515      11526      11525      11635      11636      11647      11646  
     11515      11516      11527      11526      11636      11637      11648      11647  
     11516      11517      11528      11527      11637      11638      11649      11648  
     11518      11519      11530      11529      11639      11640      11651      11650  
     11519      11520      11531      11530      11640      11641      11652      11651  
     11520      11521      11532      11531      11641      11642      11653      11652  
     11521      11522      11533      11532      11642      11643      11654      11653  
     11522      11523      11534      11533      11643      11644      11655      11654  
     11523      11524      11535      11534      11644      11645      11656      11655  
     11524      11525      11536      11535      11645      11646      11657      11656  
     11525      11526      11537      11536      11646      11647      11658      11657  
     11526      11527      11538      11537      11647      11648      11659      11658  
     11527      11528      11539      11538      11648      11649      11660      11659  
     11529      11530      11541      11540      11650      11651      11662      11661  
     11530      11531      11542      11541      11651      11652      11663      11662  
     11531      11532      11543      11542      11652      11653      11664      11663  
     11532      11533      11544      11543      11653      11654      11665      11664  
     11533      11534      11545      11544      11654      11655      11666      11665  
     11534      11535      11546      11545      11655      11656      11667      11666  
     11535      11536      11547      11546      11656      11657      11668      11667  
     11536      11537      11548      11547      11657      11658      11669      11668  
     11537      11538      11549      11548      11658      11659      11670      11669  
     11538      11539      11550      11549      11659      11660      11671      11670  
     11540      11541      11552      11551      11661      11662      11673      11672  
     11541      11542      11553      11552      11662      11663      11674      11673  
     11542      11543      11554      11553      11663      11664      11675      11674  
     11543      11544      11555      11554      11664      11665      11676      11675  
     11544      11545      11556      11555      11665      11666      11677      11676  
     11545      11546      11557      11556      11666      11667      11678      11677  
     11546      11547      11558      11557      11667      11668      11679      11678  
     11547      11548      11559      11558      11668      11669      11680      11679  
     11548      11549      11560      11559      11669      11670      11681      11680  
     11549      11550      11561      11560      11670      11671      11682      11681  
     11551      11552      11563      11562      11672      11673      11684      11683  
     11552      11553      11564      11563      11673      11674      11685      11684  
     11553      11554      11565      11564      11674      11675      11686      11685  
     11554      11555      11566      11565      11675      11676      11687      11686  
     11555      11556      11567      11566      11676      11677      11688      11687  
     11556      11557      11568      11567      11677      11678      11689      11688  
     11557      11558      11569      11568      11678      11679      11690      11689  
     11558      11559      11570      11569      11679      11680      11691      11690  
     11559      11560      11571      11570      11680      11681      11692      11691  
     11560      11561      11572      11571      11681      11682      11693      11692  
     11562      11563      11574      11573      11683      11684      11695      11694  
     11563      11564      11575      11574      11684      11685      11696      11695  
     11564      11565      11576      11575      11685      11686      11697      11696  
     11565      11566      11577      11576      11686      11687      11698      11697  
     11566      11567      11578      11577      11687      11688      11699      11698  
     11567      11568      11579      11578      11688      11689      11700      11699  
     11568      11569      11580      11579      11689      11690      11701      11700  
     11569      11570      11581      11580      11690      11691      11702      11701  
     11570      11571      11582      11581      11691      11692      11703      11702  
     11571      11572      11583      11582      11692      11693      11704      11703  
     11573      11574      11585      11584      11694      11695      11706      11705  
     11574      11575      11586      11585      11695      11696      11707      11706  
     11575      11576      11587      11586      11696      11697      11708      11707  
     11576      11577      11588      11587      11697      11698      11709      11708  
     11577      11578      11589      11588      11698      11699      11710      11709  
     11578      11579      11590      11589      11699      11700      11711      11710  
     11579      11580      11591      11590      11700      11701      11712      11711  
     11580      11581      11592      11591      11701      11702      11713      11712  
     11581      11582      11593      11592      11702      11703      11714      11713  
     11582      11583      11594      11593      11703      11704      11715      11714  
     11584      11585      11596      11595      11705      11706      11717      11716  
     11585      11586      11597      11596      11706      11707      11718      11717  
     11586      11587      11598      11597      11707      11708      11719      11718  
     11587      11588      11599      11598      11708      11709      11720      11719  
     11588      11589      11600      11599      11709      11710      11721      11720  
     11589      11590      11601      11600      11710      11711      11722      11721  
     11590      11591      11602      11601      11711      11712      11723      11722  
     11591      11592      11603      11602      11712      11713      11724      11723  
     11592      11593      11604      11603      11713      11714      11725      11724  
     11593      11594      11605      11604      11714      11715      11726      11725  
     11595      11596      11607      11606      11716      11717      11728      11727  
     11596      11597      11608      11607      11717      11718      11729      11728  
     11597      11598      11609      11608      11718      11719      11730      11729  
     11598      11599      11610      11609      11719      11720      11731      11730  
     11599      11600      11611      11610      11720      11721      11732      11731  
     11600      11601      11612      11611      11721      11722      11733      11732  
     11601      11602      11613      11612      11722      11723      11734      11733  
     11602      11603      11614      11613      11723      11724      11735      11734  
     11603      11604      11615      11614      11724      11725      11736      11735  
     11604      11605      11616      11615      11725      11726      11737      11736  
     11617      11618      11629      11628      11738      11739      11750      11749  
     11618      11619      11630      11629      11739      11740      11751      11750  
     11619      11620      11631      11630      11740      11741      11752      11751  
     11620      11621      11632      11631      11741      11742      11753      11752  
     11621      11622      11633      11632      11742      11743      11754      11753  
     11622      11623      11634      11633      11743      11744      11755      11754  
     11623      11624      11635      11634      11744      11745      11756      11755  
     11624      11625      11636      11635      11745      11746      11757      11756  
     11625      11626      11637      11636      11746      11747      11758      11757  
     11626      11627      11638      11637      11747      11748      11759      11758  
     11628      11629      11640      11639      11749      11750      11761      11760  
     11629      11630      11641      11640      11750      11751      11762      11761  
     11630      11631      11642      11641      11751      11752      11763      11762  
     11631      11632      11643      11642      11752      11753      11764      11763  
     11632      11633      11644      11643      11753      11754      11765      11764  
     11633      11634      11645      11644      11754      11755      11766      11765  
     11634      11635      11646      11645      11755      11756      11767      11766  
     11635      11636      11647      11646      11756      11757      11768      11767  
     11636      11637      11648      11647      11757      11758      11769      11768  
     11637      11638      11649      11648      11758      11759      11770      11769  
     11639      11640      11651      11650      11760      11761      11772      11771  
     11640      11641      11652      11651      11761      11762      11773      11772  
     11641      11642      11653      11652      11762      11763      11774      11773  
     11642      11643      11654      11653      11763      11764      11775      11774  
     11643      11644      11655      11654      11764      11765      11776      11775  
     11644      11645      11656      11655      11765      11766      11777      11776  
     11645      11646      11657      11656      11766      11767      11778      11777  
     11646      11647      11658      11657      11767      11768      11779      11778  
     11647      11648      11659      11658      11768      11769      11780      11779  
     11648      11649      11660      11659      11769      11770      11781      11780  
     11650      11651      11662      11661      11771      11772      11783      11782  
     11651      11652      11663      11662      11772      11773      11784      11783  
     11652      11653      11664      11663      11773      11774      11785      11784  
     11653      11654      11665      11664      11774      11775      11786      11785  
     11654      11655      11666      11665      11775      11776      11787      11786  
     11655      11656      11667      11666      11776      11777      11788      11787  
     11656      11657      11668      11667      11777      11778      11789      11788  
     11657      11658      11669      11668      11778      11779      11790      11789  
     11658      11659      11670      11669      11779      11780      11791      11790  
     11659      11660      11671      11670      11780      11781      11792      11791  
     11661      11662      11673      11672      11782      11783      11794      11793  
     11662      11663      11674      11673      11783      11784      11795      11794  
     11663      11664      11675      11674      11784      11785      11796      11795  
     11664      11665      11676      11675      11785      11786      11797      11796  
     11665      11666      11677      11676      11786      11787      11798      11797  
     11666      11667      11678      11677      11787      11788      11799      11798  
     11667      11668      11679      11678      11788      11789      11800      11799  
     11668      11669      11680      11679      11789      11790      11801      11800  
     11669      11670      11681      11680      11790      11791      11802      11801  
     11670      11671      11682      11681      11791      11792      11803      11802  
     11672      11673      11684      11683      11793      11794      11805      11804  
     11673      11674      11685      11684      11794      11795      11806      11805  
     11674      11675      11686      11685      11795      11796      11807      11806  
     11675      11676      11687      11686      11796      11797      11808      11807  
     11676      11677      11688      11687      11797      11798      11809      11808  
     11677      11678      11689      11688      11798      11799      11810      11809  
     11678      11679      11690      11689      11799      11800      11811      11810  
     11679      11680      11691      11690      11800      11801      11812      11811  
     11680      11681      11692      11691      11801      11802      11813      11812  
     11681      11682      11693      11692      11802      11803      11814      11813  
     11683      11684      11695      11694      11804      11805      11816      11815  
     11684      11685      11696      11695      11805      11806      11817      11816  
     11685      11686      11697      11696      11806      11807      11818      11817  
     11686      11687      11698      11697      11807      11808      11819      11818  
     11687      11688      11699      11698      11808      11809      11820      11819  
     11688      11689      11700      11699      11809      11810      11821      11820  
     11689      11690      11701      11700      11810      11811      11822      11821  
     11690      11691      11702      11701      11811      11812      11823      11822  
     11691      11692      11703      11702      11812      11813      11824      11823  
     11692      11693      11704      11703      11813      11814      11825      11824  
     11694      11695      11706      11705      11815      11816      11827      11826  
     11695      11696      11707      11706      11816      11817      11828      11827  
     11696      11697      11708      11707      11817      11818      11829      11828  
     11697      11698      11709      11708      11818      11819      11830      11829  
     11698      11699      11710      11709      11819      11820      11831      11830  
     11699      11700      11711      11710      11820      11821      11832      11831  
     11700      11701      11712      11711      11821      11822      11833      11832  
     11701      11702      11713      11712      11822      11823      11834      11833  
     11702      11703      11714      11713      11823      11824      11835      11834  
     11703      11704      11715      11714      11824      11825      11836      11835  
     11705      11706      11717      11716      11826      11827      11838      11837  
     11706      11707      11718      11717      11827      11828      11839      11838  
     11707      11708      11719      11718      11828      11829      11840      11839  
     11708      11709      11720      11719      11829      11830      11841      11840  
     11709      11710      11721      11720      11830      11831      11842      11841  
     11710      11711      11722      11721      11831      11832      11843      11842  
     11711      11712      11723      11722      11832      11833      11844      11843  
     11712      11713      11724      11723      11833      11834      11845      11844  
     11713      11714      11725      11724      11834      11835      11846      11845  
     11714      11715      11726      11725      11835      11836      11847      11846  
     11716      11717      11728      11727      11837      11838      11849      11848  
     11717      11718      11729      11728      11838      11839      11850      11849  
     11718      11719      11730      11729      11839      11840      11851      11850  
     11719      11720      11731      11730      11840      11841      11852      11851  
     11720      11721      11732      11731      11841      11842      11853      11852  
     11721      11722      11733      11732      11842      11843      11854      11853  
     11722      11723      11734      11733      11843      11844      11855      11854  
     11723      11724      11735      11734      11844      11845      11856      11855  
     11724      11725      11736      11735      11845      11846      11857      11856  
     11725      11726      11737      11736      11846      11847      11858      11857  
     11738      11739      11750      11749      11859      11860      11871      11870  
     11739      11740      11751      11750      11860      11861      11872      11871  
     11740      11741      11752      11751      11861      11862      11873      11872  
     11741      11742      11753      11752      11862      11863      11874      11873  
     11742      11743      11754      11753      11863      11864      11875      11874  
     11743      11744      11755      11754      11864      11865      11876      11875  
     11744      11745      11756      11755      11865      11866      11877      11876  
     11745      11746      11757      11756      11866      11867      11878      11877  
     11746      11747      11758      11757      11867      11868      11879      11878  
     11747      11748      11759      11758      11868      11869      11880      11879  
     11749      11750      11761      11760      11870      11871      11882      11881  
     11750      11751      11762      11761      11871      11872      11883      11882  
     11751      11752      11763      11762      11872      11873      11884      11883  
     11752      11753      11764      11763      11873      11874      11885      11884  
     11753      11754      11765      11764      11874      11875      11886      11885  
     11754      11755      11766      11765      11875      11876      11887      11886  
     11755      11756      11767      11766      11876      11877      11888      11887  
     11756      11757      11768      11767      11877      11878      11889      11888  
     11757      11758      11769      11768      11878      11879      11890      11889  
     11758      11759      11770      11769      11879      11880      11891      11890  
     11760      11761      11772      11771      11881      11882      11893      11892  
     11761      11762      11773      11772      11882      11883      11894      11893  
     11762      11763      11774      11773      11883      11884      11895      11894  
     11763      11764      11775      11774      11884      11885      11896      11895  
     11764      11765      11776      11775      11885      11886      11897      11896  
     11765      11766      11777      11776      11886      11887      11898      11897  
     11766      11767      11778      11777      11887      11888      11899      11898  
     11767      11768      11779      11778      11888      11889      11900      11899  
     11768      11769      11780      11779      11889      11890      11901      11900  
     11769      11770      11781      11780      11890      11891      11902      11901  
     11771      11772      11783      11782      11892      11893      11904      11903  
     11772      11773      11784      11783      11893      11894      11905      11904  
     11773      11774      11785      11784      11894      11895      11906      11905  
     11774      11775      11786      11785      11895      11896      11907      11906  
     11775      11776      11787      11786      11896      11897      11908      11907  
     11776      11777      11788      11787      11897      11898      11909      11908  
     11777      11778      11789      11788      11898      11899      11910      11909  
     11778      11779      11790      11789      11899      11900      11911      11910  
     11779      11780      11791      11790      11900      11901      11912      11911  
     11780      11781      11792      11791      11901      11902      11913      11912  
     11782      11783      11794      11793      11903      11904      11915      11914  
     11783      11784      11795      11794      11904      11905      11916      11915  
     11784      11785      11796      11795      11905      11906      11917      11916  
     11785      11786      11797      11796      11906      11907      11918      11917  
     11786      11787      11798      11797      11907      11908      11919      11918  
     11787      11788      11799      11798      11908      11909      11920      11919  
     11788      11789      11800      11799      11909      11910      11921      11920  
     11789      11790      11801      11800      11910      11911      11922      11921  
     11790      11791      11802      11801      11911      11912      11923      11922  
     11791      11792      11803      11802      11912      11913      11924      11923  
     11793      11794      11805      11804      11914      11915      11926      11925  
     11794      11795      11806      11805      11915      11916      11927      11926  
     11795      11796      11807      11806      11916      11917      11928      11927  
     11796      11797      11808      11807      11917      11918      11929      11928  
     11797      11798      11809      11808      11918      11919      11930      11929  
     11798      11799      11810      11809      11919      11920      11931      11930  
     11799      11800      11811      11810      11920      11921      11932      11931  
     11800      11801      11812      11811      11921      11922      11933      11932  
     11801      11802      11813      11812      11922      11923      11934      11933  
     11802      11803      11814      11813      11923      11924      11935      11934  
     11804      11805      11816      11815      11925      11926      11937      11936  
     11805      11806      11817      11816      11926      11927      11938      11937  
     11806      11807      11818      11817      11927      11928      11939      11938  
     11807      11808      11819      11818      11928      11929      11940      11939  
     11808      11809      11820      11819      11929      11930      11941      11940  
     11809      11810      11821      11820      11930      11931      11942      11941  
     11810      11811      11822      11821      11931      11932      11943      11942  
     11811      11812      11823      11822      11932      11933      11944      11943  
     11812      11813      11824      11823      11933      11934      11945      11944  
     11813      11814      11825      11824      11934      11935      11946      11945  
     11815      11816      11827      11826      11936      11937      11948      11947  
     11816      11817      11828      11827      11937      11938      11949      11948  
     11817      11818      11829      11828      11938      11939      11950      11949  
     11818      11819      11830      11829      11939      11940      11951      11950  
     11819      11820      11831      11830      11940      11941      11952      11951  
     11820      11821      11832      11831      11941      11942      11953      11952  
     11821      11822      11833      11832      11942      11943      11954      11953  
     11822      11823      11834      11833      11943      11944      11955      11954  
     11823      11824      11835      11834      11944      11945      11956      11955  
     11824      11825      11836      11835      11945      11946      11957      11956  
     11826      11827      11838      11837      11947      11948      11959      11958  
     11827      11828      11839      11838      11948      11949      11960      11959  
     11828      11829      11840      11839      11949      11950      11961      11960  
     11829      11830      11841      11840      11950      11951      11962      11961  
     11830      11831      11842      11841      11951      11952      11963      11962  
     11831      11832      11843      11842      11952      11953      11964      11963  
     11832      11833      11844      11843      11953      11954      11965      11964  
     11833      11834      11845      11844      11954      11955      11966      11965  
     11834      11835      11846      11845      11955      11956      11967      11966  
     11835      11836      11847      11846      11956      11957      11968      11967  
     11837      11838      11849      11848      11958      11959      11970      11969  
     11838      11839      11850      11849      11959      11960      11971      11970  
     11839      11840      11851      11850      11960      11961      11972      11971  
     11840      11841      11852      11851      11961      11962      11973      11972  
     11841      11842      11853      11852      11962      11963      11974      11973  
     11842      11843      11854      11853      11963      11964      11975      11974  
     11843      11844      11855      11854      11964      11965      11976      11975  
     11844      11845      11856      11855      11965      11966      11977      11976  
     11845      11846      11857      11856      11966      11967      11978      11977  
     11846      11847      11858      11857      11967      11968      11979      11978  
     11859      11860      11871      11870      11980      11981      11992      11991  
     11860      11861      11872      11871      11981      11982      11993      11992  
     11861      11862      11873      11872      11982      11983      11994      11993  
     11862      11863      11874      11873      11983      11984      11995      11994  
     11863      11864      11875      11874      11984      11985      11996      11995  
     11864      11865      11876      11875      11985      11986      11997      11996  
     11865      11866      11877      11876      11986      11987      11998      11997  
     11866      11867      11878      11877      11987      11988      11999      11998  
     11867      11868      11879      11878      11988      11989      12000      11999  
     11868      11869      11880      11879      11989      11990      12001      12000  
     11870      11871      11882      11881      11991      11992      12003      12002  
     11871      11872      11883      11882      11992      11993      12004      12003  
     11872      11873      11884      11883      11993      11994      12005      12004  
     11873      11874      11885      11884      11994      11995      12006      12005  
     11874      11875      11886      11885      11995      11996      12007      12006  
     11875      11876      11887      11886      11996      11997      12008      12007  
     11876      11877      11888      11887      11997      11998      12009      12008  
     11877      11878      11889      11888      11998      11999      12010      12009  
     11878      11879      11890      11889      11999      12000      12011      12010  
     11879      11880      11891      11890      12000      12001      12012      12011  
     11881      11882      11893      11892      12002      12003      12014      12013  
     11882      11883      11894      11893      12003      12004      12015      12014  
     11883      11884      11895      11894      12004      12005      12016      12015  
     11884      11885      11896      11895      12005      12006      12017      12016  
     11885      11886      11897      11896      12006      12007      12018      12017  
     11886      11887      11898      11897      12007      12008      12019      12018  
     11887      11888      11899      11898      12008      12009      12020      12019  
     11888      11889      11900      11899      12009      12010      12021      12020  
     11889      11890      11901      11900      12010      12011      12022      12021  
     11890      11891      11902      11901      12011      12012      12023      12022  
     11892      11893      11904      11903      12013      12014      12025      12024  
     11893      11894      11905      11904      12014      12015      12026      12025  
     11894      11895      11906      11905      12015      12016      12027      12026  
     11895      11896      11907      11906      12016      12017      12028      12027  
     11896      11897      11908      11907      12017      12018      12029      12028  
     11897      11898      11909      11908      12018      12019      12030      12029  
     11898      11899      11910      11909      12019      12020      12031      12030  
     11899      11900      11911      11910      12020      12021      12032      12031  
     11900      11901      11912      11911      12021      12022      12033      12032  
     11901      11902      11913      11912      12022      12023      12034      12033  
     11903      11904      11915      11914      12024      12025      12036      12035  
     11904      11905      11916      11915      12025      12026      12037      12036  
     11905      11906      11917      11916      12026      12027      12038      12037  
     11906      11907      11918      11917      12027      12028      12039      12038  
     11907      11908      11919      11918      12028      12029      12040      12039  
     11908      11909      11920      11919      12029      12030      12041      12040  
     11909      11910      11921      11920      12030      12031      12042      12041  
     11910      11911      11922      11921      12031      12032      12043      12042  
     11911      11912      11923      11922      12032      12033      12044      12043  
     11912      11913      11924      11923      12033      12034      12045      12044  
     11914      11915      11926      11925      12035      12036      12047      12046  
     11915      11916      11927      11926      12036      12037      12048      12047  
     11916      11917      11928      11927      12037      12038      12049      12048  
     11917      11918      11929      11928      12038      12039      12050      12049  
     11918      11919      11930      11929      12039      12040      12051      12050  
     11919      11920      11931      11930      12040      12041      12052      12051  
     11920      11921      11932      11931      12041      12042      12053      12052  
     11921      11922      11933      11932      12042      12043      12054      12053  
     11922      11923      11934      11933      12043      12044      12055      12054  
     11923      11924      11935      11934      12044      12045      12056      12055  
     11925      11926      11937      11936      12046      12047      12058      12057  
     11926      11927      11938      11937      12047      12048      12059      12058  
     11927      11928      11939      11938      12048      12049      12060      12059  
     11928      11929      11940      11939      12049      12050      12061      12060  
     11929      11930      11941      11940      12050      12051      12062      12061  
     11930      11931      11942      11941      12051      12052      12063      12062  
     11931      11932      11943      11942      12052      12053      12064      12063  
     11932      11933      11944      11943      12053      12054      12065      12064  
     11933      11934      11945      11944      12054      12055      12066      12065  
     11934      11935      11946      11945      12055      12056      12067      12066  
     11936      11937      11948      11947      12057      12058      12069      12068  
     11937      11938      11949      11948      12058      12059      12070      12069  
     11938      11939      11950      11949      12059      12060      12071      12070  
     11939      11940      11951      11950      12060      12061      12072      12071  
     11940      11941      11952      11951      12061      12062      12073      12072  
     11941      11942      11953      11952      12062      12063      12074      12073  
     11942      11943      11954      11953      12063      12064      12075      12074  
     11943      11944      11955      11954      12064      12065      12076      12075  
     11944      11945      11956      11955      12065      12066      12077      12076  
     11945      11946      11957      11956      12066      12067      12078      12077  
     11947      11948      11959      11958      12068      12069      12080      12079  
     11948      11949      11960      11959      12069      12070      12081      12080  
     11949      11950      11961      11960      12070      12071      12082      12081  
     11950      11951      11962      11961      12071      12072      12083      12082  
     11951      11952      11963      11962      12072      12073      12084      12083  
     11952      11953      11964      11963      12073      12074      12085      12084  
     11953      11954      11965      11964      12074      12075      12086      12085  
     11954      11955      11966      11965      12075      12076      12087      12086  
     11955      11956      11967      11966      12076      12077      12088      12087  
     11956      11957      11968      11967      12077      12078      12089      12088  
     11958      11959      11970      11969      12079      12080      12091      12090  
     11959      11960      11971      11970      12080      12081      12092      12091  
     11960      11961      11972      11971      12081      12082      12093      12092  
     11961      11962      11973      11972      12082      12083      12094      12093  
     11962      11963      11974      11973      12083      12084      12095      12094  
     11963      11964      11975      11974      12084      12085      12096      12095  
     11964      11965      11976      11975      12085      12086      12097      12096  
     11965      11966      11977      11976      12086      12087      12098      12097  
     11966      11967      11978      11977      12087      12088      12099      12098  
     11967      11968      11979      11978      12088      12089      12100      12099  
     11980      11981      11992      11991      12101      12102      12113      12112  
     11981      11982      11993      11992      12102      12103      12114      12113  
     11982      11983      11994      11993      12103      12104      12115      12114  
     11983      11984      11995      11994      12104      12105      12116      12115  
     11984      11985      11996      11995      12105      12106      12117      12116  
     11985      11986      11997      11996      12106      12107      12118      12117  
     11986      11987      11998      11997      12107      12108      12119      12118  
     11987      11988      11999      11998      12108      12109      12120      12119  
     11988      11989      12000      11999      12109      12110      12121      12120  
     11989      11990      12001      12000      12110      12111      12122      12121  
     11991      11992      12003      12002      12112      12113      12124      12123  
     11992      11993      12004      12003      12113      12114      12125      12124  
     11993      11994      12005      12004      12114      12115      12126      12125  
     11994      11995      12006      12005      12115      12116      12127      12126  
     11995      11996      12007      12006      12116      12117      12128      12127  
     11996      11997      12008      12007      12117      12118      12129      12128  
     11997      11998      12009      12008      12118      12119      12130      12129  
     11998      11999      12010      12009      12119      12120      12131      12130  
     11999      12000      12011      12010      12120      12121      12132      12131  
     12000      12001      12012      12011      12121      12122      12133      12132  
     12002      12003      12014      12013      12123      12124      12135      12134  
     12003      12004      12015      12014      12124      12125      12136      12135  
     12004      12005      12016      12015      12125      12126      12137      12136  
     12005      12006      12017      12016      12126      12127      12138      12137  
     12006      12007      12018      12017      12127      12128      12139      12138  
     12007      12008      12019      12018      12128      12129      12140      12139  
     12008      12009      12020      12019      12129      12130      12141      12140  
     12009      12010      12021      12020      12130      12131      12142      12141  
     12010      12011      12022      12021      12131      12132      12143      12142  
     12011      12012      12023      12022      12132      12133      12144      12143  
     12013      12014      12025      12024      12134      12135      12146      12145  
     12014      12015      12026      12025      12135      12136      12147      12146  
     12015      12016      12027      12026      12136      12137      12148      12147  
     12016      12017      12028      12027      12137      12138      12149      12148  
     12017      12018      12029      12028      12138      12139      12150      12149  
     12018      12019      12030      12029      12139      12140      12151      12150  
     12019      12020      12031      12030      12140      12141      12152      12151  
     12020      12021      12032      12031      12141      12142      12153      12152  
     12021      12022      12033      12032      12142      12143      12154      12153  
     12022      12023      12034      12033      12143      12144      12155      12154  
     12024      12025      12036      12035      12145      12146      12157      12156  
     12025      12026      12037      12036      12146      12147      12158      12157  
     12026      12027      12038      12037      12147      12148      12159      12158  
     12027      12028      12039      12038      12148      12149      12160      12159  
     12028      12029      12040      12039      12149      12150      12161      12160  
     12029      12030      12041      12040      12150      12151      12162      12161  
     12030      12031      12042      12041      12151      12152      12163      12162  
     12031      12032      12043      12042      12152      12153      12164      12163  
     12032      12033      12044      12043      12153      12154      12165      12164  
     12033      12034      12045      12044      12154      12155      12166      12165  
     12035      12036      12047      12046      12156      12157      12168      12167  
     12036      12037      12048      12047      12157      12158      12169      12168  
     12037      12038      12049      12048      12158      12159      12170      12169  
     12038      12039      12050      12049      12159      12160      12171      12170  
     12039      12040      12051      12050      12160      12161      12172      12171  
     12040      12041      12052      12051      12161      12162      12173      12172  
     12041      12042      12053      12052      12162      12163      12174      12173  
     12042      12043      12054      12053      12163      12164      12175      12174  
     12043      12044      12055      12054      12164      12165      12176      12175  
     12044      12045      12056      12055      12165      12166      12177      12176  
     12046      12047      12058      12057      12167      12168      12179      12178  
     12047      12048      12059      12058      12168      12169      12180      12179  
     12048      12049      12060      12059      12169      12170      12181      12180  
     12049      12050      12061      12060      12170      12171      12182      12181  
     12050      12051      12062      12061      12171      12172      12183      12182  
     12051      12052      12063      12062      12172      12173      12184      12183  
     12052      12053      12064      12063      12173      12174      12185      12184  
     12053      12054      12065      12064      12174      12175      12186      12185  
     12054      12055      12066      12065      12175      12176      12187      12186  
     12055      12056      12067      12066      12176      12177      12188      12187  
     12057      12058      12069      12068      12178      12179      12190      12189  
     12058      12059      12070      12069      12179      12180      12191      12190  
     12059      12060      12071      12070      12180      12181      12192      12191  
     12060      12061      12072      12071      12181      12182      12193      12192  
     12061      12062      12073      12072      12182      12183      12194      12193  
     12062      12063      12074      12073      12183      12184      12195      12194  
     12063      12064      12075      12074      12184      12185      12196      12195  
     12064      12065      12076      12075      12185      12186      12197      12196  
     12065      12066      12077      12076      12186      12187      12198      12197  
     12066      12067      12078      12077      12187      12188      12199      12198  
     12068      12069      12080      12079      12189      12190      12201      12200  
     12069      12070      12081      12080      12190      12191      12202      12201  
     12070      12071      12082      12081      12191      12192      12203      12202  
     12071      12072      12083      12082      12192      12193      12204      12203  
     12072      12073      12084      12083      12193      12194      12205      12204  
     12073      12074      12085      12084      12194      12195      12206      12205  
     12074      12075      12086      12085      12195      12196      12207      12206  
     12075      12076      12087      12086      12196      12197      12208      12207  
     12076      12077      12088      12087      12197      12198      12209      12208  
     12077      12078      12089      12088      12198      12199      12210      12209  
     12079      12080      12091      12090      12200      12201      12212      12211  
     12080      12081      12092      12091      12201      12202      12213      12212  
     12081      12082      12093      12092      12202      12203      12214      12213  
     12082      12083      12094      12093      12203      12204      12215      12214  
     12083      12084      12095      12094      12204      12205      12216      12215  
     12084      12085      12096      12095      12205      12206      12217      12216  
     12085      12086      12097      12096      12206      12207      12218      12217  
     12086      12087      12098      12097      12207      12208      12219      12218  
     12087      12088      12099      12098      12208      12209      12220      12219  
     12088      12089      12100      12099      12209      12210      12221      12220  
